Th Hg
 1.0000000000000000
     4.8784989999999997    0.0000000000000000    0.0000000000000000
    -2.4392499999999999    4.2249049999999997    0.0000000000000000
     0.0000000000000000    0.0000000000000000    7.5612199999999996
 Th  Hg 
   2   4
Cartesian
  0.0000000000000000  0.0000000000000000  1.8903049999999999
  0.0000000000000000  0.0000000000000000  5.6709149999999999
 -0.0000027725830002  2.8166047416350000  0.3317334050600000
  2.4392517725829999  1.4083002583649999  4.1123434050599998
  2.4392517725829999  1.4083002583649999  7.2294865949399991
 -0.0000027725830002  2.8166047416350000  3.4488765949399998
