Pr B  Rh
 1.0000000000000000
     4.2462109999999997    0.0000000000000000    0.0000000000000000
     0.0000000000000000    4.2462419999999996    0.0000000000000000
     0.0000000000000000    0.0000000000000000    4.2462030000000004
 Pr  B   Rh 
   1   1   3
Cartesian
  0.0000000000000000  0.0000000000000000  0.0000000000000000
  2.1231054999999999  2.1231209999999998  2.1231015000000002
  0.0000000000000000  2.1231209999999998  2.1231015000000002
  2.1231054999999999  2.1231209999999998  0.0000000000000000
  2.1231054999999999  0.0000000000000000  2.1231015000000002
