Ca Zn
 1.0000000000000000
    11.4614989999999999    0.0000000000000000    0.0000000000000000
     0.0000000000000000    4.1712970000000000    0.0000000000000000
     0.0000000000000000    0.0000000000000000    4.4630789999999996
 Ca  Zn 
   4   4
Cartesian
  9.7872146875790005  0.0000000000000000  1.1157697499999999
  1.6742843124209998  0.0000000000000000  3.3473092499999995
  4.0564651875789997  2.0856485000000000  1.1157697499999999
  7.4050338124209993  2.0856485000000000  3.3473092499999995
  0.7317823266530000  2.0856485000000000  1.1157697499999999
 10.7297166733469993  2.0856485000000000  3.3473092499999995
  6.4625318266529996  0.0000000000000000  1.1157697499999999
  4.9989671733470002  0.0000000000000000  3.3473092499999995
