Yb Sn Au
 1.0000000000000000
     0.0000000000000000    3.4577380000000000    3.4577380000000000
     3.4577380000000000    0.0000000000000000    3.4577380000000000
     3.4577380000000000    3.4577380000000000    0.0000000000000000
 Yb  Sn  Au 
   1   1   2
Cartesian
  0.0000000000000000  0.0000000000000000  0.0000000000000000
  3.4577380000000000  3.4577380000000000  3.4577380000000000
  5.1866070000000004  5.1866070000000004  5.1866070000000004
  1.7288690000000000  1.7288690000000000  1.7288690000000000
