Ti Fe Sn
 1.0000000000000000
     6.0420920000000002    0.0000000000000000    0.0000000000000000
     0.0000000000000000    6.0420920000000002    0.0000000000000000
     0.0000000000000000    0.0000000000000000    6.0420920000000002
 Ti  Fe  Sn 
   4   8   4
Cartesian
  0.0000000000000000  0.0000000000000000  0.0000000000000000
  0.0000000000000000  3.0210460000000001  3.0210460000000001
  3.0210460000000001  0.0000000000000000  3.0210460000000001
  3.0210460000000001  3.0210460000000001  0.0000000000000000
  1.5105230000000001  4.5315690000000002  1.5105230000000001
  4.5315690000000002  4.5315690000000002  1.5105230000000001
  1.5105230000000001  1.5105230000000001  4.5315690000000002
  4.5315690000000002  1.5105230000000001  4.5315690000000002
  4.5315690000000002  4.5315690000000002  4.5315690000000002
  1.5105230000000001  4.5315690000000002  4.5315690000000002
  4.5315690000000002  1.5105230000000001  1.5105230000000001
  1.5105230000000001  1.5105230000000001  1.5105230000000001
  3.0210460000000001  0.0000000000000000  0.0000000000000000
  3.0210460000000001  3.0210460000000001  3.0210460000000001
  0.0000000000000000  0.0000000000000000  3.0210460000000001
  0.0000000000000000  3.0210460000000001  0.0000000000000000
