Hf Tc Ru
 1.0000000000000000
     0.0000000000000000    3.2309380000000001    3.2309380000000001
     3.2309380000000001    0.0000000000000000    3.2309380000000001
     3.2309380000000001    3.2309380000000001    0.0000000000000000
 Hf  Tc  Ru 
   2   1   1
Cartesian
  0.0000000000000000  0.0000000000000000  0.0000000000000000
  3.2309444618760002  3.2309444618760002  3.2309444618760002
  4.8464070000000001  4.8464070000000001  4.8464070000000001
  1.6154625381240000  1.6154625381240000  1.6154625381240000
