La W  N 
 1.0000000000000000
     4.9234169999999997   -2.8433720000000000    0.0031460000000000
     4.9234169999999997    2.8433720000000000    0.0031460000000000
     3.2783449999999998    0.0000000000000000    4.6451330000000004
 La  W   N  
   2   2   6
Cartesian
  7.0321559039040000  0.0000000000000001  2.4921218808000005
  0.4695664039040000  0.0000000000000000  0.1664093808000000
 10.2886440655939992  0.0000000000000002  3.6461869375500000
  3.7260545655940005  0.0000000000000000  1.3204744375500002
  2.3465924992409999  0.2901661126000000  2.5782045536610005
  5.6308369992409997 -0.2901661126000000  0.2587840536610000
  4.8945718650650001  1.5627399981760002  2.3363424714070002
  4.7266922674650003 -1.2725738855760003  2.8100572447570005
  3.0875197674650003 -1.5707981144240002  0.4874907447570000
  3.2553993650650002  1.2806320018240001  0.0137759714070000
