Ta Sb
 1.0000000000000000
     5.3023520000000000    0.0000000000000000    0.0000000000000000
     0.0000000000000000    5.3023520000000000    0.0000000000000000
     0.0000000000000000    0.0000000000000000    5.3023520000000000
 Ta  Sb 
   6   2
Cartesian
  1.3255880000000000  0.0000000000000000  2.6511760000000000
  3.9767640000000002  0.0000000000000000  2.6511760000000000
  0.0000000000000000  2.6511760000000000  1.3255880000000000
  0.0000000000000000  2.6511760000000000  3.9767640000000002
  2.6511760000000000  3.9767640000000002  0.0000000000000000
  2.6511760000000000  1.3255880000000000  0.0000000000000000
  0.0000000000000000  0.0000000000000000  0.0000000000000000
  2.6511760000000000  2.6511760000000000  2.6511760000000000
