Ti Ga Pt
 1.0000000000000000
     4.3845010000000002    0.0000000000000000    0.0000000000000000
    -2.1922510000000002    3.7970899999999999    0.0000000000000000
     0.0000000000000000    0.0000000000000000    5.4802340000000003
 Ti  Ga  Pt 
   2   2   2
Cartesian
  0.0000000000000000  0.0000000000000000  0.0000000000000000
  0.0000000000000000  0.0000000000000000  2.7401170000000001
 -0.0000025255840002  2.5313945990300000  1.3690994590500001
  2.1922525255839997  1.2656954009699999  4.1111345409500002
 -0.0000025255840002  2.5313945990300000  4.1105262349759997
  2.1922525255839997  1.2656954009699999  1.3697077650239999
