Nb Ga Co
 1.0000000000000000
     3.6371280000000001    0.0000000000000000    2.0998969999999999
     1.2123770000000000    3.4291170000000002    2.0998969999999999
     0.0000000000000000    0.0000000000000000    4.1997929999999997
 Nb  Ga  Co 
   1   1   2
Cartesian
  2.4247525000000003  1.7145585000000001  4.1997935000000002
  0.0000000000000000  0.0000000000000000  0.0000000000000000
  1.2123762500000002  0.8572792500000000  2.0998967500000001
  3.6371287500000000  2.5718377500000003  6.2996902499999994
