Na O 
 1.0000000000000000
     5.5910229999999999    0.0000000000000000    0.0000000000000000
     0.0000000000000000    5.5910229999999999    0.0000000000000000
     0.0000000000000000    0.0000000000000000    5.5910229999999999
 Na  O  
   8   4
Cartesian
  4.1932672499999999  1.3977557500000000  1.3977557500000000
  1.3977557500000000  4.1932672499999999  4.1932672499999999
  4.1932672499999999  4.1932672499999999  4.1932672499999999
  1.3977557500000000  1.3977557500000000  1.3977557500000000
  1.3977557500000000  1.3977557500000000  4.1932672499999999
  4.1932672499999999  4.1932672499999999  1.3977557500000000
  1.3977557500000000  4.1932672499999999  1.3977557500000000
  4.1932672499999999  1.3977557500000000  4.1932672499999999
  0.0000000000000000  0.0000000000000000  0.0000000000000000
  0.0000000000000000  2.7955114999999999  2.7955114999999999
  2.7955114999999999  0.0000000000000000  2.7955114999999999
  2.7955114999999999  2.7955114999999999  0.0000000000000000
