Be Nb Ru
 1.0000000000000000
     0.0000000000000000    3.0139939999999998    3.0139939999999998
     3.0139939999999998    0.0000000000000000    3.0139939999999998
     3.0139939999999998    3.0139939999999998    0.0000000000000000
 Be  Nb  Ru 
   1   1   2
Cartesian
  1.5070030279879998  1.5070030279879998  1.5070030279879998
  4.5209970279879999  4.5209970279879999  4.5209970279879999
  0.0000000000000000  0.0000000000000000  0.0000000000000000
  3.0139939999999998  3.0139939999999998  3.0139939999999998
