Mg Ir
 1.0000000000000000
     8.0644749999999998   -4.6560269999999999    2.8224260000000001
     0.0000000000000000    9.3120530000000006    2.8224260000000001
    -8.0644749999999998   -4.6560269999999999    2.8224260000000001
 Mg  Ir 
  26   6
Cartesian
  0.0000000000000000  4.6560265000000003  1.4112130000000001
  4.0322374999999999 -2.3280135000000000  1.4112130000000001
 -4.0322374999999999 -2.3280135000000000  1.4112130000000001
  0.0000000000000000 -4.6560269999999999  2.8224260000000001
 -4.0322374999999999  2.3280130000000003  2.8224260000000001
  4.0322374999999999  2.3280130000000003  2.8224260000000001
  5.0898853317749992  0.4961130260800015  4.9392455000000002
 -2.9745896682250001  4.1599124739199995  4.9392455000000002
 -2.1152956635499995 -4.6560272499999993  4.9392455000000002
 -5.0898853317750001 -0.4961140260799994  3.5280325000000001
  2.9745896682249993 -4.1599134739199997  3.5280325000000001
  2.1152956635500004  4.6560262500000009  3.5280324999999997
  0.0000000000000000 -0.0000002499999998  2.1168195000000001
 -0.0000000000000004 -0.0000007499999994  6.3504585000000002
 -2.5720594630750004  0.4428667098939998  4.8988227148280004
  0.9024953972500006 -2.4489029882659996  4.8988227148279995
  1.6695640658249993  2.0060345426940009  4.8988227148279995
  0.9024953972500008 -6.8631515117340003  4.9796682851720000
  5.4924155369249998  4.2131587901060010  4.9796682851720000
 -6.3949109341749999  2.6499909573060005  4.9796682851720009
  2.5720594630750000 -0.4428677098939998  3.5684552851720004
 -0.9024953972500002  2.4489019882660008  3.5684552851720004
 -1.6695640658250002 -2.0060355426939998  3.5684552851720004
 -0.9024953972500001  6.8631505117340001  3.4876097148279999
 -5.4924155369249998 -4.2131597901060003  3.4876097148280003
  6.3949109341749999 -2.6499919573059989  3.4876097148279999
  2.7818729091500001 -0.0000007499999998  6.3504584999999993
 -1.3909364545750003 -2.4091732841599995  6.3504585000000002
 -1.3909364545750003  2.4091717841600002  6.3504585000000002
 -2.7818729091500001 -0.0000002499999997  2.1168195000000001
  1.3909364545750000  2.4091722841599998  2.1168195000000001
  1.3909364545749998 -2.4091727841599999  2.1168195000000001
