Cs Sn Br
 1.0000000000000000
     6.7276959999999999    0.0000000000000000    3.8842379999999999
     2.2425649999999999    6.3429330000000004    3.8842379999999999
    -0.0000000000000000    0.0000000000000000    7.7684759999999997
 Cs  Sn  Br 
   2   1   6
Cartesian
  2.2425652500000002  1.5857332500000001  3.8842379999999999
  6.7276957499999996  4.7571997499999998 11.6527139999999996
  0.0000000000000000  0.0000000000000000  0.0000000000000000
  5.6541776525840000  1.5181936994160001  5.7436421517899996
  3.3160923176770001  4.8247456435170006  9.7933253851619995
  2.1470499108720000  1.5181936994160001  7.7684837684760000
  5.6541776525840000  1.5181936994160001  9.7933253851619995
  6.8232200593889996  4.8247456435170006  7.7684837684760000
  3.3160923176770001  4.8247456435170006  5.7436421517899996
