Mg Hg
 1.0000000000000000
     8.3118689999999997    0.0000000000000000    0.0000000000000000
    -4.1559340000000002    7.1982889999999999    0.0000000000000000
     0.0000000000000000    0.0000000000000000    5.9744880000000000
 Mg  Hg 
  10   6
Cartesian
  6.2204115866129994  0.0000000000000000  4.4808659999999998
  3.1102061674949995  5.3870339269529994  1.4936220000000000
 -1.0457285808820000  1.8112550730469998  1.4936220000000000
 -3.1102054191180000  5.3870339269529994  4.4808659999999998
  1.0457288325049998  1.8112550730469998  4.4808659999999998
  2.0914574133869999  0.0000000000000000  1.4936220000000000
 -0.0000038226010005  4.7988617327630001  0.0000000000000000
  4.1559388226009997  2.3994272672369998  2.9872440000000000
  4.1559388226009997  2.3994272672369998  0.0000000000000000
 -0.0000038226010005  4.7988617327630001  2.9872440000000000
  3.2282301771720001  0.0000000000000000  4.4808659999999998
  1.6141152827800000  2.7957290681320002  1.4936220000000000
 -2.5418191056080004  4.4025599318680007  1.4936220000000000
 -1.6141148943920001  2.7957290681320002  4.4808659999999998
  2.5418197172199997  4.4025599318680007  4.4808659999999998
  5.0836388228280001  0.0000000000000000  1.4936220000000000
