Ag Te
 1.0000000000000000
     4.5053510000000001    0.0000000000000000    0.0000000000000000
     0.0000000000000000    7.7383940000000004   -3.1451829999999998
     0.0000000000000000   -0.0613230000000000    7.9567819999999996
 Ag  Te 
   8   4
Cartesian
  0.5073791135669999  2.6087945651319999  1.9129259519339998
  2.7600546135670001  1.2297409348680002  0.4928735480660001
  3.9979718864330001  5.0682764348680003  2.8986730480660001
  1.7452963864330000  6.4473300651320011  4.3187254519339993
  3.8780890016740002  4.9929910048320005  5.8097579072269996
  1.6254135016739999  6.5226154951680000  1.4076405927729998
  0.6272619983259999  2.6840799951680001 -0.9981589072270001
  2.8799374983260000  1.1544555048320000  3.4039584072269999
  0.6543031150280000  7.4879929652149997 -1.1273669184819997
  2.9069786150280001  4.0889365347850006  0.3879834184819998
  3.8510478849720000  0.1890780347850000  5.9389659184820003
  1.5983723849720000  3.5881344652150000  4.4236155815179998
