Zn Ga O 
 1.0000000000000000
     5.1086419999999997    0.0000000000000000    2.9494769999999999
     1.7028810000000001    4.8164740000000004    2.9494769999999999
     0.0000000000000000    0.0000000000000000    5.8989520000000004
 Zn  Ga  O  
   2   4   8
Cartesian
  0.8514403749999999  0.6020592500000000  1.4747382500000001
  5.9600826249999992  4.2144147500000004 10.3231677499999996
  3.4057614999999997  2.4082370000000002  2.9494769999999999
  3.4057614999999997  2.4082370000000002  5.8989530000000006
  0.8514405000000000  2.4082370000000002  4.4242144999999997
  2.5543209999999998  0.0000000000000000  4.4242144999999997
  5.0302688663619994  3.5569371501560001  8.7126827935639994
  1.7812541336379999  1.2595368498440003  5.7632176374920006
  2.5543246442559999  3.4461100834160003  4.4242208759419999
  4.1004652115139999  1.2595368498440003  4.4242208759419999
  4.2571983557439994  1.3703639165840000  7.3736851240580004
  2.7110577884859999  3.5569371501560001  7.3736851240580004
  1.7812541336379999  1.2595368498440003  3.0852232064360003
  5.0302688663619994  3.5569371501560001  6.0346883625079997
