Li Al Te
 1.0000000000000000
     5.7654259999999997    0.0000000000000000   -2.7241439999999999
    -1.2871480000000000    5.6199089999999998   -2.7241439999999999
    -0.0089090000000000   -0.0111800000000000    7.4442440000000003
 Li  Al  Te 
   2   2   4
Cartesian
  3.9978280000000006  1.3993872500000000  0.9979780000000003
  2.2391389999999998  2.8099544999999999 -2.7241439999999999
  0.4715410000000000  4.2093417500000001  0.9979780000000003
  0.0000000000000000  0.0000000000000000  0.0000000000000000
  4.0248405024320002  4.9146253750000000 -2.9574920798079996
  3.4600555711359999  0.5882694987120000  3.5913760798080006
 -0.1147105711360000  3.6098922512879996  3.4887739201920001
  1.5685524975679996  2.1046708750000001 -0.1307459201919998
