Ti Pt
 1.0000000000000000
     5.5511030000000003    0.0000000000000000    0.0000000000000000
    -2.7755519999999998    4.8073949999999996    0.0000000000000000
     0.0000000000000000    0.0000000000000000   15.8568560000000005
 Ti  Pt 
   7  21
Cartesian
  0.0000000000000000  0.0000000000000000 11.4139235173599989
  2.7755541088850006  1.6024633975349998 13.5782416496560003
 -0.0000031088849999  3.2049316024649999  2.2785984934879999
  0.0000000000000000  0.0000000000000000  4.4429324826399998
  2.7755541088850006  1.6024633975349998  6.8185273642800004
  0.0000000000000000  0.0000000000000000  0.0000000000000000
 -0.0000031088849999  3.2049316024649999  9.0383286357200010
  2.7755511667860002  3.2037826350600001  9.0548197659599996
  1.3887693140440001  0.8018061824699999  9.0548197659599996
  0.0000026088410001  1.6028864482950000 13.5886120334800005
 -0.0000001667859998  1.6036123649399998  6.8020362340400000
 -1.3867825191699998  4.0055888175299996  6.8020362340400000
  2.7755542751950002  0.0034276726350000 11.3107112416559996
  1.3867816859560007  4.0055888175299996  6.8020362340400000
 -1.3874070182949996  4.0059493721549995 13.5886120334800005
  1.3874117361090006  4.0059493721549995 13.5886120334800005
  4.1629580182949999  0.8014456278450000  2.2682439665200000
  4.1623335191699997  0.8018061824699999  9.0548197659599996
  1.3907481158350004  2.4019812599849999 11.3107112416559996
  1.3881392638910002  0.8014456278450000  2.2682439665200000
  2.7755483911590000  3.2045085517050000  2.2682439665200000
  1.3848028841650000  2.4054137400150002  4.5461447583440000
 -0.0000032751949999  4.8039673273650001  4.5461447583440000
  2.7755515000000002  0.0000000000000000  0.0000000000000000
 -1.3848089356250000  2.4054137400150002  4.5461447583440000
  4.1603599356250003  2.4019812599849999 11.3107112416559996
  1.3877755000000003  2.4036974999999998  0.0000000000000000
 -1.3877759999999999  2.4036974999999998  0.0000000000000000
