Be Au
 1.0000000000000000
     4.7226189999999999    0.0000000000000000    0.0000000000000000
     0.0000000000000000    4.7226189999999999    0.0000000000000000
     0.0000000000000000    0.0000000000000000    4.7226189999999999
 Be  Au 
   4   4
Cartesian
  0.7273116617140000  1.6339978382860001  3.0886211617139998
  1.6339978382860001  3.0886211617139998  0.7273116617140000
  3.0886211617139998  0.7273116617140000  1.6339978382860001
  3.9953073382860000  3.9953073382860000  3.9953073382860000
  3.9897913192939995  3.0941371807060003  1.6284818192940000
  3.0941371807060003  1.6284818192940000  3.9897913192939995
  1.6284818192940000  3.9897913192939995  3.0941371807060003
  0.7328276807060000  0.7328276807060000  0.7328276807060000
