Zn Cu Pd
 1.0000000000000000
     0.0000000000000000    3.0040960000000001    3.0040960000000001
     3.0040960000000001    0.0000000000000000    3.0040960000000001
     3.0040960000000001    3.0040960000000001    0.0000000000000000
 Zn  Cu  Pd 
   1   1   2
Cartesian
  4.5061500081920007  4.5061500081920007  4.5061500081920007
  1.5020480000000000  1.5020480000000000  1.5020480000000000
  0.0000000000000000  0.0000000000000000  0.0000000000000000
  3.0040960000000001  3.0040960000000001  3.0040960000000001
