Ti Pd
 1.0000000000000000
     3.9312239999999998    0.0000000000000000    0.0000000000000000
     0.0000000000000000    3.9312330000000002    0.0000000000000000
     0.0000000000000000    0.0000000000000000    3.9312510000000001
 Ti  Pd 
   1   3
Cartesian
  0.0000000000000000  3.9312290687670002  0.0000000000000000
  1.9656119999999999  1.9656204312330001  0.0000000000000000
  1.9656119999999999  0.0000039312330000  1.9656255000000000
  0.0000000000000000  1.9656125687670003  1.9656255000000000
