Ti Re Tc
 1.0000000000000000
     0.0000000000000000    3.1000390000000002    3.1000390000000002
     3.1000390000000002    0.0000000000000000    3.1000390000000002
     3.1000390000000002    3.1000390000000002    0.0000000000000000
 Ti  Re  Tc 
   2   1   1
Cartesian
  3.1000390000000002  3.1000390000000002  3.1000390000000002
  0.0000000000000000  0.0000000000000000  0.0000000000000000
  1.5500195000000001  1.5500195000000001  1.5500195000000001
  4.6500585000000001  4.6500585000000001  4.6500585000000001
