Sc Ir
 1.0000000000000000
     3.2338269999999998    0.0000000000000000    0.0000000000000000
     0.0000000000000000    3.2338269999999998    0.0000000000000000
     0.0000000000000000    0.0000000000000000    3.2338269999999998
 Sc  Ir 
   1   1
Cartesian
  1.6169134999999999  1.6169134999999999  1.6169134999999999
  0.0000000000000000  0.0000000000000000  0.0000000000000000
