Pr Pb
 1.0000000000000000
     4.9258309999999996    0.0000000000000000    0.0000000000000000
     0.0000000000000000    4.9258309999999996    0.0000000000000000
     0.0000000000000000    0.0000000000000000    4.9258309999999996
 Pr  Pb 
   1   3
Cartesian
  0.0000000000000000  0.0000000000000000  0.0000000000000000
  0.0000000000000000  2.4629154999999998  2.4629154999999998
  2.4629154999999998  2.4629154999999998  0.0000000000000000
  2.4629154999999998  0.0000000000000000  2.4629154999999998
