Sr Cu N 
 1.0000000000000000
     8.6455870000000008    0.0000000000000000    0.0000000000000000
     0.0000000000000000    8.6455870000000008    0.0000000000000000
     0.0000000000000000    0.0000000000000000    7.3339999999999996
 Sr  Cu  N  
  12   6  10
Cartesian
  0.0000000000000000  0.0000000000000000  3.6915835680000000
  0.0000000000000000  0.0000000000000000  0.0245835680000000
  0.0000000000000000  4.3227935000000004  0.1728990500000000
  4.3227935000000004  0.0000000000000000  3.8398990500000001
  2.3042304928270001  2.6258636204010006  5.2132858919999991
  6.3413565071730007  6.0197233795990011  5.2132858919999991
  6.0197233795990011  2.3042304928270001  1.5462858920000000
  2.6258636204010006  6.3413565071730007  1.5462858920000000
  6.0197233795990011  6.3413565071730007  1.5462858920000000
  6.3413565071730007  2.6258636204010006  5.2132858919999991
  2.3042304928270001  6.0197233795990011  5.2132858919999991
  2.6258636204010006  2.3042304928270001  1.5462858920000000
  4.3227935000000004  4.3227935000000004  7.1312075659999996
  4.3227935000000004  4.3227935000000004  3.4642075659999998
  0.0000000000000000  3.1101375306190002  3.1767367679999996
  3.1101375306190002  0.0000000000000000  6.8437367679999994
  5.5354494693810006  0.0000000000000000  6.8437367679999994
  0.0000000000000000  5.5354494693810006  3.1767367679999996
  0.0000000000000000  4.3227935000000004  4.6256124720000003
  4.3227935000000004  0.0000000000000000  0.9586124719999999
  0.0000000000000000  6.7403157648750005  1.7695768559999998
  6.7403157648750005  0.0000000000000000  5.4365768560000003
  1.9052712351250001  0.0000000000000000  5.4365768560000003
  0.0000000000000000  1.9052712351250001  1.7695768559999998
  4.3227935000000004  6.1578366319240008  3.5499860299999999
  6.1578366319240008  4.3227935000000004  7.2169860299999993
  2.4877503680760005  4.3227935000000004  7.2169860299999993
  4.3227935000000004  2.4877503680760005  3.5499860299999999
