In Si Pt
 1.0000000000000000
     3.9652970000000001    0.0000000000000000    0.0000000000000000
     0.0000000000000000    3.9652970000000001    0.0000000000000000
     0.0000000000000000    0.0000000000000000    7.0973639999999998
 In  Si  Pt 
   1   1   5
Cartesian
  1.9826485000000000  1.9826485000000000  0.0000000000000000
  0.0000000000000000  0.0000000000000000  3.5486819999999999
  0.0000000000000000  1.9826485000000000  2.1033606003120000
  0.0000000000000000  1.9826485000000000  4.9940033996879993
  1.9826485000000000  0.0000000000000000  2.1033606003120000
  1.9826485000000000  0.0000000000000000  4.9940033996879993
  0.0000000000000000  0.0000000000000000  0.0000000000000000
