Tm Cu Sn
 1.0000000000000000
     0.0000000000000000   -4.3890599999999997    0.0000000000000000
     0.0098990000000000    0.0000000000000000   -6.8900170000000003
     7.2531499999999998    2.1945299999999999    3.3543200000000000
 Tm  Cu  Sn 
   3   4   4
Cartesian
  0.0049495000000000  0.0000000000000000 -3.4450085000000001
  5.3696927716839991 -2.1945278054699999 -3.4203181882820002
  1.8933562283159999 -0.0000021945300001 -0.1153788117180001
  2.6841013443580000 -2.1945278054699999 -4.8162359865440010
  4.5789476556419997 -0.0000021945300001  1.2805389865440000
  2.3140589757379999 -2.1945365835899997 -2.2282882225240002
  4.9489900242619997  0.0000065835899999 -1.3074087774760006
  4.1046511303119999 -2.1945321945299998 -0.1724559027860003
  3.1583978696880002  0.0000021945300000 -3.3632410972139999
  7.1097139341380000 -0.0000043890599997  1.9527649549460002
  0.1533350658620000 -2.1945256109400000 -5.4884619549459996
