Ho Cu Pd
 1.0000000000000000
    -3.4877289999999999   -3.4877289999999999    0.0000000000000000
    -3.4877289999999999    0.0000000000000000   -3.4877289999999999
     0.0000000000000000   -3.4877289999999999   -3.4877289999999999
 Ho  Cu  Pd 
   1   4   1
Cartesian
 -5.2315934999999998 -5.2315934999999998 -5.2315934999999998
 -2.6102442854319996 -2.6102442854319996 -2.6102442854319996
 -4.3652172022969999 -4.3652172022969999 -2.6102442854319996
 -4.3652172022969999 -2.6102442854319996 -4.3652172022969999
 -2.6102442854319996 -4.3652172022969999 -4.3652172022969999
  0.0000000000000000  0.0000000000000000  0.0000000000000000
