Na Pm Tl
 1.0000000000000000
     0.0000000000000000    3.7897409999999998    3.7897409999999998
     3.7897409999999998    0.0000000000000000    3.7897409999999998
     3.7897409999999998    3.7897409999999998    0.0000000000000000
 Na  Pm  Tl 
   1   1   2
Cartesian
  1.8948629205179999  1.8948629205179999  1.8948629205179999
  5.6846039205179997  5.6846039205179997  5.6846039205179997
  0.0000000000000000  0.0000000000000000  0.0000000000000000
  3.7897409999999998  3.7897409999999998  3.7897409999999998
