Nd B  Pt
 1.0000000000000000
     4.0211020000000000    0.0000000000000000    0.0000000000000000
     0.0000000000000000    4.0211020000000000    0.0000000000000000
     0.0000000000000000    0.0000000000000000    5.0864050000000001
 Nd  B   Pt 
   1   1   3
Cartesian
  0.0000000000000000  0.0000000000000000  4.9971843698949998
  2.0105510000000000  2.0105510000000000  3.4945636911999998
  0.0000000000000000  2.0105510000000000  2.5408118896500000
  2.0105510000000000  2.0105510000000000  0.5052885591050000
  2.0105510000000000  0.0000000000000000  2.5408118896500000
