Sr Hg
 1.0000000000000000
     3.9629970000000001    0.0000000000000000    0.0000000000000000
     0.0000000000000000    3.9629970000000001    0.0000000000000000
     0.0000000000000000    0.0000000000000000    3.9629970000000001
 Sr  Hg 
   1   1
Cartesian
  1.9814985000000001  1.9814985000000001  1.9814985000000001
  0.0000000000000000  0.0000000000000000  0.0000000000000000
