Bi I 
 1.0000000000000000
     6.8809820000000004    0.0477350000000000    4.9297029999999999
     2.5582850000000001    6.3878849999999998    4.9297329999999997
     0.0699920000000000    0.0476810000000000    8.4643359999999994
 Bi  I  
   2   6
Cartesian
  6.3415821882149999  4.3236161873849994 12.2198486902199992
  3.1676768117849998  2.1596848126149997  6.1039233097799999
  7.0160003685990011  1.7349546522979999 10.6415266662990007
  3.3185241995490005  3.7065958422440000 11.8627552318319989
  3.2129454104580004  0.5861415426320000  8.7814258096109992
  6.1907348004510006  2.7767051577560000  6.4610167681679993
  2.4932586314009999  4.7483463477020003  7.6822453337009993
  6.2963135895420006  5.8971594573679997  9.5423461903890008
