Sc Zn Ir
 1.0000000000000000
     0.0000000000000000    3.2646419999999998    3.2646419999999998
     3.2646419999999998    0.0000000000000000    3.2646419999999998
     3.2646419999999998    3.2646419999999998    0.0000000000000000
 Sc  Zn  Ir 
   2   1   1
Cartesian
  0.0000000000000000  0.0000000000000000  0.0000000000000000
  3.2646419999999998  3.2646419999999998  3.2646419999999998
  4.8969695292840001  4.8969695292840001  4.8969695292840001
  1.6323275292839998  1.6323275292839998  1.6323275292839998
