Ni O 
 1.0000000000000000
     4.2416340000000003    0.0000000000000000    0.0000000000000000
     0.0000000000000000    4.2416340000000003    0.0000000000000000
     0.0000000000000000    0.0000000000000000    4.2416340000000003
 Ni  O  
   4   4
Cartesian
  0.0000000000000000  0.0000000000000000  0.0000000000000000
  0.0000000000000000  2.1208170000000002  2.1208170000000002
  2.1208170000000002  0.0000000000000000  2.1208170000000002
  2.1208170000000002  2.1208170000000002  0.0000000000000000
  2.1208170000000002  0.0000000000000000  0.0000000000000000
  2.1208170000000002  2.1208170000000002  2.1208170000000002
  0.0000000000000000  0.0000000000000000  2.1208170000000002
  0.0000000000000000  2.1208170000000002  0.0000000000000000
