Cu O 
 1.0000000000000000
    -0.0023110000000000   -4.8031699999999997   -1.7067129999999999
     0.1250710000000000   -0.0024880000000000   -3.4031250000000002
     6.0295220000000000   -0.0831610000000000   -1.4806239999999999
 Cu  O  
   4   6
Cartesian
  0.6071201032060000 -1.2918861627380001 -1.6710371817220000
  2.4641336136719998 -3.7184714068929998 -2.4543116993539997
  3.6257575498940002 -1.1682591400849998 -2.4082996450619998
  5.5439876807170005 -3.5972439169979995 -4.9009285890570000
  6.0495446765059997 -0.0840733012960000 -2.0470800442099999
  1.0509152326019999 -2.5946815536220003 -2.9505447529560005
  2.0840285595890000 -0.2075802072710000 -2.0570716843070000
  3.1283737371219997 -2.4469310887429994 -4.7096907180220002
  4.1010470183900001 -4.6815095796169990 -5.3949855962659994
  5.0694113386339996 -2.2923949241099999 -2.8031803298320002
