Sc Nb O 
 1.0000000000000000
     4.8426749999999998    0.0295590000000000    0.0000000000000000
    -0.1102770000000000    5.1263620000000003    0.0000000000000000
     0.0000000000000000    0.0000000000000000    5.7282190000000002
 Sc  Nb  O  
   2   2   8
Cartesian
  2.3386297500000000  3.8595510000000002  3.8974000125340003
  2.3937682499999999  1.2963700000000000  1.8308189874660001
 -0.0275692500000000  1.2815905000000001  4.6755671072460006
 -0.0827077500000000  3.8447715000000002  1.0526518927540001
  3.7189828300139998  2.9186700382230000  5.1166456984649997
  0.9582766699860001  4.8004319617769999  5.1166456984649997
  3.7741213300140002  0.3554890382230000  0.6115733015350000
  1.1853923171580001  4.6629473702829998  2.2138420791200000
  3.5470056828419998  0.4929736297170000  3.5143769208799998
  1.0134151699860001  2.2372509617770002  0.6115733015350000
  1.2405308171580001  2.0997663702830001  3.5143769208799998
  3.4918671828419998  3.0561546297170006  2.2138420791200000
