Ca Ga N 
 1.0000000000000000
     3.5700630000000002    0.0000000000000000    0.0000000000000000
     0.0000000000000000    3.5700630000000002    0.0000000000000000
     0.0000000000000000    0.0000000000000000    7.5149290000000004
 Ca  Ga  N  
   2   2   2
Cartesian
  0.8925157500000001  0.8925157500000001  4.8787971158060000
  2.6775472499999999  2.6775472499999999  2.6361318841940000
  2.6775472499999999  2.6775472499999999  6.9038826080810001
  0.8925157500000001  0.8925157500000001  0.6110463919190000
  2.6775472499999999  2.6775472499999999  5.0563448283600003
  0.8925157500000001  0.8925157500000001  2.4585841716400001
