Si Tc W 
 1.0000000000000000
     0.0000000000000000    3.0384500000000001    3.0384500000000001
     3.0384500000000001    0.0000000000000000    3.0384500000000001
     3.0384500000000001    3.0384500000000001    0.0000000000000000
 Si  Tc  W  
   1   2   1
Cartesian
  3.0384500000000001  3.0384500000000001  3.0384500000000001
  1.5192250000000000  1.5192250000000000  1.5192250000000000
  4.5576749999999997  4.5576749999999997  4.5576749999999997
  0.0000000000000000  0.0000000000000000  0.0000000000000000
