Ti Mn Al
 1.0000000000000000
     0.0000000000000000    3.0505249999999999    3.0505249999999999
     3.0505249999999999    0.0000000000000000    3.0505249999999999
     3.0505249999999999    3.0505249999999999    0.0000000000000000
 Ti  Mn  Al 
   1   2   1
Cartesian
  4.5757936010500000  4.5757936010500000  4.5757936010500000
  0.0000000000000000  0.0000000000000000  0.0000000000000000
  3.0505249999999999  3.0505249999999999  3.0505249999999999
  1.5252686010499998  1.5252686010499998  1.5252686010499998
