Cr O 
 1.0000000000000000
     8.4257159999999995    0.0000000000000000    0.0000000000000000
     0.0000000000000000   12.2639870000000002    0.0000000000000000
     0.0000000000000000    0.0000000000000000    8.3857409999999994
 Cr  O  
  20  48
Cartesian
  6.3032275853039996  7.1942632619790006  7.4670327590039998
  6.3353464146959997 11.2017172380209988  3.2741622590040000
  6.3032275853039996  5.0697237380210005  5.1115787409959994
  6.3353464146959997  1.0622697619790000  0.9187082409959999
  2.1224884146959999  5.0697237380210005  0.9187082409959999
  2.0903695853039999  1.0622697619790000  5.1115787409959994
  2.1224884146959999  7.1942632619790006  3.2741622590040000
  2.0903695853039999 11.2017172380209988  7.4670327590039998
  5.1407399744999998  8.2351936865780004  4.4315873890469994
  7.4978340254999996 10.1607868134219999  0.2387168890470000
  5.1407399744999998  4.0287933134220006  8.1470241109529997
  7.4978340254999996  2.1032001865780003  3.9541536109529996
  3.2849760255000002  4.0287933134220006  3.9541536109529996
  0.9278819745000000  2.1032001865780003  8.1470241109529997
  3.2849760255000002  8.2351936865780004  0.2387168890470000
  0.9278819745000000 10.1607868134219999  4.4315873890469994
  0.8676296793839999  6.1319935000000001  6.2893057499999996
  3.3452283206159996  0.0000000000000000  2.0964352499999999
  7.5580863206159998  6.1319935000000001  2.0964352499999999
  5.0804876793839995  0.0000000000000000  6.2893057499999996
  0.0711383201880000  9.2508725619440000  5.3973899514989991
  4.1417196798119997  9.1451079380560003  1.2045194514989999
  0.0711383201880000  3.0131144380559998  7.1812215485010000
  4.1417196798119997  3.1188790619439999  2.9883510485009999
  8.3545776798119995  3.0131144380559998  2.9883510485009999
  4.2839963201879998  3.1188790619439999  7.1812215485010000
  8.3545776798119995  9.2508725619440000  1.2045194514989999
  4.2839963201879998  9.1451079380560003  5.3973899514989991
  1.8539355686279999  6.9816302553730001  5.2318805813819989
  2.3589224313720001 11.4143502446270002  1.0390100813820000
  1.8539355686279999  5.2823567446270001  7.3467309186180003
  2.3589224313720001  0.8496367553730000  3.1538604186179997
  6.5717804313719990  5.2823567446270001  3.1538604186179997
  6.0667935686280003  0.8496367553730000  7.3467309186180003
  6.5717804313719990  6.9816302553730001  1.0390100813820000
  6.0667935686280003 11.4143502446270002  5.2318805813819989
  0.1302025893480000  5.1481641988730003  1.2139534101239999
  8.2955134106519992  7.1158228011269999  7.1717875898759997
  8.2955134106519992  5.1481641988730003  5.4068239101239994
  4.3430605893480001  0.9838293011270001  1.2139534101239999
  2.3037929715840000  9.2226531278570008  7.6762905399179999
  1.9090650284159998  9.1733273721429995  3.4834200399179998
  2.3037929715840000  3.0413338721429999  4.9023209600819992
  1.9090650284159998  3.0906596278569998  0.7094504600820000
  6.1219230284160000  3.0413338721429999  0.7094504600820000
  6.5166509715839993  3.0906596278569998  4.9023209600819992
  6.1219230284160000  9.2226531278570008  3.4834200399179998
  6.5166509715839993  9.1733273721429995  7.6762905399179999
  1.8716548493759999 11.2944820356890006  5.4275618476169996
  2.3412031506240001  7.1014984643110006  1.2346913476170001
  1.8716548493759999  0.9695049643110000  7.1510496523829996
  2.3412031506240001  5.1624885356890005  2.9581791523829999
  6.5540611506239994  0.9695049643110000  2.9581791523829999
  6.0845128493759999  5.1624885356890005  7.1510496523829996
  6.5540611506239994 11.2944820356890006  1.2346913476170001
  6.0845128493759999  7.1014984643110006  5.4275618476169996
  0.1249365168480000 11.0245639458060012  7.6521899202839991
  4.0879214831519999  7.3714165541940000  3.4593194202839999
  0.1249365168480000  1.2394230541940001  4.9264215797160000
  4.0879214831519999  4.8925704458060002  0.7335510797160000
  8.3007794831520005  1.2394230541940001  0.7335510797160000
  4.3377945168479997  4.8925704458060002  4.9264215797160000
  8.3007794831520005 11.0245639458060012  3.4593194202839999
  4.3377945168479997  7.3714165541940000  7.6521899202839991
  4.0826554106519994 11.2801576988729995  7.1717875898759997
  0.1302025893480000  7.1158228011269999  2.9789170898759996
  4.0826554106519994  0.9838293011270001  5.4068239101239994
  4.3430605893480001 11.2801576988729995  2.9789170898759996
