Zr Co Sn
 1.0000000000000000
     3.8356100000000000   -0.0000000000000000    2.2144900000000001
     1.2785359999999999    3.6162470000000000    2.2144900000000001
     0.0000000000000000    0.0000000000000000    4.4289800000000001
 Zr  Co  Sn 
   1   2   1
Cartesian
  0.0000000000000000  0.0000000000000000  0.0000000000000000
  1.2785365000000000  0.9040617500000000  2.2144900000000001
  3.8356095000000003  2.7121852500000001  6.6434700000000007
  2.5570729999999999  1.8081235000000000  4.4289800000000001
