Sr Zn O 
 1.0000000000000000
     3.3428429999999998    0.0000000000000000    0.0000000000000000
     0.0000000000000000    5.8246640000000003    0.0000000000000000
     0.0000000000000000    0.0000000000000000   11.3398380000000003
 Sr  Zn  O  
   4   4   8
Cartesian
  0.8357107499999999  1.8201084807120000  4.1800457242080000
  2.5071322499999997  4.0045555192880000  7.1597922757919994
  0.8357107499999999  4.7324404807120004  1.4898732757920001
  2.5071322499999997  1.0922235192880001  9.8499647242080002
  2.5071322499999997  4.6504874582320008  4.1907958906319998
  2.5071322499999997  1.7381554582320000  1.4791231093680000
  0.8357107499999999  1.1741765417679999  7.1490421093680006
  0.8357107499999999  4.0865085417679996  9.8607148906319999
  0.8357107499999999  1.3924849484880000  0.4659085840680000
  2.5071322499999997  4.4321790515119996 10.8739294159320004
  0.8357107499999999  4.3048169484880008  5.2040104159320002
  2.5071322499999997  1.5198470515120002  6.1358275840680001
  0.8357107499999999  2.5989243041520003  8.6003599359600003
  2.5071322499999997  0.3134076958480000  2.9304409359600001
  0.8357107499999999  5.5112563041520000  8.4093970640400002
  2.5071322499999997  3.2257396958480005  2.7394780640400000
