Cd Si P 
 1.0000000000000000
     5.1313230000000001    0.0000000000000000   -2.4523619999999999
    -1.1720340000000000    4.9956800000000001   -2.4523619999999999
     0.0083630000000000    0.0105510000000000    6.6120690000000000
 Cd  Si  P  
   2   2   4
Cartesian
  0.4079867500000000  3.7520355000000003  0.8536725000000001
  0.0000000000000000  0.0000000000000000  0.0000000000000000
  1.9796445000000000  2.4978400000000001 -2.4523619999999999
  3.5596652500000001  1.2541955000000000  0.8536725000000001
  3.2259532533440001  4.3738577500000000 -2.5236691383359999
  3.0119092973520001  0.8665307629600000  3.0048331383360001
  1.7273394966560003  1.8760177500000002 -0.3012013616639999
 -0.0298980473520000  2.8960557370400002  3.2347273616640000
