Zn P 
 1.0000000000000000
     8.0363609999999994    0.0000000000000000    0.0000000000000000
     0.0000000000000000    8.0363579999999999    0.0000000000000000
     0.0000000000000000    0.0000000000000000   11.3200289999999999
 Zn  P  
  24  16
Cartesian
  2.0090822136389996  7.7752406558640006  9.6953105177459999
  4.2792979416119996  2.0090814636420000  4.0352846977169996
  7.7752355220269997  2.0090895000000000  4.0352960177460000
  6.0272707499999996  0.2611173441360000  1.6247184822539997
  6.0272707499999996  3.7570616558639998  1.6247184822539997
  2.0090822136389996  4.2792963441359992  9.6953105177459999
  3.7570550220269996  6.0272684999999999  7.2847329822540008
  0.2611174416120000  6.0272765363580003  7.2847443022829994
  2.0090902499999999  0.2618647254300000  1.5278756341590001
  3.7563156768149999  2.0090895000000000  7.1878901341589998
  0.2618648231850000  2.0090895000000000  7.1878901341589998
  6.0272707499999996  7.7744932745700002  9.7921533658410009
  6.0272707499999996  4.2800437254299997  9.7921420458119997
  2.0090902499999999  3.7563142745700002  1.5278869541880000
  4.2800453231849991  6.0272684999999999  4.1321275458120006
  7.7744961768150000  6.0272684999999999  4.1321388658410001
  2.0090902499999999  8.0101273274880000  4.5003341290950001
  4.0444111823039997  2.0090895000000000 10.1603486290949991
  8.0101222813350006  2.0090895000000000 10.1603486290949991
  6.0272707499999996  0.0262306725120000  6.8196948709049998
  6.0272707499999996  3.9919483274880001  6.8196948709049998
  2.0090902499999999  4.0444096725120007  4.5003341290950001
  3.9919417813349996  6.0272684999999999  1.1596803709049999
  0.0262306823040000  6.0272684999999999  1.1596803709049999
  2.0090902499999999  6.0272684999999999 11.2762431278279998
  6.0272707499999996  2.0090895000000000  5.6162286278279998
  6.0272707499999996  2.0090895000000000  0.0437858721720000
  2.0090902499999999  6.0272684999999999  5.7038003721720001
  2.0090902499999999  2.0090895000000000 11.2718509565759994
  2.0090982863609996  2.0090895000000000  5.6118364565760004
  6.0272707499999996  6.0272684999999999  0.0481780434240000
  6.0272787863610002  6.0272684999999999  5.7081925434240004
  4.0514912163449992  0.0333026675520000  8.4900217500000004
  3.9848778200160000  4.0514816675520002  2.8300072500000000
  0.0333107163450000  8.0030553324479996  2.8300072500000000
  8.0030583200159988  3.9848682960899997  8.4900217500000004
  3.9848778200160000  8.0030472960900010  2.8300072500000000
  4.0514831799840003  3.9848763324480001  8.4900217500000004
  8.0030583200159988  0.0333107039100000  8.4900217500000004
  0.0333107163450000  4.0514816675520002  2.8300072500000000
