Ho Cu Au
 1.0000000000000000
    -3.5162220000000000   -3.5162220000000000    0.0000000000000000
    -3.5162220000000000    0.0000000000000000   -3.5162220000000000
     0.0000000000000000   -3.5162220000000000   -3.5162220000000000
 Ho  Cu  Au 
   1   4   1
Cartesian
 -5.2743330000000004 -5.2743330000000004 -5.2743330000000004
 -2.6316460314600003 -2.6316460314600003 -2.6316460314600003
 -4.4008050009840005 -4.4008050009840005 -2.6316460314600003
 -4.4008050009840005 -2.6316460314600003 -4.4008050009840005
 -2.6316460314600003 -4.4008050009840005 -4.4008050009840005
  0.0000000000000000  0.0000000000000000  0.0000000000000000
