Sc
 1.0000000000000000
     3.3130630000000001    0.0000000000000000    0.0000000000000000
    -1.6565310000000000    2.8691960000000001    0.0000000000000000
     0.0000000000000000    0.0000000000000000    5.2102300000000001
 Sc 
   2
Cartesian
 -0.0000013231980001  1.9127982897320002  1.3025575000000000
  1.6565333231980002  0.9563977102680000  3.9076725000000003
