Zn Rh
 1.0000000000000000
     3.0301890000000000    0.0000000000000000    0.0000000000000000
     0.0000000000000000    3.0301890000000000    0.0000000000000000
     0.0000000000000000    0.0000000000000000    3.0301890000000000
 Zn  Rh 
   1   1
Cartesian
  1.5150945000000000  1.5150945000000000  1.5150945000000000
  0.0000000000000000  0.0000000000000000  0.0000000000000000
