Zn O 
 1.0000000000000000
     4.9543080000000002    0.0000000000000000    0.0000000000000000
     0.0000000000000000    4.9543080000000002    0.0000000000000000
     0.0000000000000000    0.0000000000000000    4.9543080000000002
 Zn  O  
   4   8
Cartesian
  0.0000000000000000  2.4771540000000001  2.4771540000000001
  2.4771540000000001  2.4771540000000001  0.0000000000000000
  2.4771540000000001  0.0000000000000000  2.4771540000000001
  0.0000000000000000  0.0000000000000000  0.0000000000000000
  2.0441524351079998  0.4330015648920000  4.5213064351080003
  0.4330015648920000  4.5213064351080003  2.0441524351079998
  4.5213064351080003  2.0441524351079998  0.4330015648920000
  2.9101555648920003  2.9101555648920003  2.9101555648920003
  2.0441524351079998  2.0441524351079998  2.0441524351079998
  0.4330015648920000  2.9101555648920003  4.5213064351080003
  4.5213064351080003  0.4330015648920000  2.9101555648920003
  2.9101555648920003  4.5213064351080003  0.4330015648920000
