Ca Al Pd
 1.0000000000000000
     5.6332250000000004    0.0000000000000000    0.0000000000000000
     0.0000000000000000    5.7569569999999999    0.0000000000000000
     0.0000000000000000    0.0000000000000000    7.8731850000000003
 Ca  Al  Pd 
   4   4   4
Cartesian
  1.4083062500000001  2.0940125113520001  4.7232102865350001
  4.2249187500000005  3.6629444886480003  3.1499747134649998
  4.2249187500000005  2.0940125113520001  7.0865672134650008
  1.4083062500000001  3.6629444886480003  0.7866177865350000
  0.0000000000000000  0.6042271788919999  1.9682962500000001
  2.8166125000000002  0.6042271788919999  1.9682962500000001
  2.8166125000000002  5.1527298211079993  5.9048887500000005
  0.0000000000000000  5.1527298211079993  5.9048887500000005
  1.4083062500000001  0.7414154642020000  7.6760404476000010
  1.4083062500000001  5.0155415357980004  3.7394479476000000
  4.2249187500000005  0.7414154642020000  4.1337370523999999
  4.2249187500000005  5.0155415357980004  0.1971445524000000
