Nb Cl
 1.0000000000000000
     6.8012639999999998   -0.0000770000000000    0.0001160000000000
    -3.4007000000000001    5.8901089999999998    0.0001020000000000
     0.0002310000000000    0.0004010000000000   12.7679299999999998
 Nb  Cl 
   6  16
Cartesian
  3.4008174646989997  0.3405355739120000  3.1379264957920001
  4.8063691825139996  2.7749741482499997  3.1379782954839999
  1.9952945514089995  2.7750236458369999  3.1379941909000002
 -0.0000530701830004  5.5498797562230004  9.6302215032060001
  1.4055344545980000  3.1154564747430005  9.6301665788899999
 -1.4055367748550001  3.1154176212340001  9.6301824719639999
  3.4009760748379998  1.9636159427719999  1.2868888674379999
 -0.0001164654800001  3.9268465028390001 11.4811314551640002
 -0.0000253394810003  3.9268389268419996  4.4885064736059999
  3.4007863331610002  1.9635940735430002  8.2796415258140001
  1.7168967727609998  4.9182513324580004  1.7836256495639999
 -1.7167927656359998  4.9180133770119996  1.7836819895960001
  0.0000608301450000  1.9444684187619998  1.7836177292200002
  5.1174143356199986  0.9723077152160000 10.9845170761260000
  1.6838880229089996  0.9723524789000000 10.9844968190420005
  3.4008191859950001  3.9459351299229999 10.9845302714299997
  1.7187546386939998  0.9923487302899999  4.7911198552199998
  5.0827516276980003  0.9923636524770001  4.7910750883860000
  3.4009150361169991  3.9056586847519998  4.7911893810679995
 -1.6819566267999999  4.8979515453109999  7.9770473725539999
  1.6819179382410003  4.8981313920609999  7.9770409119019989
  0.0000091885099999  1.9848214363539998  7.9770224620660004
