Nd
 1.0000000000000000
     3.7100749999999998    0.0000000000000000    0.0000000000000000
    -1.8550350000000000    3.2130179999999999    0.0000000000000000
     0.0000000000000000    0.0000000000000000   11.8992149999999999
 Nd 
   4
Cartesian
  0.0000000000000000  0.0000000000000000  0.0000000000000000
  0.0000000000000000  0.0000000000000000  5.9496074999999999
 -0.0000001883700001  2.1420130710060001  2.9748037500000000
  1.8550401883699998  1.0710049289940000  8.9244112500000004
