Rh Se
 1.0000000000000000
     6.0219829999999996    0.0124310000000000   -0.0907250000000000
    -0.0922950000000000    6.0212870000000001   -0.0908880000000000
     0.0122130000000000    0.0125910000000000    6.0226550000000003
 Rh  Se 
   3   8
Cartesian
  3.0170979999999998  0.0125110000000000  2.9659650000000002
 -0.0400410000000000  3.0169389999999998  2.9658835000000003
  2.9648439999999998  3.0168590000000002 -0.0908065000000000
  5.2785569082249992  2.3382501242209996  0.5652366443060001
  2.3264775658209995  0.6961408445890001  5.2681087983720003
  0.6036007451370000  5.3184821274370000  2.2359547826080002
  2.2552782340549995  2.2949068124949998  2.2169966963099998
  3.6866227659450002  3.7514021875050001  3.6240453036900004
  5.3383002548629994  0.7278268725630000  3.6050872173920006
  3.6154234341790001  5.3501681554109997  0.5729332016280001
  0.6633440917750000  3.7080588757790003  5.2758053556939997
