Sm Br O 
 1.0000000000000000
     3.9426429999999999    0.0000000000000000    0.0000000000000000
     0.0000000000000000    3.9426429999999999    0.0000000000000000
     0.0000000000000000    0.0000000000000000    8.2442489999999999
 Sm  Br  O  
   2   2   2
Cartesian
  0.9856607500000000  0.9856607500000000  7.0704987813719997
  2.9569822499999998  2.9569822499999998  1.1737502186280000
  2.9569822499999998  2.9569822499999998  5.4551453650589998
  0.9856607500000000  0.9856607500000000  2.7891036349410001
  2.9569822499999998  0.9856607500000000  0.0000000000000000
  0.9856607500000000  2.9569822499999998  0.0000000000000000
