Mg Pd
 1.0000000000000000
     4.1894819999999999    0.0000000000000000    0.0000000000000000
     0.0000000000000000    5.5349779999999997    0.0000000000000000
     0.0000000000000000    0.0000000000000000    8.1906870000000005
 Mg  Pd 
   4   8
Cartesian
  3.1421114999999999  3.6939612925300001  7.3874099445360004
  1.0473705000000000  1.8410167074699999  0.8032770554640001
  3.1421114999999999  0.9264722925300000  4.8986205554640003
  1.0473705000000000  4.6085057074700000  3.2920664445360002
  3.1421114999999999  3.6398402776459999  4.6923708661170007
  1.0473705000000000  1.8951377223540000  3.4983161338830002
  3.1421114999999999  0.8723512776460000  7.5936596338830000
  1.0473705000000000  4.6626267223539992  0.5970273661170000
  3.1421114999999999  3.1540407935639996  1.9336082428380001
  1.0473705000000000  2.3809372064359997  6.2570787571620006
  3.1421114999999999  0.3865517935640000  2.1617352571619999
  1.0473705000000000  5.1484262064359996  6.0289517428380002
