Li Ga Ag
 1.0000000000000000
     0.0000000000000000    3.1464530000000002    3.1464530000000002
     3.1464530000000002    0.0000000000000000    3.1464530000000002
     3.1464530000000002    3.1464530000000002    0.0000000000000000
 Li  Ga  Ag 
   1   1   2
Cartesian
  4.7196794999999998  4.7196794999999998  4.7196794999999998
  1.5732265000000001  1.5732265000000001  1.5732265000000001
  3.1464592929060005  3.1464592929060005  3.1464592929060005
  0.0000000000000000  0.0000000000000000  0.0000000000000000
