Sr Mg N 
 1.0000000000000000
    -1.8218030000000001   -3.1554560000000000    0.0000000000000000
    -1.8218030000000001    3.1554560000000000    0.0000000000000000
     0.0000000000000000    0.0000000000000000   -6.3997630000000001
 Sr  Mg  N  
   1   2   2
Cartesian
  0.0000000000000000  0.0000000000000000 -3.1998815000000000
 -1.8218030000000001  1.0518207703039999 -0.8409032591480001
 -1.8218030000000001 -1.0518207703040001 -5.5588597408520002
 -1.8218030000000001  1.0518207703039999 -4.9883784672690004
 -1.8218030000000001 -1.0518207703040001 -1.4113845327310002
