Ba
 1.0000000000000000
     4.4754240000000003    0.0000000000000000    0.0000000000000000
    -2.2377120000000001    3.8758309999999998    0.0000000000000000
     0.0000000000000000    0.0000000000000000    7.3489220000000000
 Ba 
   2
Cartesian
 -0.0000022377120001  2.5838886252769999  1.8372305000000000
  2.2377142377120003  1.2919423747229999  5.5116914999999995
