Mg Ti O 
 1.0000000000000000
     4.4829429999999997   -0.0030900000000000    3.1360560000000000
     1.6319470000000000    4.1754530000000001    3.1359189999999999
    -0.0044320000000000   -0.0028440000000000    5.4709789999999998
 Mg  Ti  O  
   2   2   6
Cartesian
  2.1698786299220001  1.4806337225710000  4.1700286519859997
  3.9405793700779994  2.6888852774290002  7.5729253480139995
  0.8839632961119999  0.6031792966160000  1.6987826974559999
  5.2264947038880001  3.5663397033840001 10.0441713025439991
  1.4756996063920000  3.2276793092329998  4.9731658033699997
  4.1817227109219992  1.8270193073049998  4.0624096290359999
  2.0393289108600001  0.1972400244190000  5.7558846548559996
  4.6347583936080001  0.9418396907670000  6.7697881966299995
  4.0711290891400003  3.9722789755809997  5.9870693451439996
  1.9287352890780001  2.3424996926950001  7.6805443709639993
