Ba Sn F 
 1.0000000000000000
     4.8967950000000000    0.0029490000000000   -0.6181240000000000
    -0.7014220000000000    4.8463000000000003   -0.6181270000000000
     0.0025510000000000    0.0029500000000000    4.9356540000000004
 Ba  Sn  F  
   1   1   6
Cartesian
  0.0000000000000000  0.0000000000000000  0.0000000000000000
  2.0989620000000002  2.4260995000000003  1.8497015000000001
  1.5240570181340003  4.0555062118779999  2.8188472121070003
  3.5835307337630002  3.5403816304310003  1.1574903802580001
  0.9243438921249998  2.7606569822120002  0.2898714046560000
  0.6143932662370000  1.3118173695689999  2.5419126197420003
  2.6738669818659999  0.7966927881220001  0.8805557878930000
  3.2735801078750000  2.0915420177880000  3.4095315953440002
