Dy Si Ni
 1.0000000000000000
     3.9438960000000001    0.0000000000000000    0.0000000000000000
     0.0000000000000000    3.8754130000000000   -0.9364710000000001
     0.0000000000000000   -0.0203090000000000    8.4030360000000002
 Dy  Si  Ni 
   2   4   2
Cartesian
  0.9859740000000000  3.4486924055910002  5.7847130890559999
  2.9579219999999999  0.4064115944090000  1.6818519109440000
  0.9859740000000000  0.9583996156810001  3.9661708241580000
  2.9579219999999999  2.8967043843190003  3.5003941758420001
  2.9579219999999999  1.7626366781850000  7.2943510124430002
  0.9859740000000000  2.0924673218149996  0.1722139875570000
  2.9579219999999999  1.2353868382219999  5.1124405074240009
  0.9859740000000000  2.6197171617780000  2.3541244925760001
