Pm B 
 1.0000000000000000
     5.5777489999999998    0.0000000000000000    0.0000000000000000
    -2.7888750000000000    4.8304720000000003    0.0000000000000000
     0.0000000000000000    0.0000000000000000    3.4618329999999999
 Pm  B  
   2   6
Cartesian
  2.7888715444589995  1.6101557231760000  0.8654617118329999
 -0.0000003333330001  3.2203114463520000  2.5963782118330001
  4.6845310106350002  0.5156963602480000  2.5963782118330001
  0.8932123048570000  0.5156963602480000  2.5963782118330001
  2.7888685290110002  3.7990696185599999  2.5963782118330001
 -1.8956597995090001  4.3147708092800006  0.8654617118329999
  1.8956533285199992  4.3147708092800006  0.8654617118329999
 -0.0000001067590000  1.0313927204960001  0.8654617118329999
