Ca Sn
 1.0000000000000000
     5.1088420000000001    0.0000000000000000    0.0000000000000000
     0.0000000000000000    7.8704710000000002    0.0000000000000000
     0.0000000000000000    0.0000000000000000    9.6093539999999997
 Ca  Sn 
   8   4
Cartesian
  3.8316315000000003  2.6716707333050000  8.9318657149380005
  1.2772105000000000  5.1988002666950006  0.6774882850620000
  3.8316315000000003  6.6069062333049997  5.4821652850620000
  1.2772105000000000  1.2635647666950001  4.1271887149379998
  3.8316315000000003  3.7615105936169999  3.0060749931119997
  1.2772105000000000  4.1089604063829999  6.6032790068880001
  3.8316315000000003  7.6967460936170005  1.7986020068880000
  1.2772105000000000  0.1737249063830000  7.8107519931119995
  3.8316315000000003  5.9180432590300001  8.5698909591119996
  1.2772105000000000  1.9524277409700002  1.0394630408880001
  3.8316315000000003  1.9828077590299999  5.8441400408880000
  1.2772105000000000  5.8876632409700003  3.7652139591120002
