Sc Cd
 1.0000000000000000
    10.1979819999999997    0.0000000000000000    0.0000000000000000
     0.0000000000000000    7.4406220000000003    0.0000000000000000
     0.0000000000000000    0.0000000000000000    9.4458190000000002
 Sc  Cd 
   4  28
Cartesian
  5.3199608739760000  0.0000000000000000  7.0843642500000001
  4.8780211260239996  0.0000000000000000  2.3614547500000000
  0.2209698739760000  3.7203110000000001  7.0843642500000001
  9.9770121260240003  3.7203110000000001  2.3614547500000000
  8.1561624399239996  5.9296846529480005  7.0843642500000001
  2.0418195600760001  1.5109373470520000  2.3614547500000000
  2.0418195600760001  5.9296846529480005  2.3614547500000000
  8.1561624399239996  1.5109373470520000  7.0843642500000001
  2.9722732397740002  0.0000000000000000  9.2838515416069995
  7.2257087602260004  0.0000000000000000  4.5609420416069995
  7.2257087602260004  0.0000000000000000  0.1619674583930000
  2.9722732397740002  0.0000000000000000  4.8848769583930007
  0.0000000000000000  1.5738478060620000  0.0000000000000000
  0.0000000000000000  5.8667741939380003  4.7229095000000001
  0.0000000000000000  5.8667741939380003  0.0000000000000000
  0.0000000000000000  1.5738478060620000  4.7229095000000001
  0.8726515177219999  0.0000000000000000  7.0843642500000001
  9.3253304822779999  0.0000000000000000  2.3614547500000000
  3.0571714399239998  2.2093736529479999  7.0843642500000001
  7.1408105600759999  5.2312483470520004  2.3614547500000000
  7.1408105600759999  2.2093736529479999  2.3614547500000000
  3.0571714399239998  5.2312483470520004  7.0843642500000001
  8.0712642397739991  3.7203110000000001  9.2838515416069995
  2.1267177602260001  3.7203110000000001  4.5609420416069995
  2.1267177602260001  3.7203110000000001  0.1619674583930000
  8.0712642397739991  3.7203110000000001  4.8848769583930007
  5.0989909999999998  5.2941588060619997  0.0000000000000000
  5.0989909999999998  2.1464631939380001  4.7229095000000001
  5.0989909999999998  2.1464631939380001  0.0000000000000000
  5.0989909999999998  5.2941588060619997  4.7229095000000001
  5.9716425177219996  3.7203110000000001  7.0843642500000001
  4.2263394822780000  3.7203110000000001  2.3614547500000000
