Sr As Pd
 1.0000000000000000
     4.0896860000000004    0.0000000000000000   -1.6178250000000001
    -0.6399890000000000    4.0393010000000000   -1.6178250000000001
     0.0165870000000000    0.0194210000000000    6.0199850000000001
 Sr  As  Pd 
   1   2   2
Cartesian
  0.0000000000000000  0.0000000000000000  0.0000000000000000
  2.1560001000060001  2.5244920170980003 -0.5279085785900002
  1.3102838999940001  1.5342299829019999  3.3122435785900000
  0.5507232500000000  3.0391862500000002  1.3921675000000000
  2.9155607500000005  1.0195357500000000  1.3921675000000000
