Tm Ag Pb
 1.0000000000000000
     3.7160060000000001   -6.4363109999999999    0.0000000000000000
     3.7160060000000001    6.4363109999999999    0.0000000000000000
     0.0000000000000000    0.0000000000000000    4.4874109999999998
 Tm  Ag  Pb 
   3   3   3
Cartesian
  2.1278705037379999 -3.6855797137530000  2.2437054999999999
  3.1762709925240000  0.0000000000000001  2.2437054999999999
  2.1278705037379999  3.6855797137530000  2.2437054999999999
  5.5997386255440000 -0.0000000000000004  0.0000000000000000
  0.9161366872280000  1.5867952413180000  0.0000000000000000
  0.9161366872280000 -1.5867952413180000  0.0000000000000000
  0.0000000000000000  0.0000000000000000  2.2437054999999999
  3.7160060000000001  2.1454412908740004  0.0000000000000000
  3.7160060000000001 -2.1454412908740004  0.0000000000000000
