Na Sm Se
 1.0000000000000000
    -2.1053679999999999   -3.6466040000000000    0.0000000000000000
    -4.2107340000000004   -0.0000000000000000    0.0000000000000000
    -2.1053679999999999   -1.2155350000000000   -6.9350209999999999
 Na  Sm  Se 
   1   1   2
Cartesian
  0.0000000000000000  0.0000000000000000  0.0000000000000000
 -4.2107350000000006 -2.4310695000000000 -3.4675104999999999
 -6.3160940691440004 -3.6465993831680001 -5.1036206543200002
 -2.1053759308559998 -1.2155396168320001 -1.8314003456799999
