Bi O 
 1.0000000000000000
     5.4798739999999997    0.0000000000000000   -2.2576749999999999
     0.0000000000000000    8.2773470000000007    0.0000000000000000
     0.0090810000000000    0.0000000000000000    7.5157959999999999
 Bi  O  
   8  12
Cartesian
  5.2719536814209995  3.8066442797890003  3.2706957018140002
  0.2215418185790000  7.9453177797890007  5.7453232981859994
  0.2170013185790000  4.4707027202110003  1.9874252981860001
  5.2674131814209995  0.3320292202110001 -0.4872022981859999
  2.6114366589059999  2.6103855366550004 -0.0799183786330000
  2.8729778410939999  6.7490590366550007  1.5801413786329999
  2.8775183410940000  5.6669614633450003  5.3380393786329998
  2.6159771589059999  1.5282879633450002  3.6779796213670002
  4.0093806371280003  3.8720601531300001  5.7700028748680001
  1.4841148628720000  8.0107336531300017  3.2460161251319999
  1.4795743628719999  4.4052868468700002 -0.5118818748680000
  4.0048401371280002  0.2666133468700000  2.0121048748680002
  4.1913255587949996  3.6998996128770005  1.1047486300139999
  1.2930889412050000  7.8385731128770004  0.3954743699860000
  1.2976294412050000  4.5774473871230006  4.1533723699860001
  4.1958660587949996  0.4387738871230000  4.8626466300139999
  1.2161722193319999  2.4502023175110006  1.6966945997619998
  4.2682422806679998  6.5888758175110000 -0.1964715997619999
  4.2727827806679999  5.8271446824890010  3.5614264002380001
  1.2207127193320000  1.6884711824890002  5.4545925997619999
