Pt Rh
 1.0000000000000000
    -1.9559949999999999    1.9559949999999999    3.9284659999999998
     1.9559949999999999   -1.9559949999999999    3.9284659999999998
     1.9559949999999999    1.9559949999999999   -3.9284659999999998
 Pt  Rh 
   3   1
Cartesian
 -0.0000000000000001  1.9559910880100002  1.9642408569319993
  1.9559910880100000  0.0000000000000000  1.9642408569319998
  0.0000000000000000  0.0000000000000000  3.9284659999999998
  0.0000000000000000  0.0000000000000000  0.0000000000000000
