Cd F 
 1.0000000000000000
     3.3074460000000001    0.0000000000000000    1.9095549999999999
     1.1024820000000000    3.1182919999999998    1.9095549999999999
     0.0000000000000000    0.0000000000000000    3.8191099999999998
 Cd  F  
   1   2
Cartesian
  0.0000000000000000  0.0000000000000000  0.0000000000000000
  3.3074460000000001  2.3387189999999998  5.7286649999999995
  1.1024820000000000  0.7795730000000000  1.9095549999999999
