Os Ru
 1.0000000000000000
     5.4304160000000001   -0.0000000000000000    0.0000000000000000
    -2.7152069999999999    4.7028790000000003    0.0000000000000000
     0.0000000000000000    0.0000000000000000    4.2909819999999996
 Os  Ru 
   2   6
Cartesian
  2.7151893268809997  1.5676435772230000  1.0727454999999999
  0.0000169579120000  3.1352401256560003  3.2182322090179998
  4.0664721567650002  0.7874735741550001  3.2182322090179998
  1.3639414629200000  0.7874876827920001  3.2182322090179998
  2.7151923738600003  3.1279224459320005  3.2182322090179998
 -1.3512930240519998  3.9154101287240000  1.0727454999999999
  1.3513082651970001  3.9153772085709999  1.0727454999999999
  0.0000274869660001  1.5749283367940001  1.0727454999999999
