Sr Tl
 1.0000000000000000
     4.0628529999999996    0.0000000000000000    0.0000000000000000
     0.0000000000000000    4.0628529999999996    0.0000000000000000
     0.0000000000000000    0.0000000000000000    4.0628529999999996
 Sr  Tl 
   1   1
Cartesian
  0.0000000000000000  0.0000000000000000  0.0000000000000000
  2.0314264999999998  2.0314264999999998  2.0314264999999998
