Sm Ni As
 1.0000000000000000
     4.0581139999999998    0.0000000000000000    0.0000000000000000
    -2.0290560000000002    3.5144310000000001    0.0000000000000000
     0.0000000000000000    0.0000000000000000    4.0136060000000002
 Sm  Ni  As 
   1   1   1
Cartesian
  0.0000000000000000  0.0000000000000000  0.0000000000000000
 -0.0000013623900002  2.3429551714770001  2.0068030000000001
  2.0290593623900000  1.1714758285230000  2.0068030000000001
