Cu P  O 
 1.0000000000000000
     4.0449710000000003    3.4940490000000000   -0.0246600000000000
    -4.0449710000000003    3.4940490000000000   -0.0246600000000000
     0.0000000000000000    3.2674710000000000    8.6064209999999992
 Cu  P   O  
   4   4  14
Cartesian
 -1.5049719102600003  6.5576615251739998  8.5031527010039998
 -1.5049719102600001  5.3316429748259999  4.3571587989959992
  1.5049719102600001  3.6979074748260001  0.0539482989960000
  1.5049719102600003  4.9239260251739996  4.1999422010039993
  0.0936087188820000  2.3100075031560001  2.5176749441220001
  0.0936087188820000  6.3118259968440000  1.7362155558779999
 -0.0936087188819999  7.9455614968440003  6.0394260558779997
 -0.0936087188820000  3.9437430031559999  6.8208854441219993
 -1.1989981689070002  2.3903104384620000  3.2646197975850000
 -1.1989981689070000  6.2315230615379997  0.9892707024149998
  1.1989981689069997  7.8652585615380008  5.2924812024149999
  1.1989981689070002  4.0240459384619998  7.5678302975849991
  1.2753874462420001  2.8309617278219998  3.3130364429159997
  1.2753874462419998  5.7908717721780008  0.9408540570839999
 -1.2753874462419998  7.4246072721780001  5.2440645570839992
 -1.2753874462420001  4.4646972278219996  7.6162469429159998
  3.5636356308839998  5.9446522499999999  6.4301557499999991
 -3.5636356308840003  4.3109167499999996  2.1269452499999999
 -0.0046314917950001  4.6885836409530004  5.4746243468640001
 -0.0046314917950000  7.2007208590469993  7.3856871531359989
  0.0046314917950003  5.5669853590470009  3.0824766531359997
  0.0046314917950000  3.0548481409530002  1.1714138468639999
