Dy B 
 1.0000000000000000
     3.2945440000000001    0.0000000000000000    0.0000000000000000
    -1.6472720000000001    2.8531589999999998    0.0000000000000000
     0.0000000000000000    0.0000000000000000    3.8597260000000002
 Dy  B  
   1   2
Cartesian
  0.0000000000000000  0.0000000000000000  0.0000000000000000
 -0.0000016472720000  1.9021069510530000  1.9298630000000001
  1.6472736472720004  0.9510520489469999  1.9298630000000001
