Rb Na Ho F 
 1.0000000000000000
    -3.1668930000000000    3.1668930000000000    4.5121680000000000
     3.1668930000000000   -3.1668930000000000    4.5121680000000000
     3.1668930000000000    3.1668930000000000   -4.5121680000000000
 Rb  Na  Ho  F  
   2   1   1   6
Cartesian
  0.0000000000000000  3.1668930000000000  2.2560840000000000
  3.1668930000000000  0.0000000000000000  2.2560840000000000
  0.0000000000000000  0.0000000000000000  0.0000000000000000
  0.0000000000000000  0.0000000000000000  4.5121680000000000
  0.0000000000000000 -0.0000000000000000  2.3378444841600001
 -0.0000000000000002  0.0000000000000002  6.6864915158400002
  1.8326398094910001  1.4510228692050000  0.0000045121679996
  1.4510260360979998  4.5011430236159997 -0.0000000000000001
  1.3342531905089998  1.7158701307950002  4.5121634878319998
  1.7158669639019999 -1.3342500236160000  4.5121680000000000
