Ba Zn S  O 
 1.0000000000000000
    -3.9917120000000001    0.0000000000000000    0.0000000000000000
     0.0000000000000000    0.0000000000000000   -6.1964350000000001
     1.9958560000000001   -6.5197929999999999    0.0000000000000000
 Ba  Zn  S   O  
   2   2   2   2
Cartesian
 -1.9958560000000003 -5.1126651955679998 -1.5491087500000000
  0.0000000000000000 -1.4071278044319999 -4.6473262499999999
 -0.0000000000000001 -5.2355502540319998 -4.6473262499999999
 -1.9958560000000001 -1.2842427459680001 -1.5491087500000000
 -1.9958560000000001 -3.9967374256879999 -4.6473262499999999
  0.0000000000000000 -2.5230555743120000 -1.5491087500000000
 -1.9958560000000001  0.0000000000000000 -3.0982175000000001
 -1.9958560000000001  0.0000000000000000  0.0000000000000000
