Sn Au
 1.0000000000000000
     6.6648250000000004    0.0000000000000000    0.0000000000000000
     0.0000000000000000   11.9288209999999992    0.0000000000000000
     0.0000000000000000    0.0000000000000000    6.6426660000000002
 Sn  Au 
  16   4
Cartesian
  4.4154598921500003 10.3777760494749991  1.1097835659540001
  2.2493651078500001  1.5510449505249999  1.1097835659540001
  1.0830473921500001 10.3777760494749991  2.2115494340459998
  2.2493651078500001 10.3777760494749991  5.5328824340459999
  1.0830473921500001  1.5510449505249999  4.4311165659540004
  4.4154598921500003  1.5510449505249999  5.5328824340459999
  5.5817776078500003 10.3777760494749991  4.4311165659540004
  5.5817776078500003  1.5510449505249999  2.2115494340459998
  1.0830473921500001  4.4133655494749995  1.1097835659540001
  5.5817776078500003  7.5154554505249989  1.1097835659540001
  4.4154598921500003  4.4133655494749995  2.2115494340459998
  5.5817776078500003  4.4133655494749995  5.5328824340459999
  4.4154598921500003  7.5154554505249989  4.4311165659540004
  1.0830473921500001  7.5154554505249989  5.5328824340459999
  2.2493651078500001  4.4133655494749995  4.4311165659540004
  2.2493651078500001  7.5154554505249989  2.2115494340459998
  0.0000000000000000  0.0000000000000000  0.0000000000000000
  3.3324125000000002  0.0000000000000000  3.3213330000000001
  3.3324125000000002  5.9644104999999996  0.0000000000000000
  0.0000000000000000  5.9644104999999996  3.3213330000000001
