Mn N 
 1.0000000000000000
     4.3907080000000001    0.0000100000000000    0.0000380000000000
     0.0000090000000000    4.8724689999999997    0.0000230000000000
     0.0000500000000000    0.0000260000000000    5.6229209999999998
 Mn  N  
   8   4
Cartesian
  1.0776535050660001  0.4013411912700000  0.6942901457410000
  3.2731023193780002  4.4711507188039992  2.1174784167169998
  1.1177358684009999  2.8366809560949999  2.1174070641259997
  3.3130230463870003  2.0358793506250001  0.6943340764470000
  1.0777439536130000  2.8366256493750002  4.9286479235530001
  3.2730311315990002  2.0358240439049999  3.5055749358739998
  1.1176646806220003  0.4013542811960000  3.5055035832830002
  3.3131134949340004  4.4711638087300001  4.9286918542589992
  2.1952310296439999  3.6543016037459997  0.7188367316600000
  4.3906322632179995  1.2182148857820001  2.0927431268649999
  2.1955359703560000  1.2182033962540000  4.9041452683399998
  0.0001347367820000  3.6542901142179995  3.5302388731350001
