Ac Ge Pd
 1.0000000000000000
    -0.0019880000000000    3.8524050000000001    3.8566829999999999
     3.8626950000000000   -0.0010410000000000    3.8561960000000002
     3.8629069999999999    3.8520819999999998   -0.0012100000000000
 Ac  Ge  Pd 
   2   1   1
Cartesian
  3.8620039318170001  3.8516497174680002  3.8563204512020004
  3.8607374717629996  7.7039823048919995  3.8556350831049997
  1.9309112484459998  1.9262005741779999  1.9275700824860000
  5.7926950737879999  5.7778311076259996  5.7834508807870000
