Mg F 
 1.0000000000000000
     3.0477840000000000    0.0000000000000000    0.0000000000000000
     0.0000000000000000    4.6151970000000002    0.0000000000000000
     0.0000000000000000    0.0000000000000000    4.6151970000000002
 Mg  F  
   2   4
Cartesian
  1.5238920000000000  2.3075985000000001  2.3075985000000001
  0.0000000000000000  0.0000000000000000  0.0000000000000000
  0.0000000000000000  3.2171615247600003  3.2171615247600003
  1.5238920000000000  3.7056339752400000  0.9095630247600001
  0.0000000000000000  1.3980354752400002  1.3980354752400002
  1.5238920000000000  0.9095630247600001  3.7056339752400000
