Sc Ni Os
 1.0000000000000000
    -0.0000010000000000    3.1813729999999998    3.1813769999999999
     3.1813699999999998    0.0000030000000000    3.1813750000000001
     3.1813720000000001    3.1813720000000001    0.0000010000000000
 Sc  Ni  Os 
   2   1   1
Cartesian
  0.0000000000000000  0.0000000000000000  0.0000000000000000
  3.1813768627410002  3.1813803627480004  3.1813828627530003
  1.5906884313689997  1.5906901813759999  1.5906946127519999
  4.7720557499999998  4.7720609999999999  4.7720647500000002
