Tb S  F 
 1.0000000000000000
     3.7862900000000002    0.0000000000000000    0.0000000000000000
     0.0000000000000000    3.7862900000000002    0.0000000000000000
     0.0000000000000000    0.0000000000000000    6.8231780000000004
 Tb  S   F  
   2   2   2
Cartesian
  2.8397174999999999  2.8397174999999999  5.2740163741680002
  0.9465725000000000  0.9465725000000000  1.5491616258320000
  0.9465725000000000  0.9465725000000000  4.4073840668540010
  2.8397174999999999  2.8397174999999999  2.4157939331460003
  0.9465725000000000  2.8397174999999999  0.0000000000000000
  2.8397174999999999  0.9465725000000000  0.0000000000000000
