Zr Al
 1.0000000000000000
     5.4380740000000003    0.0000000000000000    0.0000000000000000
    -2.7190370000000001    4.7095110000000000    0.0000000000000000
     0.0000000000000000    0.0000000000000000    5.3983249999999998
 Zr  Al 
   4   3
Cartesian
 -0.0000027190370002  3.1396755698370002  1.4053729388749998
 -0.0000027190370002  3.1396755698370002  3.9929520611250000
  2.7190397190370001  1.5698354301630000  2.6991624999999999
  0.0000000000000000  0.0000000000000000  2.6991624999999999
  1.3595049048150001  0.7849294888590000  0.0000000000000000
  2.7190533142220001  3.1396802793480001  0.0000000000000000
  4.0785527809630002  0.7849012317930000  0.0000000000000000
