Pm Zn Sn
 1.0000000000000000
     0.0000000000000000    3.7476639999999999    3.7476639999999999
     3.7476639999999999    0.0000000000000000    3.7476639999999999
     3.7476639999999999    3.7476639999999999    0.0000000000000000
 Pm  Zn  Sn 
   2   1   1
Cartesian
  0.0000000000000000  0.0000000000000000  0.0000000000000000
  3.7476639999999999  3.7476639999999999  3.7476639999999999
  5.6214959999999996  5.6214959999999996  5.6214959999999996
  1.8738319999999999  1.8738319999999999  1.8738319999999999
