Sc Tc W 
 1.0000000000000000
     0.0000000000000000    3.1536390000000001    3.1536420000000001
     3.1536369999999998    0.0000010000000000    3.1536400000000002
     3.1536369999999998    3.1536379999999999    0.0000010000000000
 Sc  Tc  W  
   1   2   1
Cartesian
  1.5768248072739997  1.5768258072779999  1.5768270572829997
  0.0000000000000000  0.0000000000000000  0.0000000000000000
  3.1536369999999998  3.1536390000000001  3.1536415000000004
  4.7304618072739997  4.7304648072780004  4.7304685572830003
