Sc P 
 1.0000000000000000
     3.2619460000000000    0.0000000000000000    1.8832860000000000
     1.0873150000000000    3.0753919999999999    1.8832860000000000
     0.0000000000000000    0.0000000000000000    3.7665690000000001
 Sc  P  
   1   1
Cartesian
  0.0000000000000000  0.0000000000000000  0.0000000000000000
  2.1746305000000001  1.5376960000000000  3.7665705000000003
