Ca Sn Pd
 1.0000000000000000
     4.4904380000000002    0.0000000000000000    0.0000000000000000
     0.0000000000000000   11.2726240000000004    0.0000000000000000
     0.0000000000000000    0.0000000000000000    7.5432790000000001
 Ca  Sn  Pd 
   4   8   4
Cartesian
  0.0000000000000000  0.7880353259680000  5.6574592500000005
  0.0000000000000000 10.4845886740320005  1.8858197500000000
  2.2452190000000001  6.4243473259680011  5.6574592500000005
  2.2452190000000001  4.8482766740320002  1.8858197500000000
  2.2452190000000001  9.6792498702240017  7.2033109587490003
  2.2452190000000001  1.5933741297760000  0.3399680412510000
  2.2452190000000001  1.5933741297760000  3.4316714587489998
  2.2452190000000001  9.6792498702240017  4.1116075412509998
  0.0000000000000000  4.0429378702239998  7.2033109587490003
  0.0000000000000000  7.2296861297759998  0.3399680412510000
  0.0000000000000000  7.2296861297759998  3.4316714587489998
  0.0000000000000000  4.0429378702239998  4.1116075412509998
  0.0000000000000000  8.9798173688960006  5.6574592500000005
  0.0000000000000000  2.2928066311039998  1.8858197500000000
  2.2452190000000001  3.3435053688959999  5.6574592500000005
  2.2452190000000001  7.9291186311040009  1.8858197500000000
