Sc Ni
 1.0000000000000000
     3.1525159999999999    0.0000000000000000    0.0000000000000000
     0.0000000000000000    3.1525159999999999    0.0000000000000000
     0.0000000000000000    0.0000000000000000    3.1525159999999999
 Sc  Ni 
   1   1
Cartesian
  1.5762579999999999  1.5762579999999999  1.5762579999999999
  0.0000000000000000  0.0000000000000000  0.0000000000000000
