Sr Cu Sn
 1.0000000000000000
     4.5524620000000002    0.0000000000000000    0.0000000000000000
     0.0000000000000000    4.5039040000000004   -1.0528310000000001
     0.0000000000000000   -0.0462960000000000    9.9619830000000000
 Sr  Cu  Sn 
   2   2   4
Cartesian
  3.4143465000000002  1.7289078206160002  7.3960984179930005
  1.1381155000000001  2.7287001793840004  1.5130535820070001
  3.4143465000000002  0.7757733746160000  3.3186678391169999
  1.1381155000000001  3.6818346253840004  5.5904841608830003
  1.1381155000000001  1.1011783082000002  4.7106960595610001
  1.1381155000000001  4.2665187404880003  8.0917021360529997
  3.4143465000000002  3.3564296918000003  4.1984559404389996
  3.4143465000000002  0.1910892595120000  0.8174498639470000
