Na H  Pd
 1.0000000000000000
     2.8265709999999999    4.3103040000000004    0.0000000000000000
    -2.8265709999999999    4.3103040000000004    0.0000000000000000
     0.0000000000000000    0.0000000000000000    2.8135599999999998
 Na  H   Pd 
   1   2   3
Cartesian
  0.0000000000000000  4.3103040000000004  0.0000000000000000
  0.0000000000000002  6.7617290557440004  0.0000000000000000
 -0.0000000000000000  1.8588789442560001  0.0000000000000000
  0.0000000000000000  0.0000000000000000  0.0000000000000000
 -1.4132855000000000  2.1551520000000002  1.4067799999999999
  1.4132855000000000  2.1551520000000002  1.4067799999999999
