Li Ir N 
 1.0000000000000000
     6.7453709999999996    0.0000000000000000    0.0000000000000000
     0.0000000000000000    6.7453709999999996    0.0000000000000000
     0.0000000000000000    0.0000000000000000    4.8773239999999998
 Li  Ir  N  
  12   2   8
Cartesian
  0.0000000000000000  3.3726854999999998  2.9310717537160000
  3.3726854999999998  0.0000000000000000  4.3849142462839996
  3.3726854999999998  0.0000000000000000  1.9462522462839997
  0.0000000000000000  3.3726854999999998  0.4924097537159999
  1.4328112355939999  1.4328112355939999  2.4386619999999999
  5.3125597644060001  5.3125597644060001  2.4386619999999999
  4.8054967355939997  4.8054967355939997  0.0000000000000000
  1.9398742644059999  1.9398742644059999  0.0000000000000000
  5.3125597644060001  1.4328112355939999  2.4386619999999999
  1.4328112355939999  5.3125597644060001  2.4386619999999999
  1.9398742644059999  4.8054967355939997  0.0000000000000000
  4.8054967355939997  1.9398742644059999  0.0000000000000000
  3.3726854999999998  3.3726854999999998  2.4386619999999999
  0.0000000000000000  0.0000000000000000  0.0000000000000000
  1.6736749432619999  3.3726854999999998  1.5501062363560001
  5.0716960567380003  3.3726854999999998  1.5501062363560001
  5.0463604432619995  0.0000000000000000  0.8885557636440000
  1.6990105567379998  0.0000000000000000  0.8885557636440000
  3.3726854999999998  1.6736749432619999  3.3272177636440001
  3.3726854999999998  5.0716960567380003  3.3272177636440001
  0.0000000000000000  5.0463604432619995  3.9887682363559995
  0.0000000000000000  1.6990105567379998  3.9887682363559995
