Fe N 
 1.0000000000000000
     2.5709200000000001    0.0000000000000000    1.4843230000000001
     0.8569740000000000    2.4238879999999998    1.4843230000000001
     0.0000000000000000    0.0000000000000000    2.9686430000000001
 Fe  N  
   1   1
Cartesian
  0.0000000000000000  0.0000000000000000  0.0000000000000000
  0.8569735000000001  0.6059720000000000  1.4843222500000000
