Al Cd Se
 1.0000000000000000
     5.2456690000000004   -0.0000130000000000   -2.4857000000000000
    -1.1778599999999999    5.1117160000000004   -2.4857109999999998
     0.0052760000000000    0.0066480000000000    6.7890579999999998
 Al  Cd  Se 
   2   1   4
Cartesian
  0.4306602500000001  3.8371077500000004  0.9088207499999998
  2.0339045000000002  2.5558515000000002 -2.4857054999999999
  0.0000000000000000  0.0000000000000000  0.0000000000000000
  3.5262482898950007  4.4349605096690006 -2.4558939565719995
  1.6554042279830001  2.0764207304930000 -0.1649484475720000
  0.0010354716500001  3.0389868000740003  3.1294974339189996
  2.9634948575299997  0.6863237363060000  3.1266389702469999
