Ba Sb Pd
 1.0000000000000000
     4.7633599999999996    0.0000000000000000   -1.2501160000000000
     0.0000000000000000    5.0112030000000001    0.0000000000000000
    -0.0299420000000000    0.0000000000000000    9.5859609999999993
 Ba  Sb  Pd 
   2   4   2
Cartesian
  1.8514715891639999  3.7584022500000001  7.0547217920340000
  2.8819464108359996  1.2528007500000000  1.2811232079659998
  0.1954341013340000  3.7584022500000001  0.7446785470669999
  4.5379838986659999  1.2528007500000000  7.5911664529329990
  1.1690771507139999  1.2528007500000000  4.4545819980969998
  3.5643408492859994  3.7584022500000001  3.8812630019029992
  3.8529648906659997  1.2528007500000000  4.9810358772089991
  0.8804531093339999  3.7584022500000001  3.3548091227910000
