Ca Nd Cd
 1.0000000000000000
     0.0000000000000000    3.8274050000000002    3.8274050000000002
     3.8274050000000002    0.0000000000000000    3.8274050000000002
     3.8274050000000002    3.8274050000000002    0.0000000000000000
 Ca  Nd  Cd 
   1   1   2
Cartesian
  1.9137025000000001  1.9137025000000001  1.9137025000000001
  5.7410998451899999  5.7410998451899999  5.7410998451899999
  3.8274050000000002  3.8274050000000002  3.8274050000000002
  0.0000000000000000  0.0000000000000000  0.0000000000000000
