Ho Ni Ge
 1.0000000000000000
     3.7610600000000001    0.0000000000000000   -1.4330630000000000
    -0.5460340000000000    3.7212109999999998   -1.4330630000000000
    -0.0110700000000000   -0.0128140000000000    5.6229100000000001
 Ho  Ni  Ge 
   1   2   2
Cartesian
  0.0000000000000000  0.0000000000000000  0.0000000000000000
  2.6787514999999997  0.9238957499999999  1.3783920000000001
  0.5252045000000001  2.7845012499999999  1.3783920000000001
  2.0182011546359999  2.3359535589580003 -0.3552164795560002
  1.1857548453639999  1.3724434410419999  3.1120004795559999
