Y  Si Rh
 1.0000000000000000
     4.0669120000000003    0.0000000000000000    0.0000000000000000
     0.0000000000000000    4.0669120000000003    0.0000000000000000
     0.0000000000000000    0.0000000000000000   10.0169289999999993
 Y   Si  Rh 
   2   4   4
Cartesian
  0.0000000000000000  0.0000000000000000  0.0000000000000000
  2.0334560000000002  2.0334560000000002  5.0084644999999997
  2.0334560000000002  2.0334560000000002  1.2179383632520000
  2.0334560000000002  2.0334560000000002  8.7989906367480000
  0.0000000000000000  0.0000000000000000  6.2264028632519999
  0.0000000000000000  0.0000000000000000  3.7905261367479999
  2.0334560000000002  0.0000000000000000  2.5042322499999998
  0.0000000000000000  2.0334560000000002  2.5042322499999998
  0.0000000000000000  2.0334560000000002  7.5126967499999999
  2.0334560000000002  0.0000000000000000  7.5126967499999999
