Mg Sb N 
 1.0000000000000000
     5.9226229999999997    0.0117960000000000    0.0000000000000000
    -2.9515989999999999    5.1117390000000000    0.0000000000000000
     0.0000000000000000    0.0000000000000000    5.3634190000000004
 Mg  Sb  N  
   4   2   6
Cartesian
  1.0359563629099999  1.7032412895119999  2.6152084678190004
  0.9779998549439995  5.0777955281939997  2.6152084678190004
  1.9350676370899997  3.4202937104879996  5.2969179678189997
  1.9930241450559998  0.0457394718060000  5.2969179678189997
 -1.9937785601089997  3.4529336888489999  2.5821215360080005
 -0.9578204398910000  1.6588053111509999  5.2638310360079998
  0.9143426881119999  1.7178145764810002  4.6999533428620008
  3.9777737950230003  0.0786684192840000  4.6999533428620008
  2.0566813118880005  3.4057204235190000  2.0182438428620002
 -1.0067497950230000  5.0448665807160005  2.0182438428620002
 -1.9290440908409998  3.3408230291010002  4.6273916472110006
 -1.0225549091590000  1.7709159708990001  1.9456821472110002
