Na Bi
 1.0000000000000000
     3.4052039999999999    0.0000000000000000    0.0000000000000000
     0.0000000000000000    3.4052039999999999    0.0000000000000000
     0.0000000000000000    0.0000000000000000    4.8671389999999999
 Na  Bi 
   1   1
Cartesian
  1.7026019999999999  1.7026019999999999  2.4335694999999999
  0.0000000000000000  0.0000000000000000  0.0000000000000000
