La Ni C 
 1.0000000000000000
     2.2694030000000001   -3.0597330000000000    0.0000000000000000
     2.2694030000000001    3.0597330000000000    0.0000000000000000
     0.0000000000000000    0.0000000000000000    3.9968029999999999
 La  Ni  C  
   1   1   2
Cartesian
  2.2694030000000001  3.0564284883599999  0.0000000000000000
  2.2694030000000001 -0.6827977773479998  1.9984014999999999
  2.9485808522279999  1.2150811689600003  1.9984014999999999
  1.5902251477720002  1.2150811689600001  1.9984014999999999
