As Se
 1.0000000000000000
     6.9182240000000004   -0.0696410000000000    0.0000000000000000
    -2.7872309999999998    9.4448410000000003    0.0000000000000000
     0.0000000000000000    0.0000000000000000   14.3851300000000002
 As  Se 
  16  16
Cartesian
 -0.8079659026579996  8.3024176302479997  0.1435635974000000
  0.0862314026580002  5.8300233697520003  7.3361285974000001
  4.9389589026580003  1.0727823697520000 14.2415664026000002
  4.0447615973420001  3.5451766302480006  7.0490014026000001
 -0.7931551431339997  5.4233317105939998 12.3343283266799997
  0.0714206431340004  8.7091092894060012  5.1417633266799996
  4.9241481431340004  3.9518682894060002  2.0508016733200001
  4.0595723568660000  0.6660907105940000  9.2433666733200006
  3.7435083155670004  6.3208210630440007 12.5685182430800015
  2.4529811844330007  7.7419789369560004  5.3759532430799997
  0.3874846844330002  3.0543789369559997  1.8166117569200002
  1.6780118155670005  1.6332210630440001  9.0091767569199988
 -0.7686988040039999  9.0139123819130003 12.0338229609800003
  0.0469643040040002  5.1185286180869998  4.8412579609800002
  4.8996918040040001  0.3612876180870000  2.3513070390199999
  4.0840286959960004  4.2566713819130007  9.5438720390200000
  0.2211480836530005  6.1526308716329998 14.3726005517700006
 -0.9428825836529998  7.9798101283670002  7.1800355517699996
  3.9098449163470002  3.2225691283670002  0.0125294482300000
  5.0738755836530007  1.3953898716330000  7.2050944482299997
  3.9002714656430002  7.3533942402000010  0.3306278279200000
  2.2962180343570009  6.7094057598000001  7.5231928279200000
  0.2307215343570000  2.0218057597999999 14.0545021720799994
  1.8347749656430004  2.6657942401999999  6.8619371720800002
  0.2462739499410003  7.1166566144660006 11.0136295413800003
 -0.9680084499409998  7.0157843855339994  3.8210645413799997
  3.8847190500590001  2.2585433855339998  3.3715004586199999
  5.0990014499410004  2.3594156144660001 10.5640654586200000
  3.9478784180760007  8.3618009865719998 11.3485729082999995
  2.2486110819239999  5.7009990134280004  4.1560079083000003
  0.1831145819240000  1.0133990134280000  3.0365570917000002
  1.8823819180760000  3.6742009865720000 10.2291220917000008
