Rb V  N 
 1.0000000000000000
     5.7826540000000000   -0.1676810000000000    0.2261070000000000
    -2.7423899999999999    5.0894690000000002    0.0000000000000000
    -6.0805290000000003   -3.2764080000000000    4.4180120000000001
 Rb  V   N  
   2   2   4
Cartesian
 -5.9315917499999999  0.0874285000000001  3.3135089999999998
 -3.0402645000000001 -1.6382040000000000  2.2090060000000000
 -2.8913272499999998  1.7256325000000001  1.1045030000000000
  0.0000000000000000  0.0000000000000000  0.0000000000000000
  1.5901653888799998  0.5108014494520001  0.6653050000000000
 -3.1102981388800002  1.9536805505479999  2.8743110000000001
 -1.3011674464659999  0.9406793333890002  0.8088732222849999
  2.8212991964660001  3.1620066666110005  0.5217367777150000
