Ce Cd Pt
 1.0000000000000000
     3.8144819999999999    0.0000000000000000    0.0000000000000000
     0.0000000000000000    7.8606699999999998    0.0036750000000000
     0.0000000000000000    0.0036750000000000    7.8606699999999998
 Ce  Cd  Pt 
   4   2   4
Cartesian
  1.9072410000000000  2.5844553274850002  1.3477171725150001
  1.9072410000000000  6.5157934691649988  2.5872959691649999
  1.9072410000000000  5.2798896725150000  6.5166278274849994
  1.9072410000000000  1.3485515308350000  5.2770490308350002
  0.0000000000000000  3.9321725000000001  3.9321725000000001
  0.0000000000000000  0.0000000000000000  0.0000000000000000
  0.0000000000000000  6.8220606511149997  4.9744568488849996
  0.0000000000000000  4.9547209866649995  1.0262234866650000
  0.0000000000000000  2.9096240133349998  6.8381215133350004
  0.0000000000000000  1.0422843488850000  2.8898881511149996
