Eu Al Cu
 1.0000000000000000
     0.0000000000000000    0.0000000000000000   -4.0700909999999997
    -2.7095710000000000   -4.6936460000000002    0.0000000000000000
    -2.7098710000000001    4.6938300000000002    0.0000000000000000
 Eu  Al  Cu 
   1   3   2
Cartesian
  0.0000000000000000  0.0000000000000000  0.0000000000000000
 -2.7097210000000000  0.0000920000000000 -2.0350454999999998
 -1.3549355000000001  2.3469150000000001 -2.0350454999999998
 -1.3547855000000000 -2.3468230000000001 -2.0350454999999998
 -2.7099960857199998 -1.5670156824960002  0.0000000000000000
 -2.7094459142800003  1.5671996824959999  0.0000000000000000
