Ho Mg
 1.0000000000000000
     3.7727620000000002    0.0000000000000000    0.0000000000000000
     0.0000000000000000    3.7727620000000002    0.0000000000000000
     0.0000000000000000    0.0000000000000000    3.7727620000000002
 Ho  Mg 
   1   1
Cartesian
  1.8863810000000001  1.8863810000000001  1.8863810000000001
  0.0000000000000000  0.0000000000000000  0.0000000000000000
