Na Cu O 
 1.0000000000000000
     4.3602930000000004   -0.0000420000000000    1.6234940000000000
     2.1799919999999999    6.1758839999999999    0.8120170000000000
     0.0250630000000000    0.0002850000000000    6.5994440000000001
 Na  Cu  O  
   4   4   4
Cartesian
  5.8449261034230009  5.1119763610379998  7.6311832467340004
  2.8979868162560001  5.1095081177789998  2.2172301878240002
  1.4872560816190001  1.0666337056319999  6.0059866356549998
  2.9005487503500000  1.0641234629610001  2.2155048478290000
  5.0170169514760001  3.0881221304129998  3.1939455428639998
  4.3730164451980009  1.2425320177379999  4.9235247007179996
  4.3724715142079997  4.9335801582299998  4.9231748643110000
  3.7284688530010004  3.0879838699560000  6.6527598095920002
  3.7344414656400002  4.9140559690289995  6.6341568640409996
  5.0098909742490001  4.9139305998870002  3.2122402277119999
  3.7356362030400003  1.2621692236079998  6.6344673487790002
  0.6507121209540000  1.2621043838129999  1.5890464769530002
