Sc Ga
 1.0000000000000000
     3.8578579999999998    0.0000000000000000    0.0000000000000000
     0.0000000000000000    3.7828990000000000   -1.4902139999999999
    -0.0000010000000000   -0.0237940000000000    5.4815820000000004
 Sc  Ga 
   2   2
Cartesian
  0.9644637749510000  3.2459222562820003  2.6889390685500008
  2.8933932250489995  0.5131827437180001  1.3024289314500002
  0.9644643382239999  2.1912988993739999  0.0220440492840001
  2.8933926617759997  1.5678061006260000  3.9693239507160003
