Li Mn S 
 1.0000000000000000
     8.0141620000000007    0.0000000000000000    0.0000000000000000
     0.0000000000000000    8.0141620000000007    0.0000000000000000
     0.0000000000000000    0.0000000000000000    5.7565499999999998
 Li  Mn  S  
  12   2   8
Cartesian
  2.1836988617600004  2.1836988617600004  2.8782749999999999
  5.8304631382399998  2.1836988617600004  2.8782749999999999
  0.0000000000000000  4.0070810000000003  2.6503559158500001
  0.0000000000000000  4.0070810000000003  5.5286309158500000
  2.1836988617600004  5.8304631382399998  2.8782749999999999
  5.8304631382399998  5.8304631382399998  2.8782749999999999
  6.1907798617600012  6.1907798617600012  0.0000000000000000
  1.8233821382400002  6.1907798617600012  0.0000000000000000
  4.0070810000000003  0.0000000000000000  0.2279190841500000
  4.0070810000000003  0.0000000000000000  3.1061940841499998
  6.1907798617600012  1.8233821382400002  0.0000000000000000
  1.8233821382400002  1.8233821382400002  0.0000000000000000
  4.0070810000000003  4.0070810000000003  0.0000000000000000
  0.0000000000000000  0.0000000000000000  2.8782749999999999
  0.0000000000000000  2.0662833742980000  4.1284076938499998
  6.0733643742980004  4.0070810000000003  1.2501326938499999
  1.9407976257020001  4.0070810000000003  1.2501326938499999
  0.0000000000000000  5.9478786257020007  4.1284076938499998
  4.0070810000000003  6.0733643742980004  4.5064173061499995
  5.9478786257020007  0.0000000000000000  1.6281423061500000
  2.0662833742980000  0.0000000000000000  1.6281423061500000
  4.0070810000000003  1.9407976257020001  4.5064173061499995
