Li Mg Zn
 1.0000000000000000
     0.0000000000000000    3.2810959999999998    3.2810959999999998
     3.2810959999999998    0.0000000000000000    3.2810959999999998
     3.2810959999999998    3.2810959999999998    0.0000000000000000
 Li  Mg  Zn 
   1   2   1
Cartesian
  1.6405479999999999  1.6405479999999999  1.6405479999999999
  0.0000000000000000  0.0000000000000000  0.0000000000000000
  3.2810894378079998  3.2810894378079998  3.2810894378079998
  4.9216439999999997  4.9216439999999997  4.9216439999999997
