Rb W  Cl
 1.0000000000000000
     0.0002960000000000    5.0161680000000004    5.0170659999999998
     5.0409300000000004   -0.0243640000000000    5.0414230000000000
     5.0165569999999997    5.0164320000000000    0.0000250000000000
 Rb  W   Cl 
   2   1   6
Cartesian
  2.5139202659450004  2.5025844713560002  2.5141129852080000
  7.5438627343510003  7.5056565448120001  7.5444060318580002
 10.0574819590699995  4.9920680243640003  5.0414429585770000
  5.0252365953089999  5.0077672123720003  2.3880940044740000
  5.0324459267280002  2.3634643060200000  5.0328680778809991
  5.0253521473160001  7.6447817024800004  5.0256509635919997
  5.0325413881339998  5.0004637711960003  7.6704199955009997
  2.3881581658259998  5.0076584491120002  5.0256428382079994
  7.6696248582509998  5.0005674939240006  5.0328711861239990
