Na Cd Sb
 1.0000000000000000
     4.7393070000000002    0.0000000000000000    0.0000000000000000
     0.0000000000000000    8.0080530000000003    0.0000000000000000
     0.0000000000000000    0.0000000000000000    8.5352119999999996
 Na  Cd  Sb 
   4   4   4
Cartesian
  3.5544802500000001  3.8900558897040001  2.7417405451239998
  1.1848267500000000  4.1179971102960007  5.7934714548759993
  3.5544802500000001  7.8940823897039998  1.5258654548759998
  1.1848267500000000  0.1139706102960000  7.0093465451240000
  3.5544802500000001  2.8030427754840002  7.8806039156600001
  1.1848267500000000  5.2050102245160002  0.6546080843400000
  3.5544802500000001  6.8070692754840003  4.9222140843399993
  1.1848267500000000  1.2009837245160000  3.6129979156599998
  3.5544802500000001  5.7898463431589997  7.6338680071639997
  1.1848267500000000  2.2182066568410002  0.9013439928360000
  3.5544802500000001  1.7858198431590002  5.1689499928359997
  1.1848267500000000  6.2222331568410008  3.3662620071639999
