Cu O 
 1.0000000000000000
     2.8437500000000000   -0.4119180000000000    0.1869120000000000
     0.4386240000000000    2.8397980000000000    0.1869110000000000
    -0.3597910000000000   -0.2661300000000000    5.1570159999999996
 Cu  O  
   2   2
Cartesian
  2.8363104350840005  0.8397648508120000  2.8948571404369998
  1.8131476911339999  2.5993402536020001  0.3163477056770000
  1.5080908993730000  1.1068289530980000  1.5127119413649999
  1.3199355612830002  0.9849525142040001  4.0910027825199995
