Cd Si As
 1.0000000000000000
     5.3411679999999997    0.0000000000000000   -2.5404300000000002
    -1.2083100000000000    5.2026979999999998   -2.5404300000000002
     0.0084570000000000    0.0106450000000000    6.9028060000000000
 Cd  Si  As 
   2   2   4
Cartesian
  0.4332880000000000  3.9073460000000000  0.9109729999999998
  0.0000000000000000  0.0000000000000000  0.0000000000000000
  3.7080269999999995  1.3059969999999999  0.9109729999999998
  2.0664289999999998  2.6013489999999999 -2.5404300000000002
 -0.0320050334200000  3.0478265428359999  3.3752232287399999
  3.4008833213759995  4.5550220000000001 -2.6166097712600007
  1.7694123374560000  1.9536730000000000 -0.2830596883100003
  3.1443340334199998  0.8701644571639999  3.1683407712599996
