Fe Co
 1.0000000000000000
     5.7019310000000001    0.0000000000000000    0.0000000000000000
     0.0000000000000000    5.7019310000000001    0.0000000000000000
     0.0000000000000000    0.0000000000000000    5.6895860000000003
 Fe  Co 
  11   5
Cartesian
  1.4240686711120001  1.4240686711120001  1.4219071956040001
  1.4240686711120001  4.2778623288880002  4.2676788043960006
  4.2778623288880002  1.4240686711120001  1.4219071956040001
  4.2778623288880002  1.4240686711120001  4.2676788043960006
  2.8509655000000000  2.8509655000000000  0.0000000000000000
  1.4240686711120001  4.2778623288880002  1.4219071956040001
  1.4240686711120001  1.4240686711120001  4.2676788043960006
  4.2778623288880002  4.2778623288880002  1.4219071956040001
  2.8509655000000000  2.8509655000000000  2.8447930000000001
  0.0000000000000000  0.0000000000000000  2.8447930000000001
  4.2778623288880002  4.2778623288880002  4.2676788043960006
  2.8509655000000000  0.0000000000000000  0.0000000000000000
  0.0000000000000000  2.8509655000000000  2.8447930000000001
  0.0000000000000000  2.8509655000000000  0.0000000000000000
  0.0000000000000000  0.0000000000000000  0.0000000000000000
  2.8509655000000000  0.0000000000000000  2.8447930000000001
