Li Ge
 1.0000000000000000
     5.2972799999999998    0.0000000000000000    2.2205530000000002
     2.6486930000000002    6.8814659999999996    1.1101470000000000
    -0.0117030000000000    0.0001400000000000    7.4567030000000001
 Li  Ge 
   8   8
Cartesian
  2.9423752399660001  1.3325606107240000  5.2212489519899998
  7.8220689319820007  6.6444128421279993  4.7235873522500000
  2.2248549995380005  3.6778561578720002  3.2185333108270004
  1.7955126915540003  2.1083823892760001  7.9571512110870000
  4.9918947600339996  5.5490453892759994  5.5661540480100005
  0.1122010680180000  0.2371931578720000  6.0638156477500003
  5.7094150004619992  3.2037498421280000  7.5688696891729998
  6.1387573084460003  4.7732236107240000  2.8302517889130003
  0.7217479220370000  1.0952269188220001  3.6202382768910000
  2.8055664048450000  0.3809940012719999  2.3635423191370002
  4.9708320485949997  3.0598089987279997  4.6269544020570006
  4.4060105314029991  2.3455760811780002  2.2599819443030000
  7.2125220779629995  5.7863790811779996  7.1671647231089999
  5.1287035951549997  6.5006119987280000  8.4238606808629992
  2.9634379514050000  3.8217970012719999  6.1604485979430006
  3.5282594685970006  4.5360299188219999  8.5274210556969994
