Mg Sc Cd
 1.0000000000000000
     0.0000430000000000    3.5494530000000002    3.5515720000000002
     3.5510530000000000    0.0000280000000000    3.5515850000000002
     3.5510500000000000    3.5494640000000000    0.0000320000000000
 Mg  Sc  Cd 
   1   2   1
Cartesian
  5.3266059489839996  5.3242193982970001  5.3273846468810007
  7.1020710406790002  3.5494707031829997  3.5516276544280005
  3.5510587959140003  3.5494866976830002  3.5515873968230003
  1.7756004186290000  1.7747397998209999  1.7758079051019999
