Rb Pt S 
 1.0000000000000000
     6.1794390000000003   -0.0090000000000000   -1.3892480000000000
    -3.4659119999999999    5.1159559999999997   -1.3892480000000000
    -0.0332860000000000   -0.0626450000000000    7.2600020000000001
 Rb  Pt  S  
   2   3   4
Cartesian
  0.9224796659440003  1.7361404283509998  4.0919932470500004
  1.7577613340560005  3.3081705716490002  0.3895127529500000
 -1.7329559999999999  2.5579779999999999 -0.6946240000000000
  3.0897195000000002 -0.0045000000000000 -0.6946240000000000
  0.0000000000000000  0.0000000000000000  0.0000000000000000
  4.2279840522979999  0.2210451588010000  4.5354099074220002
 -1.5477430522979998  4.8232658411990004 -0.0539039074220003
  4.8633384957330001  1.4168049621630001 -0.0539039074220003
 -2.1830974957329996  3.6275060378370001  4.5354099074220002
