Ag Pd
 1.0000000000000000
    -2.0344240000000000    2.0344240000000000    4.0204529999999998
     2.0344240000000000   -2.0344240000000000    4.0204529999999998
     2.0344240000000000    2.0344240000000000   -4.0204529999999998
 Ag  Pd 
   3   1
Cartesian
  0.0000000000000001  2.0344158623039998  2.0102265000000004
  2.0344158623040003 -0.0000000000000001  2.0102265000000004
 -0.0000000000000001  0.0000000000000001  4.0204610409060004
  0.0000000000000000  0.0000000000000000  0.0000000000000000
