Mg Be As
 1.0000000000000000
     3.7849699999999999    0.0000810000000000    0.0000470000000000
    -1.8924140000000000    3.2779389999999999   -0.0000350000000000
     0.0000870000000000   -0.0000190000000000    6.4144940000000004
 Mg  Be  As 
   1   2   2
Cartesian
  0.0000000000000000  0.0000000000000000  0.0000000000000000
  1.8926263552819997  1.0927380308690000  2.3981423944070004
  0.0000166447179998  2.1852629691310002  4.0163636055930008
  0.0001914044010000  2.1853845873069999  1.6921294372980000
  1.8924459182149995  1.0926196905510002  4.7223765626200001
