Be Pd
 1.0000000000000000
     5.9945430000000002    0.0000000000000000    0.0000000000000000
     0.0000000000000000    5.9945430000000002    0.0000000000000000
     0.0000000000000000    0.0000000000000000    5.9945430000000002
 Be  Pd 
  20   4
Cartesian
  4.4959072500000001  1.4986357500000000  4.4959072500000001
  0.7480710100560001  5.2464719899440002  2.2492004899440001
  5.2464719899440002  0.7480710100560001  2.2492004899440001
  3.7453425100560001  0.7480710100560001  0.7480710100560001
  2.2492004899440001  5.2464719899440002  0.7480710100560001
  4.4959072500000001  4.4959072500000001  1.4986357500000000
  0.7480710100560001  2.2492004899440001  5.2464719899440002
  5.2464719899440002  3.7453425100560001  5.2464719899440002
  3.7453425100560001  3.7453425100560001  3.7453425100560001
  2.2492004899440001  2.2492004899440001  3.7453425100560001
  1.4986357500000000  1.4986357500000000  1.4986357500000000
  3.7453425100560001  5.2464719899440002  5.2464719899440002
  2.2492004899440001  0.7480710100560001  5.2464719899440002
  0.7480710100560001  0.7480710100560001  3.7453425100560001
  5.2464719899440002  5.2464719899440002  3.7453425100560001
  1.4986357500000000  4.4959072500000001  4.4959072500000001
  3.7453425100560001  2.2492004899440001  2.2492004899440001
  2.2492004899440001  3.7453425100560001  2.2492004899440001
  0.7480710100560001  3.7453425100560001  0.7480710100560001
  5.2464719899440002  2.2492004899440001  0.7480710100560001
  0.0000000000000000  0.0000000000000000  0.0000000000000000
  0.0000000000000000  2.9972715000000001  2.9972715000000001
  2.9972715000000001  0.0000000000000000  2.9972715000000001
  2.9972715000000001  2.9972715000000001  0.0000000000000000
