Ca In Pt
 1.0000000000000000
     4.4085500000000000    0.0000000000000000    0.0000000000000000
    -2.2042750000000000    5.2837980000000000    0.0000000000000000
     0.0000000000000000    0.0000000000000000    7.8176550000000002
 Ca  In  Pt 
   2   4   2
Cartesian
  0.0000022042750000  0.7089958670340000  5.8632412499999997
  2.2042727957250001  4.5748021329660000  1.9544137500000001
 -0.0000044085499998  3.7633745579040001  7.4121766881150002
 -0.0000044085499998  3.7633745579040001  4.3143058118850002
  2.2042794085500002  1.5204234420960001  0.4054783118850001
  2.2042794085500002  1.5204234420960001  3.5033491881150001
  2.2042705914500003  2.9864343323879998  5.8632412499999997
  0.0000044085499999  2.2973636676120002  1.9544137500000001
