Ac Cl
 1.0000000000000000
     7.6956360000000004    0.0000750000000000    0.0000000000000000
    -3.8478819999999998    6.6645779999999997    0.0000000000000000
     0.0000000000000000    0.0000000000000000    4.5690030000000004
 Ac  Cl 
   2   6
Cartesian
  3.8478005145060008  2.2215737784989997  3.4267522500000003
 -0.0000465145059998  4.4430792215009998  1.1422507500000001
  2.0185323090059999  4.6399716360209995  3.4267522500000003
  4.6865686277180005  4.0681602989399996  1.1422507500000001
  1.8292216909940004  2.0246813639789996  1.1422507500000001
 -0.8388146277180000  2.5964927010599999  3.4267522500000003
 -1.1798456812879998  6.0927666629189998  3.4267522500000003
  5.0275996812879997  0.5718863370810000  1.1422507500000001
