Sm Cl
 1.0000000000000000
     9.3348730000000000    0.0000000000000000    0.0000000000000000
    -4.6674350000000002    8.0842369999999999    0.0000000000000000
     0.0000000000000000    0.0000000000000000    3.7086969999999999
 Sm  Cl 
   2   6
Cartesian
  0.0000009999990000  5.3894859438419997  2.7815227499999997
  4.6674416674360000  2.6947429719209999  0.9271742500000000
  0.0000006298589998  3.3946196217220002  0.9271742500000000
  1.7275967963060004  6.3869191049019998  0.9271742500000000
 -1.7275944261680003  6.3869191049019998  0.9271742500000000
  4.6674513724489994  4.6896092940409995  2.7815227499999997
  2.9398272013829998  1.6973098108610001  2.7815227499999997
  6.3950370936030003  1.6973098108610001  2.7815227499999997
