Ca Hf N 
 1.0000000000000000
     6.1092950000000004   -0.0181730000000000   -0.0928600000000000
     2.2612150000000000    5.6703849999999996    0.0590570000000000
     1.5424610000000001    2.5836920000000001    8.7714280000000002
 Ca  Hf  N  
   8   2   8
Cartesian
  6.1580302726430007  3.9866992661199996  1.6570612458830001
  3.7549407273570004  4.2492047338800001  7.0805637541169997
  6.6988402890570002  3.9327443778369999  8.6496184514240007
  3.2141307109430000  4.3031596221629993  0.0880065485760000
  6.4594252349480010  4.1656540189299998  4.9970159787410005
  3.4535457650520001  4.0702499810699999  3.7406090212590000
  4.5604163495740000  6.8933506585649997  5.2691870901779998
  5.3525546504260006  1.3425533414349999  3.4684379098219997
  7.4764838688790007  6.7364272895989998  6.6758708717530002
  2.4364871311209999  1.4994767104010001  2.0617541282470002
  8.5437795803140002  5.5390502346499995  5.3558611992790004
  1.3691914196860000  2.6968537653499998  3.3817638007210005
  8.5615633483379998  7.2848233298459997  8.3189954984009997
  1.3514076516620002  0.9510806701540000  0.4186295015990000
  5.7817149675270008  5.6017794326359995  7.0217898574750004
  4.1312560324730008  2.6341245673640001  1.7158351425250000
  5.4018942894099995  5.6178598718659991  3.3162566828830005
  4.5110767105900003  2.6180441281340001  5.4213683171170004
