Sr Mn N 
 1.0000000000000000
     7.7252700000000001    0.0000000000000000    0.0000000000000000
     0.0000000000000000    5.5548620000000000    0.0007580000000000
     0.0000000000000000    2.3496359999999998    5.4398330000000001
 Sr  Mn  N  
   4   4   8
Cartesian
  0.6828057142200000  2.6255881778319998  1.8188416622779999
  4.5454407142199997  2.5014788221680000  3.6213703377219999
  7.0424642857800004  5.2789098221680000  3.6217493377220000
  3.1798292857799999  5.4030191778320003  1.8192206622780001
  4.9269840742500000  2.5626940733160000  0.5401832243310000
  1.0643490742500001  2.5643729266839999  4.9000287756690000
  2.7982859257500001  5.3418039266840003  4.9004077756690005
  6.6609209257500002  5.3401250733159991  0.5405622243310000
  0.6183460613400000  5.6337810834759994  1.2741314186390000
  4.4809810613399996  5.0481479165240000  4.1668385813609996
  7.1069239386600005  2.2707169165239995  4.1664595813609999
  3.2442889386600000  2.8563500834759998  1.2737524186390001
  5.3835938828699996  0.8977682596840000  1.0713202394170001
  1.5209588828700000  4.2292987403159996  4.3688917605829998
  2.3416761171300005  7.0067297403159996  4.3692707605830003
  6.2043111171300005  3.6751992596839997  1.0716992394170000
