Li Si Pd
 1.0000000000000000
     0.0000180000000000    2.9538489999999999    2.9538489999999999
     2.9538489999999999    0.0000180000000000    2.9538489999999999
     2.9538489999999999    2.9538489999999999    0.0000180000000000
 Li  Si  Pd 
   1   1   2
Cartesian
  1.4769230922840000  1.4769230922840000  1.4769230922840000
  4.4307870000000005  4.4307870000000005  4.4307869999999996
  0.0000059077160000  0.0000059077160000  0.0000059077160000
  2.9538579999999999  2.9538579999999999  2.9538579999999999
