Na Au
 1.0000000000000000
     4.8023660000000001   -0.0000000000000000    2.7726479999999998
     1.6007880000000001    4.5277139999999996    2.7726479999999998
     0.0000000000000000    0.0000000000000000    5.5452940000000002
 Na  Au 
   2   4
Cartesian
  5.6027597500000006  3.9617497499999996  9.7042662499999999
  0.8003942500000001  0.5659642499999999  1.3863237499999999
  3.2015770000000003  2.2638569999999998  5.5452949999999994
  3.2015770000000003  2.2638569999999998  2.7726479999999998
  0.8003940000000000  2.2638569999999998  4.1589710000000002
  2.4011830000000001  0.0000000000000000  4.1589710000000002
