Pr Cl O 
 1.0000000000000000
     4.0849739999999999    0.0000000000000000    0.0000000000000000
     0.0000000000000000    4.0849739999999999    0.0000000000000000
     0.0000000000000000    0.0000000000000000    6.8291849999999998
 Pr  Cl  O  
   2   2   2
Cartesian
  3.0637305000000001  3.0637305000000001  1.1955785887649999
  1.0212435000000000  1.0212435000000000  5.6336064112349993
  3.0637305000000001  3.0637305000000001  4.2884208666750006
  1.0212435000000000  1.0212435000000000  2.5407641333250002
  1.0212435000000000  3.0637305000000001  0.0000000000000000
  3.0637305000000001  1.0212435000000000  0.0000000000000000
