Rb Mn Cl
 1.0000000000000000
     4.8345680000000000    0.0000000000000000   -1.4406669999999999
    -0.4293080000000000    4.8154700000000004   -1.4406669999999999
     0.0086500000000000    0.0094560000000000    8.8612500000000001
 Rb  Mn  Cl 
   2   1   4
Cartesian
  1.5847093721399999  1.7322750768560000  5.3179282432840003
  2.8292006278599997  3.0926509231440003  0.6619877567160001
  0.0000000000000000  0.0000000000000000  0.0000000000000000
  3.7236412491099999  4.0703804823660006  3.6635127906360005
  0.6902687508899999  0.7545455176340001  2.3164032093640001
 -0.2146540000000000  2.4077350000000002 -0.7203335000000000
  2.4172840000000000  0.0000000000000000 -0.7203335000000000
