Th Cu
 1.0000000000000000
     5.0401119999999997    0.0000000000000000    0.0000000000000000
     0.0000000000000000    8.0255290000000006    0.0000000000000000
     0.0000000000000000    0.0000000000000000   10.0729170000000003
 Th  Cu 
   4  24
Cartesian
  1.2600279999999999  6.1052606761700003  0.6612870010500000
  3.7800839999999996  1.9202683238300002  9.4116299989499996
  1.2600279999999999  2.0924961761700005  4.3751714989500003
  3.7800839999999996  5.9330328238300005  5.6977455010500000
  5.0188074465760000  0.5194764411120000  6.9509372508539995
  2.4987514465760001  7.5060525588880003  3.1219797491460000
  2.5413605534239996  4.5322409411120006  8.1584382491460001
  0.0213045534240000  3.4932880588880000  1.9144787508540002
  3.7800839999999996  6.8586331344580005  8.6554561197600002
  1.2600279999999999  1.1668958655420001  1.4174608802400002
  3.7800839999999996  2.8458686344580002  6.4539193802399994
  1.2600279999999999  5.1796603655420004  3.6189976197600000
  3.7800839999999996  1.4601085675570002  2.4652759253309999
  1.2600279999999999  6.5654204324430001  7.6076410746690000
  3.7800839999999996  5.4728730675570008  2.5711825746690002
  1.2600279999999999  2.5526559324430003  7.5017344253310005
  3.7800839999999996  3.5183838880710003  4.0314835709099999
  1.2600279999999999  4.5071451119290007  6.0414334290900005
  3.7800839999999996  7.5311483880710002  1.0049749290900001
  1.2600279999999999  0.4943806119290001  9.0679420709100000
  3.7800839999999996  0.7955626642410000  4.8823428699000004
  1.2600279999999999  7.2299663357590003  5.1905741300999999
  3.7800839999999996  4.8083271642410006  0.1541156301000000
  1.2600279999999999  3.2172018357590000  9.9188013699000006
  5.0188074465760000  4.5322409411120006  8.1584382491460001
  2.4987514465760001  3.4932880588880000  1.9144787508540002
  2.5413605534239996  0.5194764411120000  6.9509372508539995
  0.0213045534240000  7.5060525588880003  3.1219797491460000
