Pm Cu Os
 1.0000000000000000
    -0.0000260000000000    3.5037430000000001    3.5037430000000001
     3.5037430000000001   -0.0000260000000000    3.5037430000000001
     3.5037430000000001    3.5037430000000001   -0.0000260000000000
 Pm  Cu  Os 
   2   1   1
Cartesian
  0.0000000000000000  0.0000000000000000  0.0000000000000000
  3.5037370074600003  3.5037370074600003  3.5037370074600003
  1.7518579925400000  1.7518579925400000  1.7518579925400002
  5.2555949999999996  5.2555949999999996  5.2555950000000005
