Hf Pt
 1.0000000000000000
     3.3304980000000000    0.0000000000000000    0.0000000000000000
     0.0000000000000000    3.3304980000000000    0.0000000000000000
     0.0000000000000000    0.0000000000000000    3.3304980000000000
 Hf  Pt 
   1   1
Cartesian
  0.0000000000000000  0.0000000000000000  0.0000000000000000
  1.6652490000000000  1.6652490000000000  1.6652490000000000
