Mg Ga Ni
 1.0000000000000000
     0.0000000000000000    2.9231099999999999    2.9231099999999999
     2.9231099999999999    0.0000000000000000    2.9231099999999999
     2.9231099999999999    2.9231099999999999    0.0000000000000000
 Mg  Ga  Ni 
   1   1   2
Cartesian
  4.3846591537799995  4.3846591537799995  4.3846591537799995
  1.4615549999999999  1.4615549999999999  1.4615549999999999
  2.9231099999999999  2.9231099999999999  2.9231099999999999
  0.0000000000000000  0.0000000000000000  0.0000000000000000
