Yb Tl Pb
 1.0000000000000000
     0.0000000000000000    3.7506309999999998    3.7506309999999998
     3.7506309999999998    0.0000000000000000    3.7506309999999998
     3.7506309999999998    3.7506309999999998    0.0000000000000000
 Yb  Tl  Pb 
   2   1   1
Cartesian
  1.8753154999999999  1.8753154999999999  1.8753154999999999
  5.6259464999999995  5.6259464999999995  5.6259464999999995
  0.0000000000000000  0.0000000000000000  0.0000000000000000
  3.7506309999999998  3.7506309999999998  3.7506309999999998
