Zr Fe Ge
 1.0000000000000000
     2.5049869999999999   -4.3386639999999996   -0.0000100000000000
     2.5049869999999999    4.3386639999999996    0.0000100000000000
    -0.0000000000000000    0.0000190000000000    8.2970749999999995
 Zr  Fe  Ge 
   4   6   2
Cartesian
  2.5050195648310001 -1.4461934382290000  7.7606242825649998
  2.5050396047269996  1.4462628668199997  3.6115873277099997
  2.5050396047270000 -1.4462178364509997  4.6847824209750000
  2.5050220698180001  1.4462428106060001  0.5372057513299999
  3.7208500750989995 -0.7442366558080004  2.0745989176299999
  2.5049920099740000  2.8501780814480000  6.2224809362199993
  3.7208475701119998  0.7442686718000001  6.2224760823999992
  1.2891564897319998 -0.7442409944719999  2.0745989176199999
  2.5049995249349997 -2.8501373881279997  2.0745940638299998
  1.2891464697840000  0.7442686717810000  6.2224677853249997
  5.0098562656109999 -0.0000382263110003  4.1480977549149998
  5.0098512556369998 -0.0000477243539999  0.0004148536400000
