Ge Se
 1.0000000000000000
     3.8806419999999999    0.0000000000000000    0.0000000000000000
     0.0000000000000000    4.5408429999999997    0.0000000000000000
     0.0000000000000000    0.0000000000000000   11.1617040000000003
 Ge  Se 
   4   4
Cartesian
  0.9701605000000000  0.5353063587410000  1.4008608222240002
  2.9104814999999999  4.0055366412589999  9.7608431777759996
  2.9104814999999999  2.8057278587409997  4.1799911777760004
  0.9701605000000000  1.7351151412589998  6.9817128222239999
  0.9701605000000000  2.2839532121399997  9.5129752170480000
  2.9104814999999999  2.2568897878600001  1.6487287829520001
  2.9104814999999999  0.0135317121400000  7.2295807829519996
  0.9701605000000000  4.5273112878599999  3.9321232170480003
