Ho Er Tl
 1.0000000000000000
     0.0000000000000000    3.7451639999999999    3.7451639999999999
     3.7451639999999999    0.0000000000000000    3.7451639999999999
     3.7451639999999999    3.7451639999999999    0.0000000000000000
 Ho  Er  Tl 
   1   1   2
Cartesian
  5.6177385096719998  5.6177385096719998  5.6177385096719998
  1.8725820000000000  1.8725820000000000  1.8725820000000000
  0.0000000000000000  0.0000000000000000  0.0000000000000000
  3.7451639999999999  3.7451639999999999  3.7451639999999999
