Fe Rh N 
 1.0000000000000000
     3.8397310000000000    0.0000000000000000    0.0000000000000000
     0.0000000000000000    3.8396309999999998    0.0000000000000000
     0.0000000000000000    0.0000000000000000    3.8389460000000000
 Fe  Rh  N  
   3   1   1
Cartesian
  0.0000000000000000  1.9198154999999999  1.9194730000000000
  1.9198655000000000  1.9198154999999999  0.0000000000000000
  1.9198655000000000  0.0000000000000000  1.9194730000000000
  0.0000000000000000  0.0000000000000000  0.0000000000000000
  1.9198655000000000  1.9198154999999999  1.9194730000000000
