Sc Zn Ga
 1.0000000000000000
    -0.0000240000000000    3.3334069999999998    3.3332790000000001
     3.3330910000000000   -0.0000250000000000    3.3332799999999998
     3.3330910000000000    3.3334060000000001   -0.0000250000000000
 Sc  Zn  Ga 
   2   1   1
Cartesian
  6.6661513339139997  6.6667713329909999  6.6665173336289989
  3.3330823330190000  3.3334073336270000  3.3332769998120000
  4.9996151669089999  5.0000876665940002  4.9999005000249994
  1.6665361669090000  1.6666970000250001  1.6666301667200001
