Zr Sn Pd
 1.0000000000000000
     3.8963700000000001    0.0000000000000000    2.2495710000000000
     1.2987899999999999    3.6735319999999998    2.2495720000000001
     0.0000000000000000    0.0000010000000000    4.4991409999999998
 Zr  Sn  Pd 
   1   1   1
Cartesian
  2.5975799999999998  1.8367665000000000  4.4991420000000000
  0.0000000000000000  0.0000000000000000  0.0000000000000000
  1.2987899999999999  0.9183832500000000  2.2495710000000000
