Er Ta Ru
 1.0000000000000000
    -0.0000020000000000    3.2380849999999999    3.2380849999999999
     3.2380840000000002   -0.0000020000000000    3.2380849999999999
     3.2380849999999999    3.2380849999999999   -0.0000020000000000
 Er  Ta  Ru 
   1   1   2
Cartesian
  1.6190352738330001  1.6190355238320000  1.6190355238320000
  4.8571252500000002  4.8571259999999992  4.8571260000000001
  0.0000000000000000  0.0000000000000000  0.0000000000000000
  3.2380899761670001  3.2380904761679998  3.2380904761680003
