As Pb O 
 1.0000000000000000
     6.2170339999999999    0.0000000000000000    0.0000000000000000
     0.0000000000000000    7.5052789999999998    0.0168250000000000
     0.0000000000000000    3.8982999999999999    8.5796250000000001
 As  Pb  O  
   4   6  16
Cartesian
  0.1225377401400000  7.5427324754360008  3.4674276585500001
  3.2310547401399998  1.9116965245639999  0.8392098414500000
  6.0944962598599997  3.8608465245639998  5.1290223414499998
  2.9859792598600001  9.4918824754360003  7.7572401585500002
  0.0000000000000000  0.0000000000000000  0.0000000000000000
  3.1085170000000000  1.9491499999999999  4.2898125000000000
  5.6713338406500000  7.7365830058699991  6.7760785013749993
  2.5628168406500000  5.6161459941300000  6.1101839986250006
  0.5457001593500000  3.6669959941300001  1.8203714986250001
  3.6542171593500004  5.7874330058699996  2.4862660013750002
  1.4962349216780000  7.4054611696070003  4.4466522032249998
  4.6047519216780000  5.9472678303929998  8.4396102967749993
  4.7207990783220000  3.9981178303929998  4.1497977967750002
  1.6122820783219998  5.4563111696069999  0.1568397032250000
  4.3571771937300001  5.6804768774709995  0.2126501550500000
  1.2486601937299999  3.7739521225289998  4.0939873449500004
  1.8598568062700001  5.7231021225290002  8.3837998449499995
  4.9683738062699998  7.6296268774709999  4.5024626550500004
  0.1833216815580000  5.2083956879279993  6.1490302621500001
  3.2918386815580001  8.1443333120719998  6.7372322378499998
  6.0337123184419994  6.1951833120720003  2.4474197378500002
  2.9251953184419999  3.2592456879279998  1.8592177621500001
  0.2420664358240000  1.3523642745039999  2.3959201807000001
  3.3505834358239999  8.1020647254959997  1.9107173193000000
  5.9749675641760005 10.0512147254959991  6.2005298192999998
  2.8664505641759996  3.3015142745040000  6.6857326807000002
