Na I  O 
 1.0000000000000000
     4.4687780000000004    0.0000000000000000   -1.2527050000000000
    -0.3511630000000000    4.4549589999999997   -1.2527050000000000
    -0.0028580000000000   -0.0030920000000000    8.5869020000000003
 Na  I   O  
   4   2   1
Cartesian
  0.5859127151660001  0.6339148503920000  2.0901202109460000
 -0.1755815000000000  2.2274794999999998 -0.6263525000000000
  3.5288442848340007  3.8179521496080002  3.9913717890540004
  2.2343890000000002  0.0000000000000000 -0.6263525000000000
  1.4312533620400001  1.5485118130839999  5.1056987361400008
  2.6835036379599995  2.9033551869159995  0.9757932638600003
  0.0000000000000000  0.0000000000000000  0.0000000000000000
