Tb In Cu
 1.0000000000000000
     3.7174220000000000   -6.4387639999999999    0.0000000000000000
     3.7174220000000000    6.4387639999999999    0.0000000000000000
     0.0000000000000000    0.0000000000000000    3.9423460000000001
 Tb  In  Cu 
   3   3   3
Cartesian
  2.1902381288039998  3.7936038510479997  1.9711730000000001
  3.0543677423919999 -0.0000000000000002  1.9711730000000001
  2.1902381288039998 -3.7936038510479997  1.9711730000000001
  5.5554269594600001 -0.0000000000000003  0.0000000000000000
  0.9397085202700000  1.6276229577399999  0.0000000000000000
  0.9397085202700000 -1.6276229577399999  0.0000000000000000
  3.7174220000000000  2.1462589591760004  0.0000000000000000
  0.0000000000000000  0.0000000000000000  1.9711730000000001
  3.7174220000000000 -2.1462589591760000  0.0000000000000000
