Gd Te O 
 1.0000000000000000
     3.7984170000000002    0.0000000000000000   -1.1450119999999999
    -0.3451580000000000    3.7827039999999998   -1.1450119999999999
     0.0074340000000000    0.0081440000000000    6.8975280000000003
 Gd  Te  O  
   2   1   2
Cartesian
  2.2848592293540002  2.5028377604639998  0.7068448482480004
  1.1758337706460000  1.2880102395360000  3.9006591517520004
  0.0000000000000000  0.0000000000000000  0.0000000000000000
  0.6944527500000000  2.8411000000000000  2.3037520000000002
  2.7662402500000001  0.9497479999999999  2.3037520000000002
