Ti Al Pd
 1.0000000000000000
     0.0000000000000000    3.1070609999999999    3.1070609999999999
     3.1070609999999999    0.0000000000000000    3.1070609999999999
     3.1070609999999999    3.1070609999999999    0.0000000000000000
 Ti  Al  Pd 
   1   1   2
Cartesian
  4.6605914999999998  4.6605914999999998  4.6605914999999998
  1.5535242858779998  1.5535242858779998  1.5535242858779998
  0.0000000000000000  0.0000000000000000  0.0000000000000000
  3.1070609999999999  3.1070609999999999  3.1070609999999999
