Ca Zn Si
 1.0000000000000000
     4.2364499999999996    0.0000000000000000    0.0000000000000000
    -2.1182240000000001    3.6688730000000001    0.0000000000000000
     0.0000000000000000    0.0000000000000000    8.2526539999999997
 Ca  Zn  Si 
   2   2   2
Cartesian
  0.0000000000000000  0.0000000000000000  4.1263269999999999
  0.0000000000000000  0.0000000000000000  0.0000000000000000
 -0.0000014515580003  2.4459165562909999  2.0631634999999999
  2.1182274515579995  1.2229564437089999  6.1894904999999998
  2.1182274515579995  1.2229564437089999  2.0631634999999999
 -0.0000014515580003  2.4459165562909999  6.1894904999999998
