Cs Au O 
 1.0000000000000000
     7.8522189999999998    0.0000000000000000    0.0000000000000000
    -3.9261089999999998    6.8002200000000004    0.0000000000000000
     0.0000000000000000    0.0000000000000000    7.0893240000000004
 Cs  Au  O  
   6   2   2
Cartesian
  0.0000080125280001  2.1802729359600002  1.7723310000000001
  5.9640352383200002  1.0901432682000001  5.3169930000000001
  1.8881682175520000  1.0901432682000001  5.3169930000000001
  2.0379417824479997  5.7100767318000010  1.7723310000000001
 -2.0379252383199997  5.7100767318000010  1.7723310000000001
  3.9261019874720002  4.6199470640400007  5.3169930000000001
  3.9261135927760002  2.2667377332600003  1.7723310000000001
 -0.0000035927760001  4.5334822667400001  5.3169930000000001
  0.0000000000000000  0.0000000000000000  0.0000000000000000
  0.0000000000000000  0.0000000000000000  3.5446620000000002
