Rb O 
 1.0000000000000000
     3.6320960000000002    0.0000000000000000   -1.8770009999999999
    -0.9700000000000000    3.5001769999999999   -1.8770009999999999
     0.0264360000000000    0.0347580000000000    4.5038049999999998
 Rb  O  
   1   2
Cartesian
  0.0000000000000000  0.0000000000000000  0.0000000000000000
  1.0935646492519999  1.4378401784049999  2.1161015161229999
  1.5949673507480000  2.0970948215949998 -1.3662985161229999
