La Sb Pd
 1.0000000000000000
     4.6218320000000004   -0.0000000000000000    0.0000000000000000
    -2.3109169999999999    4.0025170000000001    0.0000000000000000
     0.0000000000000000    0.0000000000000000    8.2918950000000002
 La  Sb  Pd 
   2   2   2
Cartesian
  0.0000000000000000  0.0000000000000000  4.1459475000000001
  0.0000000000000000  0.0000000000000000  0.0000000000000000
 -0.0000099103179997  2.6682939681179998  6.2189212500000002
  2.3109249103180005  1.3342230318819999  2.0729737500000001
 -0.0000052885000000  2.6683500033560001  2.0729737500000001
  2.3109202885000002  1.3341669966440002  6.2189212500000002
