Sm In Hg
 1.0000000000000000
     0.0000000000000000    3.8035570000000001    3.8035570000000001
     3.8035570000000001    0.0000000000000000    3.8035570000000001
     3.8035570000000001    3.8035570000000001    0.0000000000000000
 Sm  In  Hg 
   2   1   1
Cartesian
  1.9017785000000000  1.9017785000000000  1.9017785000000000
  5.7053355000000003  5.7053355000000003  5.7053355000000003
  0.0000000000000000  0.0000000000000000  0.0000000000000000
  3.8035570000000001  3.8035570000000001  3.8035570000000001
