Nd Bi
 1.0000000000000000
     3.9889679999999998   -0.0000000000000000    2.3030309999999998
     1.3296559999999999    3.7608359999999998    2.3030309999999998
    -0.0000000000000000   -0.0000000000000000    4.6060629999999998
 Nd  Bi 
   1   1
Cartesian
  2.6593119999999999  1.8804179999999999  4.6060625000000002
  0.0000000000000000  0.0000000000000000  0.0000000000000000
