Ho Zr Sb
 1.0000000000000000
     4.1322690000000000    0.0006130000000000   -1.0404100000000001
    -0.2614870000000000    4.1239879999999998   -1.0404100000000001
     0.0220870000000000    0.0235360000000000    8.8093979999999998
 Ho  Zr  Sb 
   2   2   2
Cartesian
  2.6251497978210003  2.7972891317130002  1.6980556695539997
  1.2677192021790002  1.3508478682870000  5.0305223304459998
  4.0015254999999996  2.0626069999999999 -1.5606150000000001
  2.0661345000000000  0.0003065000000000 -0.5202050000000000
  0.5231338694500000  0.5574375396999999  2.0831437775399997
  3.3697351305500001  3.5906994602999998  4.6454342224599996
