Sc Au
 1.0000000000000000
     3.5441870000000000    0.0013520000000000    0.0009470000000000
     0.0013520000000000    3.5441870000000000    0.0009480000000000
    -1.7715959999999999   -1.7715950000000000    4.3875570000000002
 Sc  Au 
   1   2
Cartesian
  3.5455389986479999  3.5455354558129999  0.0018949990520000
  1.7741397492559998  1.7741365326399998  1.4325615762949999
 -0.0001967519599999 -0.0001996210140000  2.9568904218089997
