Na H  Pt
 1.0000000000000000
    -2.5972749999999998    2.5972749999999998    3.3087490000000002
     2.5972749999999998   -2.5972749999999998    3.3087490000000002
     2.5972749999999998    2.5972749999999998   -3.3087490000000002
 Na  H   Pt 
   2   4   1
Cartesian
  0.0000000000000000  2.5972749999999998  1.6543745000000001
  2.5972749999999998  0.0000000000000000  1.6543745000000001
  1.1633038888499998  1.1633038888500000 -0.0000000000000000
  1.4339711111499998  1.4339711111500000  3.3087489999999997
  1.4339711111499998 -1.4339711111499998  3.3087490000000002
 -1.4339711111500000  1.4339711111500000  3.3087490000000002
  0.0000000000000000  0.0000000000000000  0.0000000000000000
