Hf Si Ni
 1.0000000000000000
     3.5003530000000000    0.0000000000000000   -1.2649349999999999
    -0.4571130000000000    3.4703770000000000   -1.2649349999999999
     0.0006610000000000    0.0007540000000000    5.4774200000000004
 Hf  Si  Ni 
   1   2   2
Cartesian
  0.0000000000000000  0.0000000000000000  0.0000000000000000
  1.1590495299290000  1.3217292593210002  3.2073384767300004
  1.8848514700710002  2.1494017406790000 -0.2597884767299999
  0.5325840000000001  2.6031597500000001  1.4737750000000003
  2.5113170000000000  0.8679712500000000  1.4737750000000003
