Sc Cd Ag
 1.0000000000000000
     0.0000000000000000    3.3602750000000001    3.3602750000000001
     3.3602750000000001    0.0000000000000000    3.3602750000000001
     3.3602750000000001    3.3602750000000001    0.0000000000000000
 Sc  Cd  Ag 
   1   1   2
Cartesian
  5.0404125000000004  5.0404125000000004  5.0404125000000004
  1.6801307794500000  1.6801307794500000  1.6801307794500000
  0.0000000000000000  0.0000000000000000  0.0000000000000000
  3.3602682794500005  3.3602682794500005  3.3602682794500005
