Na W  N 
 1.0000000000000000
     7.5285770000000003    0.0000000000000000    0.0000000000000000
     0.0000000000000000    7.5285770000000003    0.0000000000000000
     0.0000000000000000    0.0000000000000000    5.8195579999999998
 Na  W   N  
  12   2   8
Cartesian
  3.7642885000000001  0.0000000000000000  3.7097529013539998
  0.0000000000000000  3.7642885000000001  5.0195840986459999
  0.0000000000000000  3.7642885000000001  2.1098050986460000
  3.7642885000000001  0.0000000000000000  0.7999739013539999
  1.5504577331109999  1.5504577331109999  2.9097789999999999
  5.9781192668890002  5.9781192668890002  2.9097789999999999
  5.3147462331110003  5.3147462331110003  0.0000000000000000
  2.2138307668890000  2.2138307668890000  0.0000000000000000
  1.5504577331109999  5.9781192668890002  2.9097789999999999
  5.9781192668890002  1.5504577331109999  2.9097789999999999
  5.3147462331110003  2.2138307668890000  0.0000000000000000
  2.2138307668890000  5.3147462331110003  0.0000000000000000
  3.7642885000000001  3.7642885000000001  2.9097789999999999
  0.0000000000000000  0.0000000000000000  0.0000000000000000
  3.7642885000000001  2.1431600145899998  1.8857521156460000
  3.7642885000000001  5.3854169854100000  1.8857521156460000
  0.0000000000000000  5.9074485145900004  1.0240268843539999
  0.0000000000000000  1.6211284854100001  1.0240268843539999
  2.1431600145899998  3.7642885000000001  3.9338058843539998
  5.3854169854100000  3.7642885000000001  3.9338058843539998
  5.9074485145900004  0.0000000000000000  4.7955311156459999
  1.6211284854100001  0.0000000000000000  4.7955311156459999
