Te Pd I 
 1.0000000000000000
     5.7568450000000002    0.0000000000000000    0.0000000000000000
     0.0000000000000000    7.9777399999999998    0.0000000000000000
     0.0000000000000000    0.0000000000000000    7.9777399999999998
 Te  Pd  I  
   4   4   4
Cartesian
  0.0000000000000000  1.6772959017800000  0.0000000000000000
  2.8784225000000001  0.0000000000000000  1.6772959017800000
  2.8784225000000001  0.0000000000000000  6.3004361204799997
  0.0000000000000000  6.3004361204799997  0.0000000000000000
  0.0000000000000000  0.0000000000000000  1.9961023476600002
  2.8784225000000001  5.9816376523399999  0.0000000000000000
  2.8784225000000001  1.9961023476600002  0.0000000000000000
  0.0000000000000000  0.0000000000000000  5.9816376523399999
  0.0000000000000000  1.8847969191799998  3.9888699999999999
  2.8784225000000001  3.9888699999999999  1.8847969191799998
  2.8784225000000001  3.9888699999999999  6.0929430808199996
  0.0000000000000000  6.0929430808199996  3.9888699999999999
