Pm Br
 1.0000000000000000
    10.0001879999999996    0.0000000000000000    0.0000000000000000
    -5.0000939999999998    8.6604150000000004    0.0000000000000000
     0.0000000000000000    0.0000000000000000    3.8712650000000002
 Pm  Br 
   2   6
Cartesian
  5.0000839998119995  2.8868107736100002  0.9678123787350000
  0.0000000000000002  5.7736215472200003  2.9034487499999999
  6.8625090127440007  1.8115509680400002  2.9034487499999999
  3.1376789872560003  1.8115509680400002  2.9034487499999999
  5.0000889999059996  5.0373390451650009  2.9034487499999999
 -1.8624200128380000  6.8488726923750001  0.9678123787350000
  1.8624100126499996  6.8488726923750001  0.9678123787350000
 -0.0000100001879998  3.6231019360800003  0.9678123787350000
