Be Ga Ir
 1.0000000000000000
     0.0000000000000000    2.9210900000000000    2.9210900000000000
     2.9210900000000000    0.0000000000000000    2.9210900000000000
     2.9210900000000000    2.9210900000000000    0.0000000000000000
 Be  Ga  Ir 
   1   1   2
Cartesian
  1.4605508421799998  1.4605508421799998  1.4605508421799998
  4.3816350000000002  4.3816350000000002  4.3816350000000002
  0.0000000000000000  0.0000000000000000  0.0000000000000000
  2.9210900000000000  2.9210900000000000  2.9210900000000000
