Ba C  N 
 1.0000000000000000
     5.7060060000000004   -0.2008750000000000   -0.1264790000000000
     4.2131340000000002    3.8533539999999999   -0.1264790000000000
     4.2131340000000002    1.5513830000000000    3.5295250000000000
 Ba  C   N  
   1   1   2
Cartesian
  0.0000000000000000  0.0000000000000000  0.0000000000000000
  7.0661370000000003  2.6019310000000000  1.6382835000000000
  8.1981886764960006  3.0187811616479996  1.9007496229679999
  5.9340853235040010  2.1850808383520000  1.3758173770319999
