Sc Rh C 
 1.0000000000000000
     5.4175659999999999    0.0000000000000000    1.5227160000000000
     0.0000000000000000   12.3262839999999994    0.0000000000000000
    -0.0018240000000000    0.0000000000000000    5.6266879999999997
 Sc  Rh  C  
  12   4  16
Cartesian
  4.1182162758720002  0.0000000000000000  5.4383498656639997
  0.0000000000000000  2.3238989750879999  0.0000000000000000
  2.7078709999999999  2.3391096095439998  3.5747019999999998
  1.2975257241279998  0.0000000000000000  1.7110541343360000
  2.7078709999999999  9.9871743904559995  3.5747019999999998
  0.0000000000000000 10.0023850249119999  0.0000000000000000
  1.4094332758719998  6.1631419999999997  4.6769918656640002
  2.7087829999999999  8.4870409750880000  0.7613580000000000
 -0.0009120000000000  8.5022516095439986  2.8133439999999998
  4.0063087241280000  6.1631419999999997  2.4724121343359999
 -0.0009120000000000  3.8240323904559999  2.8133439999999998
  2.7087829999999999  3.8392430249120002  0.7613580000000000
  1.4654328357639999  0.0000000000000000  4.5144957153679997
  3.9503091642359998  0.0000000000000000  2.6349082846319996
  4.1742158357639996  6.1631419999999997  5.2758537153680001
  1.2415261642360000  6.1631419999999997  1.8735502846319998
  0.4211722695640000 10.7418881072079984  3.3947096205360001
  3.1511420119379996  1.5905713610759997  1.3248892918759998
  4.9945697304360008 10.7418881072079984  3.7546943794640000
  4.9945697304360008  1.5843958927920001  3.7546943794640000
  2.2645999880619998 10.7357126389239994  5.8245147081239992
  2.2645999880619998  1.5905713610759997  5.8245147081239992
  3.1511420119379996 10.7357126389239994  1.3248892918759998
  0.4211722695640000  1.5843958927920001  3.3947096205360001
  3.1299552695639998  4.5787461072079996  4.1560676205359997
  0.4423590119380000  7.7537133610759996  0.5635312918759999
  2.2857867304360000  4.5787461072079996  2.9933363794640000
  2.2857867304360000  7.7475378927919998  2.9933363794640000
  4.9733829880620002  4.5725706389239997  6.5858727081239996
  4.9733829880620002  7.7537133610759996  6.5858727081239996
  0.4423590119380000  4.5725706389239997  0.5635312918759999
  3.1299552695639998  7.7475378927919998  4.1560676205359997
