Lu Pd Ru
 1.0000000000000000
     0.0000000000000000    3.3503449999999999    3.3503449999999999
     3.3503449999999999    0.0000000000000000    3.3503449999999999
     3.3503449999999999    3.3503449999999999    0.0000000000000000
 Lu  Pd  Ru 
   2   1   1
Cartesian
  0.0000000000000000  0.0000000000000000  0.0000000000000000
  3.3503382993100002  3.3503382993100002  3.3503382993100002
  1.6751725000000000  1.6751725000000000  1.6751725000000000
  5.0255242006899996  5.0255242006899996  5.0255242006899996
