Ba Ni As
 1.0000000000000000
     3.8914890000000000    0.0000000000000000   -1.3036239999999999
    -0.4367070000000000    3.8669060000000002   -1.3036239999999999
     0.0637190000000000    0.0713200000000000    6.6503230000000002
 Ba  Ni  As 
   1   2   2
Cartesian
  0.0000000000000000  0.0000000000000000  0.0000000000000000
  0.6772015000000000  2.9358395000000002  2.0215375000000000
  2.8412994999999999  1.0023865000000001  2.0215375000000000
  1.2314131368210000  1.3783094330019998  3.6759237659630006
  2.2870878631789999  2.5599165669980004  0.3671512340370003
