Li Y  N 
 1.0000000000000000
    -5.2619030000000002    5.2619030000000002    5.2619030000000002
     5.2619030000000002   -5.2619030000000002    5.2619030000000002
     5.2619030000000002    5.2619030000000002   -5.2619030000000002
 Li  Y   N  
  24   8  16
Cartesian
  1.1546035895810001  1.6954535513390001  4.1940050480529996
  4.1072994104190004  1.6954535513389999  6.3298009519469991
 -1.1546035895810001  3.5664494486610003  4.1940050480530005
  1.1546035895809998  8.8283524486610006  1.0678979519470002
  6.3298009519470000  4.1072994104190004  1.6954535513389994
  4.1940050480530005  1.1546035895810001  1.6954535513390003
  1.0678979519470004  1.1546035895809996  8.8283524486609988
  4.1940050480530005 -1.1546035895810005  3.5664494486609999
  3.5664494486610003  4.1940050480530005 -1.1546035895810003
  8.8283524486610006  1.0678979519470002  1.1546035895809998
  1.6954535513390001  4.1940050480530005  1.1546035895809998
  1.6954535513389994  6.3298009519470000  4.1072994104190013
  4.1072994104190004  3.5664494486610003  1.0678979519470002
  1.1546035895810001  3.5664494486609999 -1.0678979519470000
  6.4165065895810001  1.6954535513389994  1.0678979519470002
  4.1072994104189995 -3.5664494486609999  4.1940050480530005
 -1.0678979519470000  1.1546035895810001  3.5664494486609999
  1.0678979519469998  4.1072994104190004  3.5664494486609999
  4.1940050480529996  4.1072994104190004 -3.5664494486609999
  1.0678979519470011  6.4165065895810001  1.6954535513389990
  1.6954535513389997  1.0678979519470004  6.4165065895810001
 -3.5664494486609999  4.1940050480529996  4.1072994104189995
  3.5664494486610003  1.0678979519469998  4.1072994104190004
  3.5664494486609999 -1.0678979519470000  1.1546035895810001
  1.3232265331190001  1.3232265331190001  1.3232265331190001
  3.9386764668810001  1.3232265331190001 -1.3232265331190001
 -1.3232265331190001  3.9386764668810001  1.3232265331190001
  1.3232265331190001 -1.3232265331190001  3.9386764668810001
  3.9386764668810001  3.9386764668810006  3.9386764668810006
  6.5851295331189998 -1.3232265331189996  1.3232265331189996
  1.3232265331189998  6.5851295331189998 -1.3232265331189998
 -1.3232265331189996  1.3232265331189996  6.5851295331189998
  0.0000000000000000  0.0000000000000000  0.0000000000000000
  5.2619030000000002  0.0000000000000000  0.0000000000000000
  0.0000000000000000  5.2619030000000002  0.0000000000000000
  0.0000000000000000  0.0000000000000000  5.2619030000000002
  2.6309514999999997  2.6541775398419998  0.0000000000000003
  7.8928545000000003  2.6077254601580009  0.0000000000000002
  0.0000000000000004  2.6309514999999997  2.6541775398419998
 -0.0000000000000004  7.8928545000000003  2.6077254601580009
  2.6077254601580004 -0.0000000000000001  7.8928545000000003
  2.6541775398420002  0.0000000000000002  2.6309514999999997
  2.6309514999999997  2.6077254601580004  5.2619030000000011
 -2.6309514999999997  2.6541775398419998  5.2619030000000002
  5.2619030000000002  2.6309515000000001  2.6077254601580000
  5.2619030000000002 -2.6309515000000001  2.6541775398419998
  2.6541775398419998  5.2619030000000002 -2.6309514999999997
  2.6077254601580004  5.2619030000000002  2.6309514999999992
