Ca I  N 
 1.0000000000000000
     3.8131550000000001    0.0000000000000000    0.0000000000000000
    -1.9065770000000000    3.3022890000000000    0.0000000000000000
     0.0000000000000000    0.0000000000000000   14.5364299999999993
 Ca  I   N  
   4   2   2
Cartesian
 -0.0000015732440001  2.2015271007630002  1.1970895469299998
 -0.0000015732440001  2.2015271007630002  6.0711254530699996
  1.9065795732440001  1.1007618992370001  8.4653045469299997
  1.9065795732440001  1.1007618992370001 13.3393404530699993
 -0.0000015732440001  2.2015271007630002 10.9023225000000004
  1.9065795732440001  1.1007618992370001  3.6341074999999998
  0.0000000000000000  0.0000000000000000  0.0000000000000000
  0.0000000000000000  0.0000000000000000  7.2682149999999996
