Bi Rh
 1.0000000000000000
    -2.0670609999999998   -3.5803630000000002   -0.0000000000000000
    -2.0670609999999998    3.5803630000000002    0.0000000000000000
     0.0000000000000000   -0.0000000000000000   -5.6869550000000002
 Bi  Rh 
   2   2
Cartesian
 -2.0670609999999998 -1.1934710416940000 -4.2652333108649998
 -2.0670609999999998  1.1934710416939998 -1.4217216891350000
  0.0000000000000000  0.0000000000000000 -2.8434775000000001
  0.0000000000000000  0.0000000000000000  0.0000000000000000
