Ga Te
 1.0000000000000000
     8.4825099999999996    0.0236530000000000    0.0161620000000000
     6.3845980000000004   10.9520669999999996   -0.0890530000000000
     4.2561819999999999    4.8397370000000004    3.4232860000000001
 Ga  Te 
   4   6
Cartesian
  8.4211558598899998 12.0617168588490014  0.7551991374410001
  6.4271358078220002  8.5609609132669995  0.8479836561370000
  8.4026767363339996  4.8288604982310002  0.7465886248110000
 10.6704427648459994  8.5879709608349994  0.8330790984730000
 14.7355312750899987 10.9898565021349981 -0.0378226887160000
  2.2559256732640001  3.6673179052159997  0.0880231390840000
  8.6304748098619992  4.9711733403989999  3.4084980957490001
  4.3020278863180001  7.1422757351469999  0.0078674606210000
  6.2360102834140001  3.7006788553070002 -0.0213631813530000
 12.7965786732979989 12.1647087223549999  3.2018052682580000
