Al Tc
 1.0000000000000000
     2.9750540000000001    0.0000000000000000    0.0000000000000000
     0.0000000000000000    2.9750540000000001    0.0000000000000000
    -1.4875280000000000   -1.4875280000000000    4.7209310000000002
 Al  Tc 
   1   2
Cartesian
  0.0000000000000000  0.0000000000000000  0.0000000000000000
  1.4875251726440000  1.4875251726440000  1.6043092607989999
  0.0000008273560001  0.0000008273560001  3.1166217392009998
