Al Br
 1.0000000000000000
     7.1950180000000001    0.0000000000000000    0.0000000000000000
     0.0000000000000000    7.5247050000000000   -0.8888220000000000
     0.0000000000000000   -0.0426700000000000   10.4212059999999997
 Al  Br 
   4  12
Cartesian
  0.6601285114640000  6.0219422891500001  3.9662622580219997
  4.2576375114640008  1.4814277108500000  0.3555187419779999
  6.5348894885359998  1.4600927108500001  5.5661217419779989
  2.9373804885360002  6.0006072891499995  9.1768652580219996
  6.6021916869080002  4.4762388365049999  2.9331187486699997
  3.0046826869080001  3.0271311634950000  1.3886622513299998
  0.5928263130920000  3.0057961634949999  6.5992652513299994
  4.1903353130919996  4.4549038365049993  8.1437217486700000
  2.8102733005479998  5.6246222348799995  4.4394859073179997
  6.4077823005479999  1.8787477651200002 -0.1177049073180000
  4.3847446994519998  1.8574127651200001  5.0928980926820007
  0.7872356994520000  5.6032872348799998  9.6500889073179987
  0.4800084308520000  0.5855151089700000  3.6185675789939999
  4.0775174308520006  6.9178548910300002  0.7032134210060000
  6.7150095691480001  6.8965198910299996  5.9138164210059996
  3.1175005691480000  0.5641801089700000  8.8291705789939989
