Li Mg N 
 1.0000000000000000
     3.5051909999999999    0.0000000000000000    0.0000000000000000
     1.7525949999999999    3.0355840000000001    0.0000000000000000
     1.7525949999999999    1.0118609999999999    2.8619770000000000
 Li  Mg  N  
   1   1   1
Cartesian
  5.2577857500000000  3.0355837499999998  2.1464827500000001
  1.7525952499999997  1.0118612499999999  0.7154942500000000
  0.0000000000000000  0.0000000000000000  0.0000000000000000
