Dy Ni Bi
 1.0000000000000000
     3.9398290000000000    0.0000000000000000    2.2746599999999999
     1.3132770000000000    3.7145049999999999    2.2746599999999999
     0.0000000000000000    0.0000000000000000    4.5493199999999998
 Dy  Ni  Bi 
   1   1   1
Cartesian
  2.6265529999999999  1.8572525000000000  4.5493199999999998
  1.3132765000000000  0.9286262500000000  2.2746599999999999
  0.0000000000000000  0.0000000000000000  0.0000000000000000
