Be Pt Rh
 1.0000000000000000
     0.0000000000000000    2.7925710000000001    2.7925710000000001
     2.7925710000000001    0.0000000000000000    2.7925710000000001
     2.7925710000000001    2.7925710000000001    0.0000000000000000
 Be  Pt  Rh 
   2   1   1
Cartesian
  2.7925654148580001  2.7925654148580001  2.7925654148580001
  0.0000000000000000  0.0000000000000000  0.0000000000000000
  1.3962799148580001  1.3962799148580001  1.3962799148580001
  4.1888565000000000  4.1888565000000000  4.1888565000000000
