Er Ir
 1.0000000000000000
     4.5958709999999998    0.0000000000000000    2.6534279999999999
     1.5319570000000000    4.3330299999999999    2.6534279999999999
     0.0000000000000000    0.0000000000000000    5.3068559999999998
 Er  Ir 
   2   4
Cartesian
  5.3618494999999999  3.7914012499999998  9.2869980000000005
  0.7659785000000000  0.5416287500000000  1.3267139999999999
  3.0639140000000000  2.1665150000000000  5.3068559999999998
  3.0639140000000000  2.1665150000000000  2.6534279999999999
  0.7659785000000000  2.1665150000000000  3.9801419999999998
  2.2979354999999999  0.0000000000000000  3.9801419999999998
