Ca Sn Pd
 1.0000000000000000
     4.6658770000000001    0.0000000000000000    0.0000000000000000
     0.0000000000000000    7.3818460000000004    0.0000000000000000
     0.0000000000000000    0.0000000000000000    8.0843740000000004
 Ca  Sn  Pd 
   4   4   4
Cartesian
  3.4994077500000000  3.5515242201360002  1.5288440515140000
  1.1664692500000000  3.8303217798640001  6.5555299484859999
  1.1664692500000000  0.1393987798640000  5.5710310515140007
  3.4994077500000000  7.2424472201360004  2.5133429484860002
  3.4994077500000000  2.4354998326259998  4.6414493071240006
  1.1664692500000000  4.9463461673740001  3.4429246928759998
  3.4994077500000000  6.1264228326260000  7.4851116928760000
  1.1664692500000000  1.2554231673739999  0.5992623071240000
  3.4994077500000000  1.5468732111460000  7.2385059483800003
  3.4994077500000000  5.2377962111460006  4.8880550516200003
  1.1664692500000000  5.8349727888540004  0.8458680516200000
  1.1664692500000000  2.1440497888540002  3.1963189483800001
