Ta Si
 1.0000000000000000
     4.8074349999999999    0.0000000000000000    0.0000000000000000
    -2.4037169999999999    4.1633599999999999    0.0000000000000000
     0.0000000000000000    0.0000000000000000    6.6033109999999997
 Ta  Si 
   3   6
Cartesian
 -1.2018584999999999  2.0816800000000000  1.1005540344370000
  1.2018590000000000  2.0816800000000000  5.5027569655630000
  2.4037175000000000  0.0000000000000000  3.3016554999999999
  2.4037154374109999  2.8404815035200000  3.3016554999999999
 -1.2580668594559998  3.5019186700799998  5.5027569655630000
  1.2580725080190001  3.5019186700799998  1.1005540344370000
  0.0000025625890001  1.3228784964800000  3.3016554999999999
  3.6617848594559996  0.6614413299200000  5.5027569655630000
  1.1456454919810000  0.6614413299200000  1.1005540344370000
