Zn C  O 
 1.0000000000000000
     4.2351599999999996   -0.0074020000000000    3.7551630000000000
     1.6846200000000000    3.8857040000000000    3.7551630000000000
    -0.0112980000000000   -0.0074020000000000    5.6601850000000002
 Zn  C   O  
   2   2   6
Cartesian
  2.9542409999999997  1.9354500000000001  6.5852555000000006
  0.0000000000000000  0.0000000000000000  0.0000000000000000
  4.4313614999999995  2.9031750000000001  9.8778832500000000
  1.4771204999999998  0.9677250000000001  3.2926277500000003
  3.9726934875119992  1.8317350377040000  4.7456103265519998
  1.3729629551279998  2.9105770000000000  5.5948081734480004
  3.8685359426399999  3.7745870377039998  7.0477907500000008
  1.9357885124879999  2.0391649622960002  8.4249006734480005
  4.5355190448719993  0.9603230000000000  7.5757028265519999
  2.0399460573599999  0.0963129622960000  6.1227202500000004
