Ba Zr O 
 1.0000000000000000
     0.0000000000000000    4.2110589999999997    0.0000000000000000
     2.1055290000000002   -2.1055290000000002   10.9733540000000005
     4.2110589999999997    0.0000000000000000    0.0000000000000000
 Ba  Zr  O  
   3   2   7
Cartesian
  0.0000000000000000  0.0000000000000000  0.0000000000000000
  2.1055291858940000  2.1055298141059993  6.8935926630480004
  4.2110588141059999  0.0000001858939998  4.0797613369520001
  2.1055294029549998  2.1055295970449999  2.1298182778600001
  4.2110585970450005  0.0000004029549997  8.8435357221400004
  2.1055272983830000  0.0000022016169999  2.1088043049500000
  2.1055294999999998  2.1055294999999998  0.0000000000000000
  2.1055272019950002  2.1055317980049995  4.2242035956540001
  2.1055312016170000 -0.0000017016170003  8.8645496950500000
  4.2110567983829998  2.1055317016169997  2.1088043049500000
  4.2110607980049997 -0.0000017980050001  6.7491504043459996
  4.2110607016169999  2.1055277983829996  8.8645496950500000
