Ta Fe P 
 1.0000000000000000
     3.5671119999999998    0.0000000000000000    0.0000000000000000
     0.0000000000000000    6.0848959999999996    0.0000000000000000
     0.0000000000000000    0.0000000000000000    6.8771370000000003
 Ta  Fe  P  
   4   4   4
Cartesian
  0.8917780000000000  3.1682714794879998  2.2225256271120002
  0.8917780000000000  0.1258234794880000  1.2160428728880002
  2.6753339999999999  5.9590725205119996  5.6610941271120003
  2.6753339999999999  2.9166245205119998  4.6546113728879996
  2.6753339999999999  2.1855364359039999  0.4374821931180000
  0.8917780000000000  0.8569115640960000  3.8760506931179997
  2.6753339999999999  5.2279844359039993  3.0010863068820002
  0.8917780000000000  3.8993595640959997  6.4396548068820003
  0.8917780000000000  4.7352052182400000  4.2519343701270005
  0.8917780000000000  1.6927633031360001  6.0637711298730004
  2.6753339999999999  1.3496846968639999  2.6252026298729998
  2.6753339999999999  4.3921387817599991  0.8133658701270000
