Ba Zn Si
 1.0000000000000000
     4.3606109999999996    0.0000000000000000    0.0000000000000000
    -2.1803059999999999    3.7764009999999999    0.0000000000000000
     0.0000000000000000    0.0000000000000000    9.8643020000000003
 Ba  Zn  Si 
   2   2   2
Cartesian
  0.0000000000000000  0.0000000000000000  4.9321510000000002
  0.0000000000000000  0.0000000000000000  0.0000000000000000
 -0.0000025136390002  2.5176019254669999  7.3982264999999998
  2.1803075136389998  1.2587990745330000  2.4660755000000001
  2.1803075136389998  1.2587990745330000  7.3982264999999998
 -0.0000025136390002  2.5176019254669999  2.4660755000000001
