Y  Si Ru
 1.0000000000000000
     4.1880759999999997    0.0000000000000000    0.0000000000000000
     0.0000000000000000    4.1880759999999997    0.0000000000000000
     0.0000000000000000    0.0000000000000000    9.5959230000000009
 Y   Si  Ru 
   2   4   4
Cartesian
  0.0000000000000000  0.0000000000000000  0.0000000000000000
  2.0940379999999998  2.0940379999999998  4.7979615000000004
  2.0940379999999998  2.0940379999999998  8.3309500464480006
  2.0940379999999998  2.0940379999999998  1.2649729535520000
  0.0000000000000000  0.0000000000000000  3.5329885464480002
  0.0000000000000000  0.0000000000000000  6.0629344535520007
  0.0000000000000000  2.0940379999999998  7.1969422500000011
  2.0940379999999998  0.0000000000000000  7.1969422500000011
  2.0940379999999998  0.0000000000000000  2.3989807500000002
  0.0000000000000000  2.0940379999999998  2.3989807500000002
