Ni Sb S 
 1.0000000000000000
     5.9286979999999998    0.0000490000000000    0.0000480000000000
     0.0000490000000000    5.9286989999999999   -0.0000510000000000
     0.0000480000000000   -0.0000500000000000    5.9286979999999998
 Ni  Sb  S  
   4   4   4
Cartesian
  3.0623916315250002  2.8663538850000001  5.8307264015249993
  2.8663731762669999  5.8306065370829998  3.0624538592669999
  0.0980859844870000  0.0981258809550000  0.0980428288370000
  5.8306147069059993  3.0624223402640003  2.8662795536560002
  3.7220202576379999  5.1706324878789998  0.7576791882380000
  0.7581574555430000  3.7220058158320000  5.1710497310429995
  2.2066915676259997  2.2067325433390002  2.2062571268759998
  5.1708926486709998  0.7578591522490000  3.7222320244209999
  2.2576014585889999  0.7067526128030001  5.2219501091889997
  5.2219445065009999  2.2576324186220003  0.7068244469010000
  0.7068215251130000  5.2219196653510007  2.2575437845630000
  3.6711691523880003  3.6711446606239999  3.6711250167379998
