Rb As
 1.0000000000000000
     6.4318650000000002   -0.0341390000000000   -2.3703539999999998
    -1.6075320000000000    6.2278320000000003   -2.3703539999999998
     0.0159910000000000    0.0205310000000000    8.9141709999999996
 Rb  As 
   4   6
Cartesian
  4.4300112499999997  1.5416192500000001  2.0867315000000000
  0.4103127500000001  4.6726047500000005  2.0867315000000000
  0.5104632184440001  4.5781032161080004 -2.3703539999999998
  4.3138697815559999  1.6155897838920001 -2.3703539999999998
  3.3709633267070003  4.3277933359269998  4.2196392711410002
  4.1150779581560011  5.2831200358960011 -2.6460326861289998
  1.4693606732930000  1.8864306640730002 -0.0461762711409999
  0.7252460418440000  0.9311039641040000  6.8194956861289997
  4.0772366710960002  5.2345382631160007  2.1169727208490001
  0.7630873289040000  0.9796857368840001  2.0564902791510002
