Sr Ni Ge
 1.0000000000000000
     3.8862610000000002    0.0000000000000000   -1.4706720000000000
    -0.5565440000000000    3.8462019999999999   -1.4706720000000000
     0.0269950000000000    0.0311810000000000    5.9414020000000001
 Sr  Ni  Ge 
   1   2   2
Cartesian
  0.0000000000000000  0.0000000000000000  0.0000000000000000
  2.7890572499999999  0.9771409999999999  1.5000290000000001
  0.5676547500000001  2.9002420000000000  1.5000290000000001
  2.1487421088330003  2.4820412550750004 -0.1920133955619999
  1.2079698911669998  1.3953417449249998  3.1920713955619999
