Mn Sn Rh
 1.0000000000000000
     3.8343530000000001    0.0000000000000000    2.2137650000000000
     1.2781180000000001    3.6150639999999998    2.2137650000000000
     0.0000000000000000    0.0000000000000000    4.4275300000000000
 Mn  Sn  Rh 
   1   1   2
Cartesian
  0.0000000000000000  0.0000000000000000  0.0000000000000000
  2.5562355000000001  1.8075319999999999  4.4275300000000000
  1.2781177500000001  0.9037660000000000  2.2137650000000000
  3.8343532500000004  2.7112979999999998  6.6412949999999995
