Na Cu S  O 
 1.0000000000000000
     4.5773510000000002    0.0000000000000000    0.0000000000000000
     0.0000000000000000    4.5773510000000002    0.0000000000000000
     0.0000000000000000    0.0000000000000000    8.2072509999999994
 Na  Cu  S   O  
   5   1   1   2
Cartesian
  0.0000000000000000  0.0000000000000000  4.1036254999999997
  0.0000000000000000  2.2886755000000001  6.0671774727459988
  2.2886755000000001  0.0000000000000000  2.1400735272539997
  0.0000000000000000  2.2886755000000001  2.1400735272539997
  2.2886755000000001  0.0000000000000000  6.0671774727459988
  0.0000000000000000  0.0000000000000000  0.0000000000000000
  2.2886755000000001  2.2886755000000001  4.1036254999999997
  0.0000000000000000  0.0000000000000000  1.8102979748229997
  0.0000000000000000  0.0000000000000000  6.3969530251769990
