Ce Ni P 
 1.0000000000000000
     3.6704400000000001    0.0000000000000000   -1.4100630000000001
    -0.5416990000000000    3.6302469999999998   -1.4100630000000001
    -0.0184280000000000   -0.0213810000000000    5.4342050000000004
 Ce  Ni  P  
   1   2   2
Cartesian
  0.0000000000000000  0.0000000000000000  0.0000000000000000
  2.6081912500000004  0.8968712499999999  1.3070395000000001
  0.5021217499999999  2.7119947499999997  1.3070395000000001
  1.1552395807160001  1.3404135882220001  3.0071177722139999
  1.9550734192840000  2.2684524117780001 -0.3930387722140001
