Na Tl Ga F 
 1.0000000000000000
     0.0000000000000000    4.2833660000000000    4.2833660000000000
     4.2833660000000000    0.0000000000000000    4.2833660000000000
     4.2833660000000000    4.2833660000000000    0.0000000000000000
 Na  Tl  Ga  F  
   1   2   1   6
Cartesian
  4.2833660000000000  4.2833660000000000  4.2833660000000000
  2.1416830000000000  2.1416830000000000  2.1416830000000000
  6.4250489999999996  6.4250489999999996  6.4250489999999996
  0.0000000000000000  0.0000000000000000  0.0000000000000000
  6.6278149797080008  4.2833660000000000  4.2833660000000000
  4.2833660000000000  1.9389170202920001  4.2833660000000000
  4.2833660000000000  6.6278149797080008  4.2833660000000000
  4.2833660000000000  4.2833660000000000  6.6278149797080008
  4.2833660000000000  4.2833660000000000  1.9389170202920001
  1.9389170202920001  4.2833660000000000  4.2833660000000000
