Mg Zn
 1.0000000000000000
     5.1568110000000003    0.0000000000000000    0.0000000000000000
    -2.5784069999999999    4.4659300000000002    0.0000000000000000
     0.0000000000000000    0.0000000000000000    8.3728560000000005
 Mg  Zn 
   4   8
Cartesian
 -0.0000035784059999  2.9772881553100001  0.5210763203040000
  2.5784075784060003  1.4886418446900000  4.7075043203040003
  2.5784075784060003  1.4886418446900000  7.8517796796960004
 -0.0000035784059999  2.9772881553100001  3.6653516796960002
  0.0000000000000000  0.0000000000000000  0.0000000000000000
  0.0000000000000000  0.0000000000000000  4.1864280000000003
 -0.0000056661509997  1.5164511908000000  6.2796420000000008
  3.8435334231780001  0.7582211294700001  2.0932140000000001
  1.3132873811069998  0.7582211294700001  2.0932140000000001
  1.2651166188930005  3.7077088705299999  6.2796420000000008
 -1.2651294231779997  3.7077088705299999  6.2796420000000008
  2.5784096661509999  2.9494788092000004  2.0932140000000001
