Lu I 
 1.0000000000000000
    11.1254080000000002    0.0000810000000000   -0.0001120000000000
    -5.5626340000000001    9.6347120000000004    0.0000110000000000
    -0.0000400000000000   -0.0000190000000000    3.9153460000000000
 Lu  I  
   2   6
Cartesian
  0.0000778561340007  6.4231380257819994  2.9364951608430001
  5.5627117696260004  3.2115588962609998  0.9788203151850000
  0.0001147608979998  4.1559553764869994  0.9787818501390000
  1.9634402190580000  7.5569216856660004  0.9788205926130000
 -1.9634338535680000  7.5567100355860006  0.9787896492639999
  5.5627694316000005  5.4787319118910007  2.9364514027159996
  3.5991046505859994  2.0780642775310003  2.9364204929550000
  7.5262012291719991  2.0779290782929998  2.9364201129159997
