Er In Ag
 1.0000000000000000
     4.2250569999999996    0.0000000000000000    2.4393370000000001
     1.4083530000000000    3.9834220000000000    2.4393370000000001
     0.0000000000000000    0.0000000000000000    4.8786750000000003
 Er  In  Ag 
   1   1   2
Cartesian
  0.0000000000000000  0.0000000000000000  0.0000000000000000
  2.8167049999999998  1.9917110000000000  4.8786745000000007
  4.2250575000000001  2.9875664999999998  7.3180117500000001
  1.4083524999999999  0.9958555000000000  2.4393372500000003
