Ca P  Au
 1.0000000000000000
     4.2612500000000004    0.0000000000000000    0.0000000000000000
    -2.1306259999999999    3.6903519999999999    0.0000000000000000
     0.0000000000000000    0.0000000000000000    7.9501260000000000
 Ca  P   Au 
   2   2   2
Cartesian
  0.0000000000000000  0.0000000000000000  3.9750630000000000
  0.0000000000000000  0.0000000000000000  0.0000000000000000
  2.1306267972920003  1.2301161032160000  1.9875315000000000
 -0.0000027972919998  2.4602358967839999  5.9625944999999998
 -0.0000027972919998  2.4602358967839999  1.9875315000000000
  2.1306267972920003  1.2301161032160000  5.9625944999999998
