Ga Pt
 1.0000000000000000
     4.9218659999999996    0.0000000000000000    0.0000000000000000
     0.0000000000000000    4.9218659999999996    0.0000000000000000
     0.0000000000000000    0.0000000000000000    4.9218659999999996
 Ga  Pt 
   4   4
Cartesian
  0.4576252569480000  0.4576252569480000  0.4576252569480000
  2.0033077430519999  4.4642407430519997  2.9185582569479998
  4.4642407430519997  2.9185582569479998  2.0033077430519999
  2.9185582569479998  2.0033077430519999  4.4642407430519997
  1.9659606238439999  1.9659606238439999  1.9659606238439999
  0.4949723761560000  2.9559053761560001  4.4268936238439993
  2.9559053761560001  4.4268936238439993  0.4949723761560000
  4.4268936238439993  0.4949723761560000  2.9559053761560001
