As
 1.0000000000000000
     1.9115500000000001   -1.1036340000000000    3.5680670000000001
     0.0000000000000000    2.2072680000000000    3.5680670000000001
    -1.9115500000000001   -1.1036340000000000    3.5680670000000001
 As 
   2
Cartesian
  0.0000000000000000  0.0000000000000000  2.4295217967690004
  0.0000000000000001 -0.0000000000000001  8.2746792032310008
