Lu Al N 
 1.0000000000000000
     4.6031440000000003    0.0000000000000000    0.0000000000000000
     0.0000000000000000    4.6031440000000003    0.0000000000000000
     0.0000000000000000    0.0000000000000000    4.6031440000000003
 Lu  Al  N  
   3   1   1
Cartesian
  2.3015720000000002  2.3015720000000002  0.0000000000000000
  2.3015720000000002  0.0000000000000000  2.3015720000000002
  0.0000000000000000  2.3015720000000002  2.3015720000000002
  0.0000000000000000  0.0000000000000000  0.0000000000000000
  2.3015720000000002  2.3015720000000002  2.3015720000000002
