Hf Al
 1.0000000000000000
     5.5308380000000001    0.0000000000000000    0.0000000000000000
     0.0000000000000000   13.8199419999999993    0.0000000000000000
     0.0000000000000000    0.0000000000000000    9.5462690000000006
 Hf  Al 
  16  24
Cartesian
  2.7969226532480000  2.7234268702299995  8.9229549119140010
  2.7969226532480000  4.1865441297699997  5.3964485880859998
  1.4142131532480000  6.1784123702299993  7.7830158380860004
  4.1796321532479999  0.7315586297700000  1.7632531619140002
  2.7969226532480000  9.6333978702300005  4.1498204119139999
  2.7969226532480000 11.0965151297699993  0.6233140880860001
  1.4142131532480000 13.0883833702299999  3.0098813380860006
  4.1796321532479999  7.6415296297699991  6.5363876619140004
  0.0315036532480000  2.7234268702299995  4.1498204119139999
  0.0315036532480000  4.1865441297699997  0.6233140880860001
  4.1796321532479999  6.1784123702299993  3.0098813380860006
  1.4142131532480000  0.7315586297700000  6.5363876619140004
  0.0315036532480000  9.6333978702300005  8.9229549119140010
  0.0315036532480000 11.0965151297699993  5.3964485880859998
  4.1796321532479999 13.0883833702299999  7.7830158380860004
  1.4142131532480000  7.6415296297699991  1.7632531619140002
  0.6909288754740001  3.4549854999999998  7.1597017500000000
  4.8390573754739998  0.0000000000000000  4.7731345000000003
  2.7479581444340000  1.5782650162840000  4.1277685305240004
  2.7479581444340000  5.3317059837159997  0.6453659694760000
  4.1306676444340003  5.0332505162840002  7.8050677194760008
  4.1306676444340003  1.8767204837159999  6.5143357805240001
  0.6909288754740001 10.3649564999999999  2.3865672500000001
  4.8390573754739998  6.9099709999999996  0.0000000000000000
  2.7479581444340000  8.4882360162840005  8.9009030305240007
  2.7479581444340000 12.2416769837159993  5.4185004694760002
  4.1306676444340003 11.9432215162839999  3.0319332194760000
  4.1306676444340003  8.7866914837160000  1.7412012805240000
  3.4563478754740000  3.4549854999999998  2.3865672500000001
  2.0736383754740002  0.0000000000000000  0.0000000000000000
  5.5133771444340001  1.5782650162840000  8.9009030305240007
  5.5133771444340001  5.3317059837159997  5.4185004694760002
  1.3652486444340002  5.0332505162840002  3.0319332194760000
  1.3652486444340002  1.8767204837159999  1.7412012805240000
  3.4563478754740000 10.3649564999999999  7.1597017500000000
  2.0736383754740002  6.9099709999999996  4.7731345000000003
  5.5133771444340001  8.4882360162840005  4.1277685305240004
  5.5133771444340001 12.2416769837159993  0.6453659694760000
  1.3652486444340002 11.9432215162839999  7.8050677194760008
  1.3652486444340002  8.7866914837160000  6.5143357805240001
