Rb Pt Se
 1.0000000000000000
     6.6123360000000000    0.0124600000000000    4.6374700000000004
     2.4185439999999998    6.1541689999999996    4.6374700000000004
     0.0182480000000000    0.0124600000000000    8.0764329999999998
 Rb  Pt  Se 
   2   4   6
Cartesian
  7.2422795631119987  4.9453041202809986 13.8868070017169991
  1.8068484368879998  1.2337848797189999  3.4645659982829997
  0.0000000000000000  0.0000000000000000  0.0000000000000000
  4.5154399999999999  3.0833144999999997  4.6374700000000004
  1.2183959999999998  3.0833144999999997  6.3569515000000001
  3.3152919999999999  0.0124600000000000  6.3569515000000001
  6.9457154788479993  4.7427990855909998  9.3995368238480008
  5.7760440371600001  1.7499258647639997 11.0753538106369991
  3.7323966141839997  4.7427990855909989 11.0753538106369991
  3.2730839628399999  4.4291631352359992  6.2760191893629997
  2.1034125211519998  1.4362899144090000  7.9518361761519998
  5.3167313858159995  1.4362899144090000  6.2760191893629997
