Zn Cu
 1.0000000000000000
     5.3767800000000001    0.0000000000000000    0.0000000000000000
    -2.6883900000000001    4.6565979999999998    0.0000000000000000
     0.0000000000000000    0.0000000000000000    4.2190360000000000
 Zn  Cu 
   6   2
Cartesian
  0.0000080651699999  1.5807241004820001  1.0547590000000000
  1.3194940726800000  3.8662243082640000  1.0547590000000000
 -1.3194860075100001  3.8662289648620001  1.0547590000000000
  2.6883953767799995  3.0758692429200001  3.1642727809639997
  1.3689120576600000  0.7903643785400000  3.1642727809639997
  4.0078813842900001  0.7903690351379999  3.1642727809639997
 -0.0000134419500001  3.1044002188660000  3.1642727809639997
  2.6883738696600004  1.5521931245360001  1.0547590000000000
