Tm Ni C 
 1.0000000000000000
     3.4936989999999999    0.0000000000000000    0.0000000000000000
     0.0000000000000000    3.5654539999999999   -1.0399600000000000
     0.0000000000000000    0.0126590000000000    3.7140029999999999
 Tm  Ni  C  
   1   1   2
Cartesian
  0.0000000000000000  0.0243832235000000  3.6983149221000002
  1.7468494999999999  2.1906573412099997  0.7996430304059999
  1.7468494999999999  1.6382430975879998  2.6851629146280001
  1.7468494999999999  0.5388607221120000  1.8635578547920000
