Cs Pd S 
 1.0000000000000000
     6.0885290000000003   -0.0017440000000000   -1.2951500000000000
    -3.3442059999999998    5.0908340000000001   -1.2961119999999999
     0.0198600000000000    0.0375310000000000    7.8603129999999997
 Cs  Pd  S  
   2   3   4
Cartesian
  0.4456368615580001  0.8266505857640000  2.1014667389860002
  2.3185461384420001  4.2999704142360002  3.1675842610139999
  1.3721615000000003  2.5445449999999998 -1.2956310000000000
 -1.6721029999999999  2.5454170000000000 -0.6480560000000000
  3.0442645000000002 -0.0008720000000000 -0.6475750000000000
 -0.4867843133289997  2.8932738177499999  5.1780910296960005
  2.6830614528000005  1.1806812379500000  5.1789054044500000
  3.2509673133290007  2.2333471822500002  0.0909599703039999
  0.0811215472000002  3.9459397620500005  0.0901455955500000
