Ca Ni N 
 1.0000000000000000
     3.5365790000000001    0.0000000000000000    0.0000000000000000
     0.0000000000000000    3.5365790000000001    0.0000000000000000
     0.0000000000000000    0.0000000000000000    7.0467009999999997
 Ca  Ni  N  
   2   2   2
Cartesian
  0.0000000000000000  0.0000000000000000  5.2850257500000000
  0.0000000000000000  0.0000000000000000  1.7616752499999999
  1.7682895000000001  1.7682895000000001  0.0000000000000000
  1.7682895000000001  1.7682895000000001  3.5233504999999998
  1.7682895000000001  0.0000000000000000  3.5233504999999998
  0.0000000000000000  1.7682895000000001  0.0000000000000000
