Sr Si Pt
 1.0000000000000000
     6.5128040000000000    0.0000000000000000    0.0000000000000000
     0.0000000000000000    6.5128040000000000    0.0000000000000000
     0.0000000000000000    0.0000000000000000    6.5128040000000000
 Sr  Si  Pt 
   4   4   4
Cartesian
  0.8582638239240000  0.8582638239240000  0.8582638239240000
  5.6545401760759999  4.1146658239240006  2.3981381760760003
  2.3981381760760003  5.6545401760759999  4.1146658239240006
  4.1146658239240006  2.3981381760760003  5.6545401760759999
  2.2226506722960000  4.2901533277040000  1.0337513277040000
  4.2901533277040000  1.0337513277040000  2.2226506722960000
  1.0337513277040000  2.2226506722960000  4.2901533277040000
  5.4790526722959996  5.4790526722959996  5.4790526722959996
  3.8317431053599997  5.9374628946400003  0.5753411053600000
  2.6810608946400003  2.6810608946400003  2.6810608946400003
  5.9374628946400003  0.5753411053600000  3.8317431053599997
  0.5753411053600000  3.8317431053599997  5.9374628946400003
