Sr Al N 
 1.0000000000000000
     5.9114860000000000    0.0000000000000000    0.0000000000000000
     0.0000000000000000    9.5861990000000006    0.0000000000000000
     0.0000000000000000    0.0000000000000000    9.9918110000000002
 Sr  Al  N  
  12   8  16
Cartesian
  1.4778715000000000  5.6978833064160002  4.9959055000000001
  1.4778715000000000  8.6814151935839998  0.0000000000000000
  4.4336145000000000  3.8883156935840000  4.9959055000000001
  4.4336145000000000  0.9047838064160000  0.0000000000000000
  2.2666942803539998  5.6105913783219998  1.5469721462640000
  2.2666942803539998  8.7687071216780001  3.4489333537359999
  0.6890487196460000  5.6105913783219998  8.4448388537360000
  0.6890487196460000  8.7687071216780001  6.5428776462639995
  3.6447917196460002  3.9756076216779999  8.4448388537360000
  3.6447917196460002  0.8174918783220001  6.5428776462639995
  5.2224372803539998  3.9756076216779999  1.5469721462640000
  5.2224372803539998  0.8174918783220001  3.4489333537359999
  4.9043756876100000  7.1896492500000004  2.4979527500000001
  3.9628533123900000  7.1896492500000004  7.4938582500000006
  1.0071103123900000  2.3965497500000001  7.4938582500000006
  1.9486326876100000  2.3965497500000001  2.4979527500000001
  1.4778715000000000  2.2093888007240001  0.0000000000000000
  4.4336145000000000  7.0024883007240009  4.9959055000000001
  4.4336145000000000  7.3768101992760000  0.0000000000000000
  1.4778715000000000  2.5837106992760002  4.9959055000000001
  2.8292490225720002  1.6309000358700001  4.0202451230940000
  2.8292490225720002  3.1621994641300000  0.9756603769059999
  0.1264939774280000  1.6309000358700001  5.9715658769060003
  0.1264939774280000  3.1621994641300000  9.0161506230940009
  3.0822369774280003  7.9552989641300007  5.9715658769060003
  3.0822369774280003  6.4239995358700002  9.0161506230940009
  5.7849920225720002  7.9552989641300007  4.0202451230940000
  5.7849920225720002  6.4239995358700002  0.9756603769059999
  0.7769288705219999  3.5558087950699999  3.5402085472209999
  0.7769288705219999  1.2372907049299999  1.4556969527790002
  2.1788141294779999  3.5558087950699999  6.4516024527789995
  2.1788141294779999  1.2372907049299999  8.5361140472210000
  5.1345571294779999  8.3489082950700002  8.5361140472210000
  3.7326718705219997  6.0303902049300007  3.5402085472209999
  3.7326718705219997  8.3489082950700002  1.4556969527790002
  5.1345571294779999  6.0303902049300007  6.4516024527789995
