Na Rh O 
 1.0000000000000000
     2.9572219999999998   -0.0200800000000000    4.5187379999999999
     1.3322250000000000    2.6402169999999998    4.5187379999999999
    -0.0328720000000000   -0.0200800000000000    5.4002850000000002
 Na  Rh  O  
   1   1   2
Cartesian
  0.0000000000000000  0.0000000000000000  0.0000000000000000
  2.1282874999999999  1.3000284999999998  7.2188805000000000
  3.2601831542749995  1.9914278572689996 11.0581265918369986
  0.9963918457250001  0.6086291427309999  3.3796344081630005
