Na Cu As
 1.0000000000000000
     5.2647370000000002    0.0000000000000000    0.0000000000000000
     0.0000000000000000    5.5324479999999996   -1.1469320000000001
     0.0000000000000000   -0.0064260000000000    5.6500779999999997
 Na  Cu  As 
   4   2   2
Cartesian
  1.3161842500000001  0.1545463548380000  3.8073513909739995
  3.9485527500000002  5.3714756451619996  0.6957946090259998
  3.9485527500000002  1.7658625317519998  5.1204102236760001
  1.3161842500000001  3.7601594682479997 -0.6172642236760001
  2.6323685000000001  2.7630109999999997  2.2515729999999996
  0.0000000000000000  2.7630109999999997  2.2515729999999996
  1.3161842500000001  1.2806666505440001  1.0436130917919999
  3.9485527500000002  4.2453553494560001  3.4595329082079997
