Li Cu As
 1.0000000000000000
     4.1482080000000003    0.0000000000000000    0.0000000000000000
    -2.0741040000000002    3.5924540000000000    0.0000000000000000
     0.0000000000000000    0.0000000000000000    7.8898440000000001
 Li  Cu  As 
   4   2   2
Cartesian
  2.0741060741040003  1.1974834691820000  3.2647306589160001
 -0.0000020741040001  2.3949705308180000  7.2096526589160002
  2.0741060741040003  1.1974834691820000  0.6801913410839999
 -0.0000020741040001  2.3949705308180000  4.6251133410840000
  0.0000000000000000  0.0000000000000000  5.9173830000000001
  0.0000000000000000  0.0000000000000000  1.9724610000000000
 -0.0000020741040001  2.3949705308180000  1.9724610000000000
  2.0741060741040003  1.1974834691820000  5.9173830000000001
