Ge Te
 1.0000000000000000
     2.1143980000000000   -1.2207479999999999    3.6308970000000000
     0.0000000000000000    2.4414959999999999    3.6308970000000000
    -2.1143980000000000   -1.2207479999999999    3.6308970000000000
 Ge  Te 
   1   1
Cartesian
 -0.0000000000000001  0.0000000000000000 10.8394366337010002
 -0.0000000000000000  0.0000000000000001  5.7283463772990002
