Li Fe As
 1.0000000000000000
     3.6726649999999998    0.0000000000000000    0.0000000000000000
     0.0000000000000000    3.6726649999999998    0.0000000000000000
     0.0000000000000000    0.0000000000000000    6.5766619999999998
 Li  Fe  As 
   2   2   2
Cartesian
  0.9181662500000000  0.9181662500000000  5.5471907904920004
  2.7544987499999998  2.7544987499999998  1.0294712095080001
  2.7544987499999998  0.9181662500000000  3.2883309999999999
  0.9181662500000000  2.7544987499999998  3.2883309999999999
  0.9181662500000000  0.9181662500000000  1.6386739872300000
  2.7544987499999998  2.7544987499999998  4.9379880127700000
