Ca Mn Si
 1.0000000000000000
     3.9416609999999999    0.0000000000000000    0.0000000000000000
     0.0000000000000000    3.9416609999999999    0.0000000000000000
     0.0000000000000000    0.0000000000000000    7.7315300000000002
 Ca  Mn  Si 
   2   2   2
Cartesian
  1.9708304999999999  0.0000000000000000  2.5162573646200004
  0.0000000000000000  1.9708304999999999  5.2152726353799999
  0.0000000000000000  0.0000000000000000  0.0000000000000000
  1.9708304999999999  1.9708304999999999  0.0000000000000000
  0.0000000000000000  1.9708304999999999  1.3669267724700001
  1.9708304999999999  0.0000000000000000  6.3646032275300000
