In Hg Se
 1.0000000000000000
     5.4372470000000002    0.0000130000000000   -2.3864670000000001
    -1.0474540000000001    5.3354059999999999   -2.3864559999999999
    -0.0822420000000000   -0.0999740000000000    7.1998759999999997
 In  Hg  Se 
   2   1   4
Cartesian
  0.5326002500000000  3.9515707500000001  1.2134792499999998
  2.1948965000000000  2.6677095000000000 -2.3864615000000002
  0.0000000000000000  0.0000000000000000  0.0000000000000000
  3.7258091648950002  4.7742019678689998 -2.2297452447169999
  3.1969412831430000  0.6596998041730000  3.4029944665490000
 -0.1318059998900001  3.0656943104660002  3.5805263206619999
  1.8241510671510002  1.9712992528849997  0.1001304575170001
