Ca Ag
 1.0000000000000000
     4.2799959999999997    0.0000000000000000    1.8364339999999999
     1.8818880000000000    5.4336460000000004    1.5197670000000001
    -0.0179950000000000    0.0313590000000000    5.9476370000000003
 Ca  Ag 
   2   4
Cartesian
  4.6341592514689998  1.6191552863850003  3.9638693986900000
  1.5097297485309999  3.8458497136149998  5.3399686013099998
  3.3565931234799997  1.5917725076260001  6.9413600187130005
  2.7872958765200000  3.8732324923740000  2.3624779812870003
  1.6445371507330002  0.6238162870310000  5.0257930797170003
  4.4993518492669997  4.8411887129690001  4.2780449202829995
