Zr In
 1.0000000000000000
     4.4669309999999998    0.0000000000000000    0.0000000000000000
     0.0000000000000000    4.4669309999999998    0.0000000000000000
     0.0000000000000000    0.0000000000000000    4.4669309999999998
 Zr  In 
   3   1
Cartesian
  2.2334654999999999  0.0000000000000000  2.2334654999999999
  0.0000000000000000  2.2334654999999999  2.2334654999999999
  2.2334654999999999  2.2334654999999999  0.0000000000000000
  0.0000000000000000  0.0000000000000000  0.0000000000000000
