Sn Pt
 1.0000000000000000
     4.4244859999999999    0.0000000000000000    0.0000000000000000
    -2.2122419999999998    3.8317169999999998    0.0000000000000000
     0.0000000000000000    0.0000000000000000   13.1891909999999992
 Sn  Pt 
   6   4
Cartesian
  2.2122455455760002  1.2772377227609999 12.2483928167789990
 -0.0000015455759999  2.5544792772389999  0.9407981832210001
  2.2122455455760002  1.2772377227609999  7.5353936832209998
 -0.0000015455759999  2.5544792772389999  5.6537973167790003
  0.0000000000000000  0.0000000000000000  9.8918932499999990
  0.0000000000000000  0.0000000000000000  3.2972977499999998
 -0.0000015455759999  2.5544792772389999 11.2996943081490002
  2.2122455455760002  1.2772377227609999  4.7050988081489997
 -0.0000015455759999  2.5544792772389999  8.4840921918509995
  2.2122455455760002  1.2772377227609999  1.8894966918509999
