Na Cd Sn S 
 1.0000000000000000
     5.3996909999999998    4.5341480000000001    0.0127810000000000
    -5.3996909999999998    4.5341480000000001    0.0127810000000000
     0.0000000000000000    4.5207280000000001    4.5490839999999997
 Na  Cd  Sn  S  
   2   1   1   4
Cartesian
  0.1544959588920001  6.7945120000000001  2.2873229999999998
  2.8517712059759996  4.5341480000000001  0.0127810000000000
 -5.2482728649780004  6.7945120000000001  2.2873229999999998
 -2.5468506552059997  4.5341480000000001  0.0127810000000000
  1.5277129758660002 11.5598778308159993  4.4575771565239997
 -1.2232298000670001  9.1708577196999990  2.5320070311409997
 -1.2232298000669999  4.4181662803000004  2.0426389688589999
  1.5277129758660000  2.0291461691840000  0.1170688434760000
