Nb Al O 
 1.0000000000000000
     3.7860339999999999    0.0000000000000000    0.0000000000000000
    -1.8930169999999999    5.8086260000000003   -1.8341780000000001
     0.0000000000000000   -0.0282480000000000    6.5123689999999996
 Nb  Al  O  
   2   2   8
Cartesian
 -0.0000018930170000  1.2122533884700002  1.1633717437150000
  1.8930188930169998  4.5681246115300000  3.5148192562849996
  1.8930169999999999  3.4522356961040006  0.0477510429379999
 -0.0000000000000000  2.3281423038960005  4.6304399570620003
  0.0000000000000000  4.1115613015279999  3.8835384161909996
  1.8930170000000004  1.6688166984719999  0.7946525838089999
  1.8930188930169998  2.7227731762419998  4.7281355738989994
 -0.0000018930169998  3.0576048237580000 -0.0499445738990001
  1.8930188930170000  4.1574918980900009  1.7476619082049996
 -0.0000018930170001  1.6228861019100003  2.9305290917950000
  1.8930132139659999  5.1287582784760000 -0.7281868365280001
  0.0000037860340000  0.6516197215239999  5.4063778365279997
