Li Al Cu
 1.0000000000000000
     0.0000000000000000    2.9129600000000000    2.9129600000000000
     2.9129600000000000    0.0000000000000000    2.9129600000000000
     2.9129600000000000    2.9129600000000000    0.0000000000000000
 Li  Al  Cu 
   1   1   2
Cartesian
  4.3694458259199997  4.3694458259199997  4.3694458259199997
  1.4564858259199998  1.4564858259199998  1.4564858259199998
  2.9129600000000000  2.9129600000000000  2.9129600000000000
  0.0000000000000000  0.0000000000000000  0.0000000000000000
