Zr Sn C 
 1.0000000000000000
     3.3771380000000000   -0.0000000000000000    0.0000000000000000
    -1.6885699999999999    2.9246859999999999    0.0000000000000000
     0.0000000000000000    0.0000000000000000   14.6549960000000006
 Zr  Sn  C  
   4   2   2
Cartesian
 -0.0000023552360000  1.9497916415620000  1.2441651954120001
 -0.0000023552360000  1.9497916415620000  6.0833328045880002
  1.6885703552359999  0.9748943584380000  8.5716631954120004
  1.6885703552359999  0.9748943584380000 13.4108308045880005
 -0.0000023552360000  1.9497916415620000 10.9912470000000013
  1.6885703552359999  0.9748943584380000  3.6637490000000001
  0.0000000000000000  0.0000000000000000  0.0000000000000000
  0.0000000000000000  0.0000000000000000  7.3274980000000003
