Ba Si
 1.0000000000000000
     4.1494080000000002    0.0000000000000000    0.0000000000000000
     0.0000000000000000    4.6758280000000001   -1.9708330000000001
     0.0000000000000000    0.0168560000000000    6.5721390000000000
 Ba  Si 
   2   2
Cartesian
  1.0373520000000001  4.0328444623640003  3.0358215692460000
  3.1120559999999999  0.6598395376360000  1.5654844307539999
  1.0373520000000001  2.6070312273640006 -0.3469389045040002
  3.1120559999999999  2.0856527726360001  4.9482449045040005
