Pm Cd In
 1.0000000000000000
     0.0000020000000000    3.8347210000000000    3.8347300000000000
     3.8347289999999998    0.0000020000000000    3.8347300000000000
     3.8347310000000001    3.8347220000000002    0.0000010000000000
 Pm  Cd  In 
   2   1   1
Cartesian
  3.8347309999999997  3.8347224999999998  3.8347305000000000
  0.0000000000000000  0.0000000000000000  0.0000000000000000
  1.9173654999999998  1.9173612499999999  1.9173652500000000
  5.7520964999999995  5.7520837500000006  5.7520957499999996
