Ga Rh
 1.0000000000000000
     3.0061860000000000    0.0000000000000000    0.0000000000000000
     0.0000000000000000    3.0061860000000000    0.0000000000000000
     0.0000000000000000    0.0000000000000000    3.0061860000000000
 Ga  Rh 
   1   1
Cartesian
  0.0000000000000000  0.0000000000000000  0.0000000000000000
  1.5030930000000000  1.5030930000000000  1.5030930000000000
