Ho Co B 
 1.0000000000000000
     3.3198400000000001    0.0006570000000000   -1.1900059999999999
    -0.4258300000000000    3.2924220000000002   -1.1900100000000000
     0.0145080000000000    0.0165030000000000    5.2669069999999998
 Ho  Co  B  
   1   2   2
Cartesian
  0.0000000000000000  0.0000000000000000  0.0000000000000000
  0.5179646812800001  2.4776269141770002  1.4434433101219999
  2.3905533187200008  0.8319550858229999  1.4434476898780000
  1.0179151179540002  1.1582764599930002  2.8386229965699998
  1.8906028820460004  2.1513055400070002  0.0482680034300000
