Ca Si Ir
 1.0000000000000000
     9.5990020000000005    0.0000000000000000   -1.7637100000000001
     0.0000000000000000    5.8651489999999997    0.0000000000000000
    -0.0021890000000000    0.0000000000000000    7.3324550000000004
 Ca  Si  Ir 
   8   4   8
Cartesian
  1.4015912642540000  5.0979757805019998  0.7626696629499999
  8.1963162357460000  5.0979757805019998  1.1398478370500003
  8.1952217357460011  0.7671732194980000  4.8060753370500002
  1.4004967642540000  0.7671732194980000  4.4288971629500002
  6.2010922642540010  2.1654012805020000 -0.1191853370500002
  3.3968152357460002  2.1654012805020000  2.0217028370500003
  3.3957207357460000  3.6997477194979997  5.6879303370500001
  6.1999977642540012  3.6997477194979997  3.5470421629500000
 -0.0016417500000000  3.3109059362450002  5.4993412500000005
 -0.0005472500000000  2.5542430637550000  1.8331137500000001
  4.7978592500000001  0.3783314362450000  4.6174862500000007
  4.7989537499999999  5.4868175637549994  0.9512587500000000
  8.3247176998000008  3.7683465022019997  5.7286592745200009
  1.2710008002000002  3.7683465022019997  3.5063132254800000
  1.2720953002000002  2.0968024977980000 -0.1599142745200000
  8.3258121997999996  2.0968024977980000  2.0624317745199998
  3.5252166998000001  0.8357720022020000  6.6105142745200007
  6.0705018002000006  0.8357720022020000  2.6244582254799997
  6.0715963002000004  5.0293769977979998 -1.0417692745200000
  3.5263111998000003  5.0293769977979998  2.9442867745200001
