Yb Zn Ga
 1.0000000000000000
     0.0000000000000000    3.4767540000000001    3.4767540000000001
     3.4767540000000001    0.0000000000000000    3.4767540000000001
     3.4767540000000001    3.4767540000000001    0.0000000000000000
 Yb  Zn  Ga 
   2   1   1
Cartesian
  1.7383770000000001  1.7383770000000001  1.7383770000000001
  5.2151310000000004  5.2151310000000004  5.2151310000000004
  0.0000000000000000  0.0000000000000000  0.0000000000000000
  3.4767540000000001  3.4767540000000001  3.4767540000000001
