Ba F 
 1.0000000000000000
     6.2794140000000001    0.0000000000000000    0.0000000000000000
     0.0000000000000000    6.2794140000000001    0.0000000000000000
     0.0000000000000000    0.0000000000000000    6.2794140000000001
 Ba  F  
   4   8
Cartesian
  0.0000000000000000  0.0000000000000000  0.0000000000000000
  0.0000000000000000  3.1397070000000000  3.1397070000000000
  3.1397070000000000  0.0000000000000000  3.1397070000000000
  3.1397070000000000  3.1397070000000000  0.0000000000000000
  4.7095605000000003  1.5698535000000000  4.7095605000000003
  4.7095605000000003  1.5698535000000000  1.5698535000000000
  4.7095605000000003  4.7095605000000003  1.5698535000000000
  4.7095605000000003  4.7095605000000003  4.7095605000000003
  1.5698535000000000  1.5698535000000000  1.5698535000000000
  1.5698535000000000  1.5698535000000000  4.7095605000000003
  1.5698535000000000  4.7095605000000003  4.7095605000000003
  1.5698535000000000  4.7095605000000003  1.5698535000000000
