Fe Si
 1.0000000000000000
     4.4505879999999998    0.0000000000000000    0.0000000000000000
     0.0000000000000000    4.4505879999999998    0.0000000000000000
     0.0000000000000000    0.0000000000000000    4.4505879999999998
 Fe  Si 
   4   4
Cartesian
  3.8442042861759997  2.8316777138239999  1.6189102861760001
  2.8316777138239999  1.6189102861760001  3.8442042861759997
  1.6189102861760001  3.8442042861759997  2.8316777138239999
  0.6063837138240000  0.6063837138240000  0.6063837138240000
  0.7083689378440000  1.5169250621560000  2.9336629378440002
  1.5169250621560000  2.9336629378440002  0.7083689378440000
  2.9336629378440002  0.7083689378440000  1.5169250621560000
  3.7422190621559994  3.7422190621559994  3.7422190621559994
