Si W 
 1.0000000000000000
     3.2319740000000001    0.0000000000000000    0.0000000000000000
     0.0000000000000000    3.2319740000000001    0.0000000000000000
     0.0000000000000000    0.0000000000000000    7.8707000000000003
 Si  W  
   4   2
Cartesian
  1.6159870000000001  1.6159870000000001  6.5688783493000003
  1.6159870000000001  1.6159870000000001  1.3018216507000000
  0.0000000000000000  0.0000000000000000  2.6335283493000001
  0.0000000000000000  0.0000000000000000  5.2371716507000006
  0.0000000000000000  0.0000000000000000  0.0000000000000000
  1.6159870000000001  1.6159870000000001  3.9353500000000001
