Li O 
 1.0000000000000000
     4.6514840000000000    0.0000000000000000    0.0000000000000000
     0.0000000000000000    4.6514840000000000    0.0000000000000000
     0.0000000000000000    0.0000000000000000    4.6514840000000000
 Li  O  
   8   4
Cartesian
  1.1628710000000000  3.4886130000000000  3.4886130000000000
  3.4886130000000000  1.1628710000000000  1.1628710000000000
  1.1628710000000000  1.1628710000000000  1.1628710000000000
  3.4886130000000000  3.4886130000000000  3.4886130000000000
  3.4886130000000000  3.4886130000000000  1.1628710000000000
  1.1628710000000000  1.1628710000000000  3.4886130000000000
  3.4886130000000000  1.1628710000000000  3.4886130000000000
  1.1628710000000000  3.4886130000000000  1.1628710000000000
  0.0000000000000000  0.0000000000000000  0.0000000000000000
  0.0000000000000000  2.3257420000000000  2.3257420000000000
  2.3257420000000000  0.0000000000000000  2.3257420000000000
  2.3257420000000000  2.3257420000000000  0.0000000000000000
