Ti Sn Pd
 1.0000000000000000
     3.7817430000000001    0.0000010000000000    2.1833909999999999
     1.2605820000000001    3.5654569999999999    2.1833920000000000
     0.0000000000000000    0.0000010000000000    4.3667819999999997
 Ti  Sn  Pd 
   1   1   1
Cartesian
  2.5211625000000000  1.7827295000000001  4.3667824999999993
  0.0000000000000000  0.0000000000000000  0.0000000000000000
  1.2605812500000000  0.8913647500000000  2.1833912499999997
