Hf Si Pt
 1.0000000000000000
     3.9083670000000001    0.0000000000000000    0.0000000000000000
     0.0000000000000000    6.5961619999999996    0.0000000000000000
     0.0000000000000000    0.0000000000000000    7.5759509999999999
 Hf  Si  Pt 
   4   4   4
Cartesian
  2.9312752500000001  3.1291796758279995  5.1302446184249995
  0.9770917500000000  0.1689013241720000  1.3422691184250000
  2.9312752500000001  6.4272606758279993  6.2336818815750004
  0.9770917500000000  3.4669823241720001  2.4457063815750000
  0.9770917500000000  1.7177857003639998  6.6479651860589994
  0.9770917500000000  5.0158667003639996  4.7159613139410004
  2.9312752500000001  4.8783762996359998  0.9279858139410000
  2.9312752500000001  1.5802952996360000  2.8599896860589999
  0.9770917500000000  4.2599795159739999  7.0804080450900004
  0.9770917500000000  0.9618985159740000  4.2835184549099994
  2.9312752500000001  5.6342634840259995  3.2924325450899996
  2.9312752500000001  2.3361824840260002  0.4955429549099999
