Li Tl Pd
 1.0000000000000000
    -2.0763259999999999    2.0763259999999999    3.7577410000000002
     2.0763259999999999   -2.0763259999999999    3.7577410000000002
     2.0763259999999999    2.0763259999999999   -3.7577410000000002
 Li  Tl  Pd 
   1   1   2
Cartesian
  0.0000000000000000  0.0000000000000000  3.7577410000000002
  0.0000000000000000  0.0000000000000000  0.0000000000000000
  0.0000000000000000  2.0763259999999999  1.8788705000000001
  2.0763259999999999  0.0000000000000000  1.8788705000000001
