Hf C 
 1.0000000000000000
     4.6496529999999998    0.0000000000000000    0.0000000000000000
     0.0000000000000000    4.6496529999999998    0.0000000000000000
     0.0000000000000000    0.0000000000000000    4.6496529999999998
 Hf  C  
   4   4
Cartesian
  0.0000000000000000  0.0000000000000000  0.0000000000000000
  0.0000000000000000  2.3248264999999999  2.3248264999999999
  2.3248264999999999  0.0000000000000000  2.3248264999999999
  2.3248264999999999  2.3248264999999999  0.0000000000000000
  0.0000000000000000  0.0000000000000000  2.3248264999999999
  0.0000000000000000  2.3248264999999999  0.0000000000000000
  2.3248264999999999  0.0000000000000000  0.0000000000000000
  2.3248264999999999  2.3248264999999999  2.3248264999999999
