Nd Sn Rh
 1.0000000000000000
     7.4440220000000004    0.0000000000000000    0.0000000000000000
    -3.7220110000000002    6.4467119999999998    0.0000000000000000
     0.0000000000000000    0.0000000000000000    4.1739129999999998
 Nd  Sn  Rh 
   3   3   3
Cartesian
 -2.1832795444460005  3.7815510052320001  0.0000000000000000
  1.5387314555540001  2.6651609947679997  0.0000000000000000
  4.3665590888920010  0.0000000000000000  0.0000000000000000
  2.7952898131760002  4.8415838593920002  2.0869564999999999
 -0.9267211868240001  1.6051281406080000  2.0869564999999999
  1.8534423736480001  0.0000000000000000  2.0869564999999999
  0.0000000000000000  0.0000000000000000  0.0000000000000000
  3.7220147220110005  2.1489018510959998  2.0869564999999999
 -0.0000037220110002  4.2978101489039995  2.0869564999999999
