Tm
 1.0000000000000000
     3.5643199999999999    0.0000000000000000    0.0000000000000000
    -1.7821600000000000    3.0867909999999998    0.0000000000000000
     0.0000000000000000    0.0000000000000000    5.4895730000000000
 Tm 
   2
Cartesian
 -0.0000017821600000  2.0578616955969999  1.3723932500000000
  1.7821617821600002  1.0289293044029999  4.1171797500000000
