Yb N 
 1.0000000000000000
     5.8489810000000002   -2.8929079999999998    0.1506970000000000
     5.8489810000000002    2.8929079999999998    0.1506970000000000
     4.2954119999999998    0.0000000000000000    4.9144319999999997
 Yb  N  
   6   4
Cartesian
  9.3435673231980001 -1.9548594377359998  2.9993326836300001
  8.7975126768020004  0.9380485622640000  4.6737093163699992
  9.8473244999999991  1.0168108754719996  1.4546534999999998
  6.1460495000000002 -1.0168108754720000  3.7611724999999998
  7.1958613231979998 -0.9380485622639998  0.5421166836300000
  6.6498066768020001  1.9548594377359998  2.2164933163699998
 13.3953623473180006 -0.0000000000000001  4.3685515770820000
 10.5946986526820002  0.0000000000000001  3.4551874229179997
  5.3986753473180000  0.0000000000000000  1.7606385770819999
  2.5980116526820001 -0.0000000000000000  0.8472744229179999
