Li Cu Ge
 1.0000000000000000
     4.1663899999999998    0.0000000000000000    0.0000000000000000
     2.0831960000000000    3.6082000000000001    0.0000000000000000
     2.0831960000000000    1.2027340000000000    3.4018440000000001
 Li  Cu  Ge 
   2   1   1
Cartesian
  2.0831955000000000  1.2027334999999999  0.8504610000000000
  4.1663910000000000  2.4054669999999998  1.7009220000000000
  6.2495864999999995  3.6082005000000001  2.5513830000000000
  0.0000000000000000  0.0000000000000000  0.0000000000000000
