Zr V  Ge
 1.0000000000000000
     3.6227920000000000    0.0000000000000000   -0.9086959999999999
    -0.2279260000000000    3.6156139999999999   -0.9086959999999999
     0.0133240000000000    0.0141910000000000    7.7291470000000002
 Zr  V   Ge 
   2   2   2
Cartesian
  2.3003585110240001  2.4499373991360001  1.4950491868320004
  1.1078314889760001  1.1798676008640001  4.4167058131680008
 -0.1139630000000000  1.8078069999999999 -0.4543480000000000
  1.8113960000000000  0.0000000000000000 -0.4543480000000000
  0.4329891352140000  0.4611440072310000  1.7262193197570002
  2.9752008647860002  3.1686609927689999  4.1855356802430004
