Sc Co C 
 1.0000000000000000
     3.3686140000000000    0.0000000000000000    0.0000000000000000
     0.0000000000000000    3.3686140000000000    0.0000000000000000
     0.0000000000000000    0.0000000000000000    7.1753530000000003
 Sc  Co  C  
   2   2   4
Cartesian
  0.0000000000000000  1.6843070000000000  4.6901120856259997
  1.6843070000000000  0.0000000000000000  2.4852409143740002
  0.0000000000000000  0.0000000000000000  0.0000000000000000
  1.6843070000000000  1.6843070000000000  0.0000000000000000
  1.6843070000000000  0.0000000000000000  6.1004851206000001
  0.0000000000000000  1.6843070000000000  2.4887568373439999
  0.0000000000000000  1.6843070000000000  1.0748678793999999
  1.6843070000000000  0.0000000000000000  4.6865961626559995
