Sc Rh
 1.0000000000000000
     3.9403830000000002    0.0000000000000000    0.0000000000000000
     0.0000000000000000    3.9403830000000002    0.0000000000000000
     0.0000000000000000    0.0000000000000000    3.9403830000000002
 Sc  Rh 
   1   3
Cartesian
  0.0000000000000000  0.0000000000000000  0.0000000000000000
  1.9701915000000001  1.9701915000000001  0.0000000000000000
  1.9701915000000001  0.0000000000000000  1.9701915000000001
  0.0000000000000000  1.9701915000000001  1.9701915000000001
