Mg B 
 1.0000000000000000
     4.3781540000000003    0.0000000000000000    0.0000000000000000
     0.0000000000000000    5.4694779999999996    0.0000000000000000
     0.0000000000000000    0.0000000000000000    7.4129690000000004
 Mg  B  
   4  16
Cartesian
  3.2836155000000002  5.2167717079660001  1.0309364247680000
  1.0945385000000001  0.2527062920340000  6.3820325752320004
  3.2836155000000002  2.4820327079659998  2.6755480752320002
  1.0945385000000001  2.9874452920339998  4.7374209247680001
  3.2836155000000002  1.5225549992939997  4.8385189959900003
  1.0945385000000001  3.9469230007059997  2.5744500040100000
  3.2836155000000002  4.2572939992939993  6.2809345040100002
  1.0945385000000001  1.2121840007059999  1.1320344959900002
  3.2836155000000002  2.4443480045459998  6.3202825434620005
  1.0945385000000001  3.0251299954539994  1.0926864565380001
  3.2836155000000002  5.1790870045460000  4.7991709565380001
  1.0945385000000001  0.2903909954540000  2.6137980434620003
  2.4430055538460005  4.7414959476779996  3.2406312891330002
  0.2539285538460000  0.7279820523220000  4.1723377108669997
  4.1242254461540000  2.0067569476779998  0.4658532108670000
  1.9351484461540001  3.4627210523219998  6.9471157891330009
  1.9351484461540001  0.7279820523220000  4.1723377108669997
  4.1242254461540000  4.7414959476779996  3.2406312891330002
  0.2539285538460000  3.4627210523219998  6.9471157891330009
  2.4430055538460005  2.0067569476779998  0.4658532108670000
