Ti Si Rh
 1.0000000000000000
     3.8366630000000002    0.0000000000000000    0.0000000000000000
     0.0000000000000000    6.2817629999999998    0.0000000000000000
     0.0000000000000000    0.0000000000000000    7.2767700000000000
 Ti  Si  Rh 
   4   4   4
Cartesian
  0.9591657500000000  3.2927368387620000  2.3062194393300000
  0.9591657500000000  0.1518553387620000  1.3321655606700000
  2.8774972500000002  6.1299076612379997  5.9446044393299999
  2.8774972500000002  2.9890261612380002  4.9705505606699996
  2.8774972500000002  4.5968245557989995  0.8818135421400000
  0.9591657500000000  1.6849384442009998  6.3949564578600002
  2.8774972500000002  1.4559430557990001  2.7565714578599998
  0.9591657500000000  4.8258199442010001  4.5201985421400002
  0.9591657500000000  4.1006218146659998  6.8140620260100002
  2.8774972500000002  5.3220226853339998  3.1756770260099998
  0.9591657500000000  0.9597403146660000  4.1010929739899993
  2.8774972500000002  2.1811411853339999  0.4627079739900000
