Mn Sb Ru
 1.0000000000000000
     0.0000000000000000    3.1040299999999998    3.1040299999999998
     3.1040299999999998    0.0000000000000000    3.1040299999999998
     3.1040299999999998    3.1040299999999998    0.0000000000000000
 Mn  Sb  Ru 
   1   1   2
Cartesian
  1.5520149999999999  1.5520149999999999  1.5520149999999999
  4.6560449999999998  4.6560449999999998  4.6560449999999998
  0.0000000000000000  0.0000000000000000  0.0000000000000000
  3.1040237919400000  3.1040237919400000  3.1040237919400000
