Li Be As
 1.0000000000000000
     3.7365719999999998    0.0000000000000000    0.0000000000000000
     0.0000000000000000    3.7365719999999998    0.0000000000000000
     0.0000000000000000    0.0000000000000000    6.1651080000000000
 Li  Be  As 
   2   2   2
Cartesian
  0.9341429999999999  0.9341429999999999  2.1386389745519998
  2.8024290000000001  2.8024290000000001  4.0264690254479998
  0.9341429999999999  2.8024290000000001  0.0000000000000000
  2.8024290000000001  0.9341429999999999  0.0000000000000000
  0.9341429999999999  0.9341429999999999  4.7872310224319996
  2.8024290000000001  2.8024290000000001  1.3778769775680000
