Mo Pt
 1.0000000000000000
     5.0227539999999999    0.0000000000000000    0.0000000000000000
     0.0000000000000000    5.0227539999999999    0.0000000000000000
     0.0000000000000000    0.0000000000000000    5.0227539999999999
 Mo  Pt 
   6   2
Cartesian
  1.2556885000000000  0.0000000000000000  2.5113770000000000
  3.7670655000000002  0.0000000000000000  2.5113770000000000
  0.0000000000000000  2.5113770000000000  1.2556885000000000
  0.0000000000000000  2.5113770000000000  3.7670655000000002
  2.5113770000000000  3.7670655000000002  0.0000000000000000
  2.5113770000000000  1.2556885000000000  0.0000000000000000
  0.0000000000000000  0.0000000000000000  0.0000000000000000
  2.5113770000000000  2.5113770000000000  2.5113770000000000
