Rb H  F 
 1.0000000000000000
    -2.9273560000000001    2.9049730000000000    3.5905170000000002
     2.9273560000000001   -2.9049730000000000    3.5905170000000002
     2.9273560000000001    2.9049730000000000   -3.5905170000000002
 Rb  H   F  
   2   2   4
Cartesian
 -0.0000000000000000  0.6511438880039999 -0.0000000000000000
 -0.0000000000000001  0.6511438880039999  3.5905170000000002
  2.9382662558119996  0.6458597421170003  1.7952549094829999
 -0.0109073284560003  3.5508298371440001  1.7952585000000003
 -0.8249084293080001  2.7509832862430001  1.7952620905170003
  3.7522615019520003 -0.1539868087839998  1.7952584999999999
  2.1222189331160002  1.4424033387169999  1.7952549094830001
  0.8051429215959998  4.3473763387169999  1.7952549094830001
