Yb Cu
 1.0000000000000000
     4.4051669999999996    0.0000000000000000    0.0000000000000000
     0.0000000000000000    5.1972950000000004    0.0000000000000000
     0.0000000000000000    0.0000000000000000    6.9587219999999999
 Yb  Cu 
   4   4
Cartesian
  1.1012917499999999  0.7288582562100001  1.2697092922859998
  3.3038752499999999  4.4684367437900008  5.6890127077139994
  3.3038752499999999  3.3275057562100003  2.2096517077139999
  1.1012917499999999  1.8697892437900003  4.7490702922860004
  1.1012917499999999  3.2778040241250004  0.2044750872480000
  3.3038752499999999  1.9194909758750003  6.7542469127520004
  3.3038752499999999  0.6791565241250002  3.2748859127519996
  1.1012917499999999  4.5181384758750003  3.6838360872479998
