Rb Bi F 
 1.0000000000000000
     5.1007009999999999   -0.0197890000000000   -0.5929340000000000
    -0.6635760000000001    5.0573949999999996   -0.5929090000000000
    -0.0174270000000000   -0.0198100000000000    5.1350189999999998
 Rb  Bi  F  
   1   1   6
Cartesian
  2.2098490000000002  2.5088979999999999  1.9745879999999998
  0.0000000000000000  0.0000000000000000  0.0000000000000000
  0.4423917970829999  4.6676709800699996  1.0577746680450000
  4.4913721406400002  1.6811471226689998  0.3210363755130000
  2.8558296639289997  3.9896862599509997 -0.4779059003700000
 -0.0716741406400000  3.3366488773310001  3.6281396244869994
  3.9773062029169997  0.3501250199300000  2.8914013319550000
  1.5638683360710002  1.0281097400489998  4.4270819003699993
