Zr Cu Te
 1.0000000000000000
     2.0450550000000001   10.2591120000000000    0.0420750000000000
    -2.0450550000000001   10.2591120000000000    0.0420750000000000
     0.0000000000000000    1.1289819999999999    7.2720729999999998
 Zr  Cu  Te 
   2   4   6
Cartesian
 -0.0000000000000000 17.5710579796640012  0.4492141986080000
  0.0000000000000000  4.0761480203360003  6.9070088013919992
  0.0000000000000001 12.2331848621160013  6.2357969160659996
  0.0000000000000000  9.4140211378840011  1.1204260839339999
  0.0000000000000001 16.6050818993019966  3.1474694191329999
  0.0000000000000000  5.0421241006979995  4.2087535808669996
 -0.0000000000000001 12.0841349022820008  1.3462387862290000
 -0.0000000000000000  9.5630710977179998  6.0099842137710002
 -0.0000000000000000  5.3799722110859998  1.6324498937970000
  0.0000000000000000 16.2672337889139982  5.7237731062029997
  0.0000000000000000 19.1772122681880006  2.6975022760920000
 -0.0000000000000000  2.4700142500359998  4.6587208080579998
