Zr C 
 1.0000000000000000
     2.8860280000000000   -0.0000000000000000    1.6662490000000001
     0.9620090000000000    2.7209750000000001    1.6662490000000001
    -0.0000000000000000   -0.0000000000000000    3.3325000000000000
 Zr  C  
   1   1
Cartesian
  0.0000000000000000  0.0000000000000000  0.0000000000000000
  1.9240185000000001  1.3604875000000001  3.3324990000000003
