Ho Si Rh
 1.0000000000000000
     3.7691409999999999    0.0000000000000000   -1.4239569999999999
    -0.5379620000000001    3.7305519999999999   -1.4239569999999999
     0.0080010000000000    0.0092380000000000    5.7215189999999998
 Ho  Si  Rh 
   1   2   2
Cartesian
  0.0000000000000000  0.0000000000000000  0.0000000000000000
  2.0101999158429997  2.3208728694339995 -0.3794488725429998
  1.2289800841570000  1.4189171305659998  3.2530538725430000
  0.5428142499999998  2.8025329999999999  1.4368025000000000
  2.6963657500000000  0.9372570000000000  1.4368025000000000
