Tm Lu Co
 1.0000000000000000
    -0.0000160000000000    3.2810039999999998    3.2811089999999998
     3.2812370000000000   -0.0000460000000000    3.2811400000000002
     3.2812760000000001    3.2810750000000000   -0.0000860000000000
 Tm  Lu  Co 
   1   1   2
Cartesian
  4.9218727500000004  4.9215247499999997  4.9216222500000004
  1.6406242499610000  1.6405049688789999  1.6405440312259998
  3.2812485000230001  3.2810230621250001  3.2810814998830002
  3.2812600000160002  6.5620757189959997  3.2810197188909997
