Sr Ge
 1.0000000000000000
     4.1319090000000003    0.0000000000000000    0.0000000000000000
    -2.0659540000000001    3.5783390000000002    0.0000000000000000
     0.0000000000000000    0.0000000000000000    5.1478840000000003
 Sr  Ge 
   1   2
Cartesian
  0.0000000000000000  0.0000000000000000  0.0000000000000000
  2.0659567326210002  1.1927784738870000  3.0631608601720002
 -0.0000017326210000  2.3855605261130002  2.0847231398280002
