Gd Ga
 1.0000000000000000
     4.1979550000000003   -0.0000000000000000    0.0000000000000000
    -2.0989789999999999    3.6355350000000000    0.0000000000000000
     0.0000000000000000    0.0000000000000000    4.1804680000000003
 Gd  Ga 
   1   2
Cartesian
  0.0000000000000000  0.0000000000000000  0.0000000000000000
  2.0989790989779999  1.2118437881549999  2.0902340000000001
 -0.0000030989780000  2.4236912118450000  2.0902340000000001
