Lu Si Rh
 1.0000000000000000
     4.1611599999999997    0.0000000000000000    0.0000000000000000
     0.0000000000000000    6.7039249999999999    0.0000000000000000
     0.0000000000000000    0.0000000000000000    7.3274400000000002
 Lu  Si  Rh 
   4   4   4
Cartesian
  1.0402899999999999  0.0160089729000000  1.4032194148800001
  3.1208700000000000  6.6879160271000000  5.9242205851200005
  1.0402899999999999  3.3679714728999994  2.2605005851200000
  3.1208700000000000  3.3359535271000000  5.0669394148799993
  1.0402899999999999  1.9609852135250001  6.5347209036000002
  3.1208700000000000  4.7429397864749996  0.7927190964000000
  1.0402899999999999  5.3129477135250003  4.4564390963999996
  3.1208700000000000  1.3909772864750001  2.8710009036000002
  3.1208700000000000  5.6648635524749995  3.1828274402400001
  1.0402899999999999  1.0390614475250000  4.1446125597600005
  3.1208700000000000  2.3129010524750000  0.4808925597600001
  1.0402899999999999  4.3910239475250004  6.8465474402400002
