Sc Fe Si
 1.0000000000000000
     4.9660110000000000   -0.0000010000000000   -0.0000020000000000
    -0.0000010000000000    7.0475810000000001   -0.0000020000000000
     0.0000020000000000   -0.0000020000000000    7.4394060000000000
 Sc  Fe  Si 
   4   8   8
Cartesian
  3.7245078386199997  6.3845997156200003  1.8395683673879999
  1.2414991972070000  0.6538164285429999  5.6018348354279999
  3.7245043827599997  2.8700052973700001  5.6018852823479994
  1.2415026504700000  4.1867275098099999  1.8395253546760000
  3.7245079706630002  3.6024898551970002  0.8623362241560000
  1.2415040298180000  3.4473363223420002  6.5800415376059993
  3.7245100081219999  0.0764355445580000  6.5800340548120007
  1.2415019929960001  6.9689013238840003  0.8623437082240001
  4.9660114840619993  5.2857117062580006  4.5903555023900005
  2.4830159464350001  1.7618728428450001  2.8433766702320002
  4.9660115144130001  1.7618723428470000  2.8433756702360000
  2.4830059840629999  5.2857051586770005  4.5903565023920008
  3.7245085323259999  3.8834551653939999  3.0998490900119999
  1.2415034622909999  3.1912066899289999  4.3338245596820002
  3.7245093679040000  0.3325875274560000  4.3338094921039998
  1.2415026344019999  6.6878995727180000  3.0998716123700003
  4.9660022182140002  5.2856828497660002  7.0683100499120002
  2.4830103175000002  1.7619016960899998  0.3775111574660000
  4.9660108514890000  1.7619011960909998  0.3775101574680000
  2.4830116162460003  5.2856903973440010  7.0683110499040005
