Li Si O 
 1.0000000000000000
     2.6876669999999998   -4.6549259999999997    0.0000000000000000
     2.6876650000000000    4.6549240000000003    0.0000010000000000
     0.0000000000000000    0.0000000000000000   10.5390829999999998
 Li  Si  O  
  16   2  12
Cartesian
  3.5170884819689996 -3.2182814607779995  2.8473654408920002
  1.8582422131059997 -3.2182761886459996  8.1169382495380002
  2.6877382336530000  1.5516204952980004  4.3339772296849999
  2.6875937663469998 -1.5516224952979998  9.6035289354119993
  2.6875904120219998  1.5516251502780003  9.6035292687409992
  2.6877389003109999 -1.5516224953519997  4.3339768963559999
  1.0590993703209999 -1.8341665270340000  6.6293993795059993
  2.1179238106559999 -0.0000007880159997  1.3598582734980000
  4.3162414807299996 -1.8341630839939997  1.3598584854490001
  1.0591012699319999  1.8341703938400002  6.6293997735339998
  3.2574243153399998 -0.0000012119899996  6.6293999854849996
  4.3162406926759997  1.8341691819560009  1.3598588794760000
  3.5170870992270000  3.2182788435720004  2.8473661322630002
  3.7164373531489998  0.0000032721500006  2.8472077374189997
  1.8582381426990000  3.2182794607800003  8.1169389409079997
  1.6588973345160001 -0.0000006172259999  8.1167910109759998
  5.3753212493360003 -0.0000019999959996  5.2659592117780001
  0.0000053753320000 -0.0000000000020000 10.5355313290299986
  3.4659072773799999 -3.3069531080600001  4.7745526783090000
  3.8188078634239995 -0.0000014208639996  4.7745320210050002
  5.3753078110069996 -0.0000066549159996  1.6638587286199997
  0.0000215013280000 -0.0000000000080000  6.9333676113799996
  2.6876307270090001  1.5516391150380004  2.3165227273090001
  2.6877039606579998 -1.5516457699639996  7.5860955112379989
  2.6877032939899999  1.5516437699360002  7.5860958445719993
  1.9094180804609997 -3.3069478740119997 10.0441255059970000
  3.4659058565400001  3.3069505289400007  4.7745533887290001
  1.5565241365759999 -0.0000005791359998 10.0440941783070006
  1.9094059089590001  3.3069464531420003 10.0441367554970000
  2.6876313936749998 -1.5516411150120000  2.3165223939759998
