Lu Sn Ru
 1.0000000000000000
     0.0000040000000000    3.2460740000000001    3.2460719999999998
     3.2460749999999998    0.0000030000000000    3.2460730000000000
     3.2460749999999998    3.2460740000000001    0.0000030000000000
 Lu  Sn  Ru 
   1   1   2
Cartesian
  1.6230417460789999  1.6230442421479998  1.6230402460749997
  4.8691154999999995  4.8691132499999998  4.8691109999999993
  0.0000040000000000  3.2460740000000001  3.2460719999999998
  3.2460705078459999  3.2460690078490004  3.2460675078520000
