Rb Hf F 
 1.0000000000000000
     6.0700539999999998    0.0000000000000000    0.0000000000000000
    -3.0350269999999999    5.2568210000000004    0.0000000000000000
     0.0000000000000000    0.0000000000000000    4.7681930000000001
 Rb  Hf  F  
   2   1   6
Cartesian
 -0.0000030350270003  3.5045490856070005  3.3092260740530000
  3.0350300350270003  1.7522719143930001  1.4589669259469999
  0.0000000000000000  0.0000000000000000  0.0000000000000000
  4.6279184305720005  0.8326173645480001  3.6733062187610002
  3.0350330700540002  3.5915757572620004  3.6733062187610002
  1.4421477095360000  0.8326173645480001  3.6733062187610002
 -1.5928914305719999  4.4242036354520007  1.0948820130460000
 -0.0000060700540000  1.6652452427380002  1.0948820130460000
  1.5928792904640001  4.4242036354520007  1.0948820130460000
