Eu N 
 1.0000000000000000
     3.1043650000000000    0.0000000000000000    1.7923060000000000
     1.0347890000000000    2.9268220000000000    1.7923060000000000
     0.0000000000000000    0.0000000000000000    3.5846110000000002
 Eu  N  
   1   1
Cartesian
  0.0000000000000000  0.0000000000000000  0.0000000000000000
  2.0695769999999998  1.4634110000000000  3.5846115000000003
