Ba Li Re O 
 1.0000000000000000
     0.0000000000000000    4.1175899999999999    4.1175899999999999
     4.1175899999999999    0.0000000000000000    4.1175899999999999
     4.1175899999999999    4.1175899999999999    0.0000000000000000
 Ba  Li  Re  O  
   2   1   1   6
Cartesian
  2.0587949999999999  2.0587949999999999  2.0587949999999999
  6.1763849999999998  6.1763849999999998  6.1763849999999998
  0.0000000000000000  0.0000000000000000  0.0000000000000000
  4.1175899999999999  4.1175899999999999  4.1175899999999999
  4.1175899999999999  4.1175899999999999  6.0264964888199994
  4.1175899999999999  6.0264964888199994  4.1175899999999999
  4.1175899999999999  4.1175899999999999  2.2086835111800003
  4.1175899999999999  2.2086835111800003  4.1175899999999999
  6.0264964888199994  4.1175899999999999  4.1175899999999999
  2.2086835111800003  4.1175899999999999  4.1175899999999999
