Lu Co Ge
 1.0000000000000000
     3.6421480000000002    0.0000000000000000   -1.3415870000000001
    -0.4941750000000000    3.6084660000000000   -1.3415870000000001
     0.0244040000000000    0.0279730000000000    5.6809060000000002
 Lu  Co  Ge 
   1   2   2
Cartesian
  0.0000000000000000  0.0000000000000000  0.0000000000000000
  0.5521077500000001  2.7203360000000001  1.4988660000000000
  2.6202692499999998  0.9161030000000000  1.4988660000000000
  1.1953915488240001  1.3702556215780000  3.2452665409800003
  1.9769854511760001  2.2661833784220002 -0.2475345409799999
