Li V  N 
 1.0000000000000000
     5.8072770000000000   -0.0564810000000000    0.0000040000000000
    -2.9512830000000001    5.1131989999999998   -0.0000070000000000
     0.0000030000000000   -0.0000040000000000    4.0870319999999998
 Li  V   N  
   2   4   6
Cartesian
  3.8841887858370003  3.2751356974440000  1.7686666239479998
 -1.0281110047200002  1.7814387842150001  3.8121398759849998
  0.9534112893030001  1.6447727794559999  1.7616447048719999
  0.9548775820470004  5.0539379150689996  1.7616372883289999
  1.9026071700059997  3.4119344896419999  3.8051555362269998
  1.9010940378899999  0.0028104855450000  3.8051629526979998
  1.0576396710150002  1.7025490964249999  3.8048787140189999
  0.8527127671920002  4.9925275662440001  3.8048753607440000
  1.7982306546749995  3.3541646984449995  1.7613616035890001
  2.0033656675800002  0.0642858944800000  1.7613649569079999
 -2.0924273403900004  3.6252032339699998  3.8060844573899999
  4.9483845864269993  1.4315300511590001  1.7625672091379998
