Ba H 
 1.0000000000000000
     4.1782930000000000    0.0000000000000000    0.0000000000000000
     0.0000000000000000    6.8427980000000002    0.0000000000000000
     0.0000000000000000    0.0000000000000000    7.8907569999999998
 Ba  H  
   4   8
Cartesian
  1.0445732500000000  5.2040847349600003  4.8361344947020006
  3.1337197500000000  1.6387132650400000  3.0546225052980001
  1.0445732500000000  1.7826857349599998  7.0000010052979995
  3.1337197500000000  5.0601122650399999  0.8907559947020000
  1.0445732500000000  3.6140990344780000  2.5185481469889996
  3.1337197500000000  3.2286989655220002  5.3722088530109993
  1.0445732500000000  0.1927000344780000  1.4268303530110000
  3.1337197500000000  6.6500979655219998  6.4639266469890000
  3.1337197500000000  2.4286184949680001  0.5647414784899999
  1.0445732500000000  4.4141795050320001  7.3260155215099996
  3.1337197500000000  5.8500174949680002  3.3806370215099997
  1.0445732500000000  0.9927805050320000  4.5101199784899997
