Lu In
 1.0000000000000000
     4.5739179999999999    0.0000000000000000    0.0000000000000000
     0.0000000000000000    4.5739179999999999    0.0000000000000000
     0.0000000000000000    0.0000000000000000    4.5739179999999999
 Lu  In 
   1   3
Cartesian
  0.0000000000000000  0.0000000000000000  0.0000000000000000
  2.2869590000000000  0.0000000000000000  2.2869590000000000
  0.0000000000000000  2.2869590000000000  2.2869590000000000
  2.2869590000000000  2.2869590000000000  0.0000000000000000
