Cu Se Cl
 1.0000000000000000
     4.8735510000000000    0.0000000000000000    0.0000000000000000
     0.0000000000000000    7.4463309999999998   -1.9894719999999999
     0.0000000000000000   -0.0271700000000000   10.9034890000000004
 Cu  Se  Cl 
   4   8   4
Cartesian
  3.1109630511360002  0.5233770118900000  2.5580733647199998
  0.6741875511359999  3.1862034881099999  1.8989351352800004
  1.7625879488639999  6.8957839881099998  6.3559436352800001
  4.1993634488640001  4.2329575118899996  7.0150818647200008
  2.5811300806199999  2.6111980438889999  6.4392970722400005
  0.1443545806200000  1.0712124561109999  8.9212004277600006
  2.2924209193800000  4.8079629561110000  2.4747199277599998
  4.7291964193800000  6.3479485438890002 -0.0071834277600000
  3.3742030348500003  0.5534659892670000  7.0181532610850006
  0.9374275348500000  3.1289445107330001  8.3423442389150004
  1.4993479651499999  6.8656950107329999  1.8958637389150004
  3.9361234651499997  4.2902164892670003  0.5716727610850001
  1.9012404748140002  1.5233422417810001  0.8913742980700000
  4.3380159748139997  2.1862382582190003  3.5656342019300005
  2.9723105251860003  5.8958187582189998  8.0226427019300015
  0.5355350251859999  5.2329227417810005  5.3483827980700003
