Ti Cu S 
 1.0000000000000000
     6.1093359999999999   -0.0000430000000000    3.5271590000000002
     2.0364049999999998    5.7599470000000004    3.5271569999999999
    -0.0000570000000000   -0.0000430000000000    7.0544169999999999
 Ti  Cu  S  
   4   2   8
Cartesian
  3.0546395000000000 -0.0000430000000000  5.2907880000000000
  1.0181739999999999  2.8799520000000003  5.2907869999999999
  4.0728704999999996  2.8799520000000003  3.5271580000000000
  4.0728419999999996  2.8799305000000004  7.0543665000000004
  7.1274714635949996  5.0398726150530004 12.3451378478430005
  1.0182125364049999  0.7199883849470001  1.7635951521569999
  6.0717928535999990  4.2934003894000003 10.5166495781999991
  2.0738575857499999  1.4664399017570002  6.9895012306749997
  3.0546278672099998  4.2404626056940007  5.2907692873140002
  5.0161534733359998  1.4664399017570000  5.2907667233589999
  5.0910561327899995  1.5193983943060001  8.8179637126859998
  3.1295305266639999  4.2934210982429999  8.8179662766410001
  2.0738911463999998  1.4664606106000000  3.5920834218000000
  6.0718264142499994  4.2934210982429999  7.1192317693249993
