Ga Sb
 1.0000000000000000
     6.2152740000000000    0.0000000000000000    0.0000000000000000
     0.0000000000000000    6.2152740000000000    0.0000000000000000
     0.0000000000000000    0.0000000000000000    6.2152740000000000
 Ga  Sb 
   4   4
Cartesian
  0.0000000000000000  0.0000000000000000  0.0000000000000000
  0.0000000000000000  3.1076370000000000  3.1076370000000000
  3.1076370000000000  0.0000000000000000  3.1076370000000000
  3.1076370000000000  3.1076370000000000  0.0000000000000000
  4.6614554999999998  4.6614554999999998  1.5538185000000000
  4.6614554999999998  1.5538185000000000  4.6614554999999998
  1.5538185000000000  4.6614554999999998  4.6614554999999998
  1.5538185000000000  1.5538185000000000  1.5538185000000000
