Na Ge N 
 1.0000000000000000
     5.1251329999999999    0.0000000000000000    0.0000000000000000
     0.0000000000000000    4.9916080000000003   -2.7987139999999999
     0.0000000000000000   -0.0031400000000000    5.7226689999999998
 Na  Ge  N  
   2   4   6
Cartesian
  2.5207556649859999  3.3044709494960003  1.9368921190099997
  5.0833221649859999  1.6839970505040001  0.9870628809899998
  0.1291226008020000  0.0530623653400000  3.8325198986649998
  2.6916891008020003  4.9354056346599995 -0.9085648986650001
  2.6916891008020003  1.6185932777800001  4.7501446963150000
  0.1291226008020000  3.3698747222200001 -1.8261896963149999
  4.8914115598010000  3.7008895360520002  2.1692500509949997
  2.3288450598010000  1.2875784639479999  0.7547049490049998
  1.9510766315040000  3.2892146190560005 -1.4068003034560002
  1.9510766315040000  0.3795791138840000  3.5572376279810003
  4.5136431315039998  4.6088888861159996 -0.6332826279809999
  4.5136431315039998  1.6992533809440000  4.3307553034559998
