Er B  Ir
 1.0000000000000000
     3.1460550000000000   -0.0285460000000000    0.0164580000000000
     0.0284280000000000    4.6913760000000000    2.7054339999999999
    -0.0283040000000000    0.0025690000000000    5.4162650000000001
 Er  B   Ir 
   1   2   3
Cartesian
  0.0000000000000000  0.0000000000000000  0.0000000000000000
  0.0000836304080000  3.1293497773640002  5.4143738929119998
  0.0000403695920000  1.5645952226360000  2.7073251070879998
  1.5588755000000001 -0.0129885000000000  2.7163615000000001
  1.5872415000000000  2.3314149999999998  1.3609460000000000
  1.5730895000000000  2.3326994999999999  4.0690784999999998
