Ti Nb B 
 1.0000000000000000
     1.5355310000000000   -2.6596160000000002    0.0000000000000000
     1.5355310000000000    2.6596160000000002    0.0000000000000000
     0.0000000000000000    0.0000000000000000    6.5652920000000003
 Ti  Nb  B  
   1   1   4
Cartesian
  0.0000000000000000  0.0000000000000000  3.2826460000000002
  0.0000000000000000  0.0000000000000000  0.0000000000000000
  1.5355310000000000 -0.8865404397440001  4.8633647895480001
  1.5355310000000000 -0.8865404397440001  1.7019272104520000
  1.5355310000000000  0.8865404397440002  4.8633647895480001
  1.5355310000000000  0.8865404397440002  1.7019272104520000
