Hf Cu P 
 1.0000000000000000
     3.7782900000000001    0.0000000000000000    0.0000000000000000
    -1.8891439999999999    3.2720940000000001    0.0000000000000000
     0.0000000000000000    0.0000000000000000    6.1201119999999998
 Hf  Cu  P  
   1   2   2
Cartesian
  0.0000000000000000  0.0000000000000000  0.0000000000000000
 -0.0000012224780000  2.1813970906980003  3.9023486542240002
  1.8891472224779999  1.0906969093020000  2.2177633457760000
  1.8891472224779999  1.0906969093020000  4.6082178918560004
 -0.0000012224780000  2.1813970906980003  1.5118941081440000
