Sc O 
 1.0000000000000000
     9.9105030000000003    0.0000000000000000    0.0000000000000000
     0.0000000000000000    9.9105030000000003    0.0000000000000000
     0.0000000000000000    0.0000000000000000    9.9105030000000003
 Sc  O  
  32  48
Cartesian
  7.4328772500000007  7.4328772500000007  7.4328772500000007
  7.4328772500000007  7.4328772500000007  2.4776257500000001
  2.4776257500000001  7.4328772500000007  7.4328772500000007
  7.4328772500000007  2.4776257500000001  7.4328772500000007
  9.5536158764670009  0.0000000000000000  2.4776257500000001
  4.9552515000000001  2.4776257500000001  0.3568871235330000
  2.4776257500000001  0.3568871235330000  4.9552515000000001
  0.0000000000000000  2.4776257500000001  9.5536158764670009
  2.4776257500000001  9.5536158764670009  0.0000000000000000
  0.3568871235330000  4.9552515000000001  2.4776257500000001
  0.3568871235330000  0.0000000000000000  7.4328772500000007
  4.9552515000000001  7.4328772500000007  9.5536158764670009
  7.4328772500000007  9.5536158764670009  4.9552515000000001
  0.0000000000000000  7.4328772500000007  0.3568871235330000
  7.4328772500000007  0.3568871235330000  0.0000000000000000
  9.5536158764670009  4.9552515000000001  7.4328772500000007
  2.4776257500000001  2.4776257500000001  2.4776257500000001
  2.4776257500000001  2.4776257500000001  7.4328772500000007
  7.4328772500000007  2.4776257500000001  2.4776257500000001
  2.4776257500000001  7.4328772500000007  2.4776257500000001
  4.5983643764669999  4.9552515000000001  7.4328772500000007
  0.0000000000000000  7.4328772500000007  5.3121386235330004
  7.4328772500000007  5.3121386235330004  0.0000000000000000
  4.9552515000000001  7.4328772500000007  4.5983643764669999
  7.4328772500000007  4.5983643764669999  4.9552515000000001
  5.3121386235330004  0.0000000000000000  7.4328772500000007
  5.3121386235330004  4.9552515000000001  2.4776257500000001
  0.0000000000000000  2.4776257500000001  4.5983643764669999
  2.4776257500000001  4.5983643764669999  0.0000000000000000
  4.9552515000000001  2.4776257500000001  5.3121386235330004
  2.4776257500000001  5.3121386235330004  4.9552515000000001
  4.5983643764669999  0.0000000000000000  2.4776257500000001
  8.8358080546800011  6.4860377038829995  8.7319658042460002
  8.3797167961170000  8.7319658042460002  1.0746949453199999
  6.1337886957540002  1.0746949453199999  1.5307862038830000
  3.4244652961169999  6.1337886957540002  8.8358080546800011
  8.7319658042460002  1.0746949453199999  8.3797167961170000
  1.5307862038830000  6.1337886957540002  1.0746949453199999
  6.1337886957540002  8.8358080546800011  3.4244652961169999
  8.7319658042460002  8.8358080546800011  6.4860377038829995
  6.4860377038829995  8.7319658042460002  8.8358080546800011
  1.0746949453199999  8.3797167961170000  8.7319658042460002
  1.0746949453199999  1.5307862038830000  6.1337886957540002
  8.8358080546800011  3.4244652961169999  6.1337886957540002
  1.0746949453199999  3.4244652961169999  1.1785371957540001
  1.5307862038830000  1.1785371957540001  8.8358080546800011
  3.7767143042460001  8.8358080546800011  8.3797167961170000
  6.4860377038829995  3.7767143042460001  1.0746949453199999
  1.1785371957540001  8.8358080546800011  1.5307862038830000
  8.3797167961170000  3.7767143042460001  8.8358080546800011
  3.7767143042460001  1.0746949453199999  6.4860377038829995
  1.1785371957540001  1.0746949453199999  3.4244652961169999
  3.4244652961169999  1.1785371957540001  1.0746949453199999
  8.8358080546800011  1.5307862038830000  1.1785371957540001
  8.8358080546800011  8.3797167961170000  3.7767143042460001
  1.0746949453199999  6.4860377038829995  3.7767143042460001
  3.8805565546800005  1.5307862038830000  3.7767143042460001
  3.4244652961169999  3.7767143042460001  6.0299464453200002
  1.1785371957540001  6.0299464453200002  6.4860377038829995
  8.3797167961170000  1.1785371957540001  3.8805565546800005
  3.7767143042460001  6.0299464453200002  3.4244652961169999
  6.4860377038829995  1.1785371957540001  6.0299464453200002
  1.1785371957540001  3.8805565546800005  8.3797167961170000
  3.7767143042460001  3.8805565546800005  1.5307862038830000
  1.5307862038830000  3.7767143042460001  3.8805565546800005
  6.0299464453200002  3.4244652961169999  3.7767143042460001
  6.0299464453200002  6.4860377038829995  1.1785371957540001
  3.8805565546800005  8.3797167961170000  1.1785371957540001
  6.0299464453200002  8.3797167961170000  6.1337886957540002
  6.4860377038829995  6.1337886957540002  3.8805565546800005
  8.7319658042460002  3.8805565546800005  3.4244652961169999
  1.5307862038830000  8.7319658042460002  6.0299464453200002
  6.1337886957540002  3.8805565546800005  6.4860377038829995
  3.4244652961169999  8.7319658042460002  3.8805565546800005
  8.7319658042460002  6.0299464453200002  1.5307862038830000
  6.1337886957540002  6.0299464453200002  8.3797167961170000
  8.3797167961170000  6.1337886957540002  6.0299464453200002
  3.8805565546800005  6.4860377038829995  6.1337886957540002
  3.8805565546800005  3.4244652961169999  8.7319658042460002
  6.0299464453200002  1.5307862038830000  8.7319658042460002
