Zn Sn Sb
 1.0000000000000000
     6.3918200000000001    0.0000000000000000    0.0000000000000000
     0.0000000000000000    6.3918200000000001    0.0000000000000000
     0.0000000000000000    0.0000000000000000   12.8376649999999994
 Zn  Sn  Sb 
   4   4   8
Cartesian
  0.0000000000000000  0.0000000000000000  6.4188324999999997
  0.0000000000000000  3.1959100000000000  9.6282487499999991
  3.1959100000000000  3.1959100000000000  0.0000000000000000
  3.1959100000000000  0.0000000000000000  3.2094162499999999
  3.1959100000000000  3.1959100000000000  6.4188324999999997
  3.1959100000000000  0.0000000000000000  9.6282487499999991
  0.0000000000000000  0.0000000000000000  0.0000000000000000
  0.0000000000000000  3.1959100000000000  3.2094162499999999
  1.5979550000000000  1.7646728410600001 11.2329568749999993
  4.9605828410599999  1.5979550000000000  8.0235406249999990
  1.4312371589400001  4.7938650000000003  8.0235406249999990
  4.7938650000000003  4.6271471589400006 11.2329568749999993
  4.7938650000000003  4.9605828410599999  4.8141243749999996
  1.7646728410600001  4.7938650000000003  1.6047081249999999
  4.6271471589400006  1.5979550000000000  1.6047081249999999
  1.5979550000000000  1.4312371589400001  4.8141243749999996
