Li Al Pt
 1.0000000000000000
     6.0569680000000004    0.0000000000000000    0.0000000000000000
     0.0000000000000000    6.0569680000000004    0.0000000000000000
     0.0000000000000000    0.0000000000000000    6.0569680000000004
 Li  Al  Pt 
   8   4   4
Cartesian
  1.5142420000000001  4.5427260000000000  4.5427260000000000
  0.0000000000000000  0.0000000000000000  3.0284840000000002
  1.5142420000000001  1.5142420000000001  1.5142420000000001
  0.0000000000000000  3.0284840000000002  0.0000000000000000
  4.5427260000000000  4.5427260000000000  1.5142420000000001
  3.0284840000000002  0.0000000000000000  0.0000000000000000
  4.5427260000000000  1.5142420000000001  4.5427260000000000
  3.0284840000000002  3.0284840000000002  3.0284840000000002
  0.0000000000000000  0.0000000000000000  0.0000000000000000
  0.0000000000000000  3.0284840000000002  3.0284840000000002
  3.0284840000000002  0.0000000000000000  3.0284840000000002
  3.0284840000000002  3.0284840000000002  0.0000000000000000
  4.5427260000000000  1.5142420000000001  1.5142420000000001
  4.5427260000000000  4.5427260000000000  4.5427260000000000
  1.5142420000000001  1.5142420000000001  4.5427260000000000
  1.5142420000000001  4.5427260000000000  1.5142420000000001
