Na Cu S 
 1.0000000000000000
     3.7151040000000002    0.0000000000000000    0.0000000000000000
     0.0000000000000000    7.1737679999999999    0.0000000000000000
     0.0000000000000000    0.0000000000000000   14.4287109999999998
 Na  Cu  S  
   6   8   8
Cartesian
  0.0000000000000000  3.4312204081680000 10.6296602511219991
  0.0000000000000000  3.7425475918319999  3.7990507488779994
  0.0000000000000000  0.1556635918320000  3.4153047511220000
  1.8575520000000001  3.5868840000000000  7.2143554999999999
  1.8575520000000001  0.0000000000000000  0.0000000000000000
  0.0000000000000000  7.0181044081680000 11.0134062488780007
  1.8575520000000001  6.6042138634079999  8.4825814820560002
  0.0000000000000000  2.3913540414960002  0.8756207557460000
  1.8575520000000001  3.0173298634079999 13.1604850179439996
  0.0000000000000000  5.9782380414959997  6.3387347442539994
  1.8575520000000001  0.5695541365920000  5.9461295179440006
  0.0000000000000000  1.1955299585040000  8.0899762557460004
  0.0000000000000000  4.7824139585040006 13.5530902442539993
  1.8575520000000001  4.1564381365919996  1.2682259820560000
  1.8575520000000001  5.6406189981120001  5.0405547581620000
  1.8575520000000001  5.1200330018880003 12.2549102581620009
  1.8575520000000001  2.0537349981119997  2.1738007418379999
  0.0000000000000000  5.3366521004159999  8.5316390994560010
  0.0000000000000000  1.7497681004159999 13.1114274005439988
  0.0000000000000000  1.8371158995839998  5.8970719005439998
  0.0000000000000000  5.4239998995839995  1.3172835994559999
  1.8575520000000001  1.5331490018879999  9.3881562418379989
