Li Sb
 1.0000000000000000
     7.9538419999999999    0.0000000000000000    0.0000000000000000
    -3.9769209999999999    6.8882289999999999    0.0000000000000000
     0.0000000000000000    0.0000000000000000    6.4028340000000004
 Li  Sb 
  12   6
Cartesian
  2.3546633395219998  0.0000000000000000  0.0000000000000000
  2.7995893302389998  4.8490307986110004  3.2014170000000002
 -1.1773316697609999  2.0391982013890000  3.2014170000000002
 -1.1773316697609999  2.0391982013890000  0.0000000000000000
  2.7995893302389998  4.8490307986110004  0.0000000000000000
  2.3546633395219998  0.0000000000000000  3.2014170000000002
  5.0059055626189997  0.0067297997330000  1.6007085000000001
  1.4797924194949998  2.5496297467470002  1.6007085000000001
  5.4450610409649993  4.3318763417490000  1.6007085000000001
  1.0289845626190004  6.8814992002670001  4.8021255000000007
  1.4681479948070002  2.5563526582509999  4.8021255000000007
 -2.4971246035840000  4.3386061414819999  4.8021255000000007
  0.0000000000000000  0.0000000000000000  1.6007085000000001
  0.0000000000000000  0.0000000000000000  4.8021255000000007
 -0.0000039769209999  4.5921549627429998  0.0160967246760000
 -0.0000039769209999  4.5921549627429998  3.1853202753240000
  3.9769249769210004  2.2960740372570001  6.3867372753240002
  3.9769249769210004  2.2960740372570001  3.2175137246760004
