Ce Rh
 1.0000000000000000
     4.6350030000000002    0.0000200000000000    2.6760459999999999
     1.5450189999999999    4.3698649999999999    2.6760480000000002
    -0.0000110000000000   -0.0000050000000000    5.3521089999999996
 Ce  Rh 
   2   4
Cartesian
  0.7724519346270000  0.5461869312800001  1.3380467835670000
  5.4075590653729995  3.8236930687199999  9.3661562164329997
  2.3174960000000002  0.0000075000000000  4.0140775000000000
  0.7725040000000000  2.1849300000000000  4.0140785000000001
  3.0900055000000002  2.1849400000000001  5.3521014999999998
  3.0900110000000001  2.1849425000000000  2.6760470000000001
