Mg Ti Ir
 1.0000000000000000
     0.0003890000000000    3.0774859999999999    3.0774859999999999
     3.0774859999999999    0.0003890000000000    3.0774859999999999
     3.0774859999999999    3.0774859999999999    0.0003890000000000
 Mg  Ti  Ir 
   1   1   2
Cartesian
  1.5388402500000000  1.5388402500000000  1.5388402500000000
  4.6165207500000003  4.6165207500000003  4.6165207499999994
  0.0000369321660000  0.0000369321660000  0.0000369321660000
  3.0776435678339999  3.0776435678339999  3.0776435678339999
