Nb Tl Se
 1.0000000000000000
    -3.9787530000000002   -3.9787530000000002    3.9787530000000002
    -3.9787530000000002    3.9787530000000002   -3.9787530000000002
     3.9787530000000002   -3.9787530000000002   -3.9787530000000002
 Nb  Tl  Se 
   1   3   4
Cartesian
  0.0000000000000000  0.0000000000000000  0.0000000000000000
 -3.9787530000000002  0.0000000000000000  0.0000000000000000
  0.0000000000000000 -3.9787530000000002  0.0000000000000000
  0.0000000000000000  0.0000000000000000 -3.9787530000000002
 -2.5850117391119998 -2.5850117391119998 -2.5850117391120002
 -1.3937412608880000 -1.3937412608880000  1.3937412608880000
 -1.3937412608880000  1.3937412608880000 -1.3937412608880000
  1.3937412608880000 -1.3937412608880000 -1.3937412608880000
