Ti Al
 1.0000000000000000
     2.8242989999999999    0.0000000000000000    0.0000000000000000
     0.0000000000000000    2.8242989999999999    0.0000000000000000
     0.0000000000000000    0.0000000000000000    4.0671030000000004
 Ti  Al 
   1   1
Cartesian
  1.4121494999999999  1.4121494999999999  2.0335515000000002
  0.0000000000000000  0.0000000000000000  0.0000000000000000
