Zr Cu Si As
 1.0000000000000000
     3.6795900000000001    0.0000000000000000    0.0000000000000000
     0.0000000000000000    3.6795900000000001    0.0000000000000000
     0.0000000000000000    0.0000000000000000    9.6702320000000004
 Zr  Cu  Si  As 
   2   2   2   2
Cartesian
  0.0000000000000000  1.8397950000000001  7.5221736956080010
  1.8397950000000001  0.0000000000000000  2.1480583043919999
  0.0000000000000000  0.0000000000000000  4.8351160000000002
  1.8397950000000001  1.8397950000000001  4.8351160000000002
  1.8397950000000001  1.8397950000000001  0.0000000000000000
  0.0000000000000000  0.0000000000000000  0.0000000000000000
  0.0000000000000000  1.8397950000000001  3.1072292760080003
  1.8397950000000001  0.0000000000000000  6.5630027239919997
