Li C 
 1.0000000000000000
     3.2094779999999998    0.0000000000000000    1.6119349999999999
     1.4266630000000000    3.5653290000000002    1.1605310000000000
    -0.0052800000000000   -0.0235130000000000    4.0116319999999996
 Li  C  
   2   2
Cartesian
  3.4922676379299999  2.6184858196960001  5.0500004217679999
  1.1385933620699999  0.9233301803039999  1.7340975782319996
  1.2401438325920000  3.0978607964480003  1.5319040118559999
  0.1812391674080000  0.4439552035520001  3.6402589881439997
