Zn Ni Rh
 1.0000000000000000
     0.0000000000000000    2.9266090000000000    2.9266090000000000
     2.9266090000000000    0.0000000000000000    2.9266090000000000
     2.9266090000000000    2.9266090000000000    0.0000000000000000
 Zn  Ni  Rh 
   2   1   1
Cartesian
  0.0000000000000000  0.0000000000000000  0.0000000000000000
  2.9266031467820000  2.9266031467820000  2.9266031467820000
  1.4633045000000000  1.4633045000000000  1.4633045000000000
  4.3899193532180005  4.3899193532180005  4.3899193532180005
