Cs U  O 
 1.0000000000000000
     4.2254719999999999    0.0000000000000000   -1.2001560000000000
    -0.3408780000000000    4.2116980000000002   -1.2001560000000000
     0.0156850000000000    0.0170050000000000    8.0937529999999995
 Cs  U   O  
   2   1   4
Cartesian
  1.3437747944920000  1.4569274373240000  4.7311169826819999
  2.5565042055079994  2.7717755626759999  0.9623240173179998
  0.0000000000000000  0.0000000000000000  0.0000000000000000
  3.3943638786329999  3.6801872633610002  3.9122401393110002
  0.5059151213670000  0.5485157366390000  1.7812008606889997
 -0.1704390000000000  2.1058490000000001 -0.6000780000000000
  2.1127359999999999  0.0000000000000000 -0.6000780000000000
