Li Y  Si
 1.0000000000000000
     7.1619619999999999    0.0000000000000000    0.0000000000000000
     0.0000000000000000    7.1619619999999999    0.0000000000000000
     0.0000000000000000    0.0000000000000000    4.1892090000000000
 Li  Y   Si 
   2   4   4
Cartesian
  0.0000000000000000  0.0000000000000000  0.0000000000000000
  3.5809810000000000  3.5809810000000000  0.0000000000000000
  4.8620268190160001  5.8809161809839994  2.0946045000000000
  2.2999351809839998  1.2810458190159999  2.0946045000000000
  1.2810458190159999  4.8620268190160001  2.0946045000000000
  5.8809161809839994  2.2999351809839998  2.0946045000000000
  6.3170653428599994  4.4258776571400000  0.0000000000000000
  0.8448966571400001  2.7360843428599999  0.0000000000000000
  2.7360843428599999  6.3170653428599994  0.0000000000000000
  4.4258776571400000  0.8448966571400001  0.0000000000000000
