Li B  Ir
 1.0000000000000000
     5.3046759999999997   -0.0003130000000000   -1.5502670000000001
    -2.6542560000000002    4.5928740000000001   -1.5502670000000001
    -0.0051640000000000   -0.0089480000000000    6.0667169999999997
 Li  B   Ir 
   4   4   4
Cartesian
  1.3252099999999998  2.2962804999999999 -1.5502670000000001
  2.6497560000000000 -0.0046305000000000  2.2582249999999999
  1.3226279999999997  2.2918064999999999  1.4830914999999998
 -1.3271280000000001  2.2964370000000001 -0.7751335000000000
  4.8892705030760002  0.2304759202090000  2.9997707499999997
  2.9021195030759999  1.3832466702090001 -0.0335877500000001
 -0.2568635030760004  3.2003663297910001  2.9997707499999997
 -2.2440145030760004  4.3531370797910007 -0.0335877500000001
  1.3475035937800000  0.0368896357610000 -0.3145840185340000
  1.2977524062199997  4.5467233642390008  3.2807670185340001
 -0.6448114062200000  1.1807123857610002  2.7187744814659993
  3.2900674062199999  3.4029006142389999  0.2474085185339998
