Pr Cu O 
 1.0000000000000000
     3.7927430000000002    0.0000000000000000   -1.1677660000000001
    -0.3595500000000000    3.7756620000000001   -1.1677660000000001
     0.0187470000000000    0.0206170000000000    6.8039199999999997
 Pr  Cu  O  
   2   1   4
Cartesian
  2.2327535999530004  2.4554759562240003  0.5086403734519995
  1.2191864000469999  1.3408030437760001  3.9597476265479998
  0.0000000000000000  0.0000000000000000  0.0000000000000000
  0.6878967500000001  2.8420549999999998  2.2341939999999996
  2.7640432500000003  0.9542240000000001  2.2341939999999996
 -0.1797750000000000  1.8878310000000000 -0.5838830000000000
  1.8963715000000001  0.0000000000000000 -0.5838830000000000
