Al Fe Co
 1.0000000000000000
     5.7031980000000004    0.0000000000000000   -0.0000010000000000
     0.0000000000000000    5.7031980000000004    0.0000000000000000
    -0.0000010000000000    0.0000000000000000    5.7031980000000004
 Al  Fe  Co 
   4   4   8
Cartesian
  0.0000000000000000  0.0000000000000000  0.0000000000000000
 -0.0000005000000000  2.8515990000000002  2.8515990000000002
  2.8515985000000001  0.0000000000000000  2.8515985000000001
  2.8515990000000002  2.8515990000000002 -0.0000005000000000
  2.8515990000000002  0.0000000000000000 -0.0000005000000000
  2.8515985000000001  2.8515990000000002  2.8515985000000001
 -0.0000005000000000  0.0000000000000000  2.8515990000000002
  0.0000000000000000  2.8515990000000002  0.0000000000000000
  4.2773982500000001  1.4257995000000001  1.4257987500000000
  1.4257987500000000  4.2773985000000003  4.2773982500000001
  4.2773977500000004  4.2773985000000003  4.2773977500000004
  1.4257992500000001  1.4257995000000001  1.4257992500000001
  1.4257987500000000  1.4257995000000001  4.2773982500000001
  4.2773982500000001  4.2773985000000003  1.4257987500000000
  1.4257992500000001  4.2773985000000003  1.4257992500000001
  4.2773977500000004  1.4257995000000001  4.2773977500000004
