Sr Sn
 1.0000000000000000
     4.5571929999999998    0.0000000000000000    0.0000000000000000
     0.0000000000000000    4.6948580000000000   -1.9672410000000000
     0.0000000000000000   -0.0176070000000000    6.5437909999999997
 Sr  Sn 
   2   2
Cartesian
  1.1392982500000000  4.0490005187680005  3.0772166636519995
  3.4178947499999999  0.6282504812320000  1.4993333363479999
  1.1392982500000000  2.7127171493429998 -0.1118590314370000
  3.4178947499999999  1.9645338506569998  4.6884090314369997
