Mg Ag Sb
 1.0000000000000000
     3.2566060000000001    3.2566060000000001    0.0000000000000000
     3.2566060000000001    0.0000000000000000   -3.2566060000000001
     0.0000000000000000    3.2566060000000001   -3.2566060000000001
 Mg  Ag  Sb 
   1   1   1
Cartesian
  3.2566060000000001  3.2566060000000001 -3.2566060000000001
  4.8849090000000004  4.8849090000000004 -4.8849090000000004
  0.0000000000000000  0.0000000000000000  0.0000000000000000
