Zr Ga Au
 1.0000000000000000
     4.3423200000000000    0.0000000000000000    0.0000000000000000
    -2.1711610000000001    3.7605599999999999    0.0000000000000000
     0.0000000000000000    0.0000000000000000    6.8067169999999999
 Zr  Ga  Au 
   2   2   2
Cartesian
  0.0000000000000000  0.0000000000000000  3.4033585000000000
  0.0000000000000000  0.0000000000000000  0.0000000000000000
  2.1711618378269999  1.2535187464799999  1.4396342589339999
  2.1711618378269999  1.2535187464799999  5.3670827410660005
 -0.0000028378270001  2.5070412535200002  4.8421078857240003
 -0.0000028378270001  2.5070412535200002  1.9646091142760000
