Sr Al
 1.0000000000000000
     4.1632160000000002   -0.0000000000000000   -1.5552130000000000
    -0.5809670000000000    4.1224800000000004   -1.5552130000000000
     0.0283130000000000    0.0325830000000000    6.4257379999999999
 Sr  Al 
   1   4
Cartesian
  0.0000000000000000  0.0000000000000000  0.0000000000000000
  2.9913267500000003  1.0469115000000000  1.6576560000000000
  0.6192352500000001  3.1081515000000004  1.6576560000000000
  1.3935435700000003  1.6037009121600003  3.7304325080000003
  2.2170184300000004  2.5513620878400003 -0.4151205080000001
