Ti Al Pt
 1.0000000000000000
     4.4419599999999999    0.0000000000000000    0.0000000000000000
    -2.2209800000000000    3.8468499999999999    0.0000000000000000
     0.0000000000000000    0.0000000000000000    5.4444629999999998
 Ti  Al  Pt 
   2   2   2
Cartesian
  0.0000000000000000  0.0000000000000000  0.0000000000000000
  0.0000000000000000  0.0000000000000000  2.7222314999999999
 -0.0000022209800001  2.5645679489500002  1.3611157500000000
  2.2209822209799999  1.2822820510499999  4.0833472500000001
  2.2209822209799999  1.2822820510499999  1.3611157500000000
 -0.0000022209800001  2.5645679489500002  4.0833472500000001
