Li Ir
 1.0000000000000000
     2.6697609999999998    0.0000000000000000    0.0000000000000000
    -1.3348810000000000    2.3120810000000001    0.0000000000000000
     0.0000000000000000    0.0000000000000000    4.4085929999999998
 Li  Ir 
   1   1
Cartesian
 -0.0000016682140001  1.5413881040270001  2.2042964999999999
  0.0000000000000000  0.0000000000000000  0.0000000000000000
