Li Ga Pt
 1.0000000000000000
     3.6773460000000000    0.0000000000000000    2.1231170000000001
     1.2257810000000000    3.4670350000000001    2.1231170000000001
     0.0000000000000000    0.0000000000000000    4.2462320000000000
 Li  Ga  Pt 
   2   1   1
Cartesian
  2.4515634999999998  1.7335175000000000  4.2462330000000001
  1.2257817499999999  0.8667587500000000  2.1231165000000001
  3.6773452500000001  2.6002762500000003  6.3693495000000002
  0.0000000000000000  0.0000000000000000  0.0000000000000000
