Si Rh
 1.0000000000000000
     4.7302780000000002    0.0000000000000000    0.0000000000000000
     0.0000000000000000    4.7302780000000002    0.0000000000000000
     0.0000000000000000    0.0000000000000000    4.7302780000000002
 Si  Rh 
   4   4
Cartesian
  0.7481502290360000  1.6169887709639998  3.1132892290360004
  1.6169887709639998  3.1132892290360004  0.7481502290360000
  3.1132892290360004  0.7481502290360000  1.6169887709639998
  3.9821277709639999  3.9821277709639999  3.9821277709639999
  4.0096816403140005  3.0857353596859998  1.6445426403140000
  3.0857353596859998  1.6445426403140000  4.0096816403140005
  1.6445426403140000  4.0096816403140005  3.0857353596859998
  0.7205963596860000  0.7205963596860000  0.7205963596860000
