Er Mg Sn
 1.0000000000000000
    -2.1757670000000000    2.1757670000000000    7.8864760000000000
     2.1757670000000000   -2.1757670000000000    7.8864760000000000
     2.1757670000000000    2.1757670000000000   -7.8864760000000000
 Er  Mg  Sn 
   2   2   2
Cartesian
  0.0000000000000000 -0.0000000000000000 10.5308902675600002
 -0.0000000000000000  0.0000000000000000  5.2420617324399998
  2.1757670000000000  0.0000000000000000  0.0000000000000000
  0.0000000000000000  2.1757670000000000  0.0000000000000000
  0.0000000000000000 -0.0000000000000000  2.1572981909440001
  0.0000000000000001 -0.0000000000000001 13.6156538090560009
