Ba Pd O 
 1.0000000000000000
    -3.1648499999999999    3.1644369999999999    5.1551989999999996
     3.1650250000000000   -3.1644030000000001    5.1552889999999998
     3.1648529999999999    3.1643979999999998   -5.1551850000000004
 Ba  Pd  O  
   2   4   8
Cartesian
  0.0002441784420002  1.5822383166609999  1.2892681651679998
  3.1647838215579998  1.5821936833389998  3.8660348348319986
  0.0000875000000000  0.0000169999999999  5.1552439999999997
  1.5824265000000000  1.5821989999999999 -2.5775925000000002
  1.5825125000000000 -1.5822015000000000  2.5776444999999999
  3.1649389999999999 -0.0000025000000001  0.0000519999999997
 -1.6522705533139999  2.5205144229989997  5.9953570760009995
 -0.9381107293119996  3.0942364029779994  3.4178872711099997
  0.9387441347909998  0.0699599776000000  3.4177103633829993
  1.5124289947720000  2.5205305196289998 -0.8401093790760003
  1.6525990052280002  0.6439014803709998  5.9954123790759990
  2.2262838652090000  3.0944720223999997  1.7375926366169998
  4.1031387293119996  0.0701955970219998  1.7374157288899996
  4.8172985533140000  0.6439175770009994 -0.8400540760010001
