Sr Ti O 
 1.0000000000000000
     3.8414050000000000    0.0001850000000000   -0.7220490000000001
    -0.1355190000000000    3.8390140000000001   -0.7220490000000001
    -0.0052760000000000   -0.0054660000000000   10.5526020000000003
 Sr  Ti  O  
   3   2   7
Cartesian
  1.1662840999400002  1.2082390745700000  6.2057692947600005
  1.8529430000000000  1.9195995000000001 -0.7220490000000001
  2.5343259000599998  2.6254939254300003  2.9027347052399999
  0.3604577757680000  0.3734245965000000  1.9175907664199998
  3.3401522242320003  3.4603084035000005  7.1909132335800008
  3.4129145641479997  1.5460001292200001  7.5787564823459999
  2.9849383912100005  3.0923163911730001  5.3006939464739995
  0.0000000000000000  0.0000000000000000  0.0000000000000000
  2.2761415281559993  0.3683337260960000  1.5297475176540001
  0.2876954358520000  2.2877328707800002  1.5297475176540001
  1.4244684718439999  3.4653992739040000  7.5787564823459999
  0.7156716087900000  0.7414166088270000  3.8078100535260004
