Sc Ga Pd
 1.0000000000000000
     3.8866179999999999    0.0000000000000000    2.2439410000000000
     1.2955399999999999    3.6643390000000000    2.2439410000000000
     0.0000000000000000    0.0000000000000000    4.4878809999999998
 Sc  Ga  Pd 
   1   1   2
Cartesian
  2.5910789999999997  1.8321695000000000  4.4878815000000003
  0.0000000000000000  0.0000000000000000  0.0000000000000000
  1.2955394999999998  0.9160847500000000  2.2439407500000002
  3.8866185000000000  2.7482542500000000  6.7318222500000005
