Mn Sn Pt
 1.0000000000000000
     6.2220440000000004    0.0000000000000000    0.0000000000000000
     0.0000000000000000    6.2220440000000004    0.0000000000000000
     0.0000000000000000    0.0000000000000000    6.2220440000000004
 Mn  Sn  Pt 
   4   4   4
Cartesian
  0.0000000000000000  0.0000000000000000  0.0000000000000000
  0.0000000000000000  3.1110220000000002  3.1110220000000002
  3.1110220000000002  0.0000000000000000  3.1110220000000002
  3.1110220000000002  3.1110220000000002  0.0000000000000000
  0.0000000000000000  0.0000000000000000  3.1110220000000002
  0.0000000000000000  3.1110220000000002  0.0000000000000000
  3.1110220000000002  0.0000000000000000  0.0000000000000000
  3.1110220000000002  3.1110220000000002  3.1110220000000002
  1.5555110000000001  4.6665330000000003  1.5555110000000001
  1.5555110000000001  1.5555110000000001  4.6665330000000003
  4.6665330000000003  4.6665330000000003  4.6665330000000003
  4.6665330000000003  1.5555110000000001  1.5555110000000001
