Cd Hg
 1.0000000000000000
     4.0383420000000001    0.0000000000000000    0.0000000000000000
     0.0000000000000000    4.0383420000000001    0.0000000000000000
     0.0000000000000000    0.0000000000000000    8.8640220000000003
 Cd  Hg 
   4   2
Cartesian
  2.0191710000000000  2.0191710000000000  7.3897667249820005
  2.0191710000000000  2.0191710000000000  1.4742552750180000
  0.0000000000000000  0.0000000000000000  2.9577557249820003
  0.0000000000000000  0.0000000000000000  5.9062662750179999
  0.0000000000000000  0.0000000000000000  0.0000000000000000
  2.0191710000000000  2.0191710000000000  4.4320110000000001
