Rb Si F 
 1.0000000000000000
     5.1153209999999998    0.0000000000000000    2.9533320000000001
     1.7051060000000000    4.8227700000000002    2.9533320000000001
     0.0000000000000000    0.0000000000000000    5.9066640000000001
 Rb  Si  F  
   2   1   6
Cartesian
  5.1153202499999999  3.6170775000000002  8.8599960000000006
  1.7051067499999999  1.2056925000000001  2.9533320000000001
  0.0000000000000000  0.0000000000000000  0.0000000000000000
  2.4000191514100000  3.8400148660200002  7.6563714500640003
  2.4000191514100000  3.8400148660200002  4.1569565499359999
  4.4204078485900000  0.9827551339800001  7.6563714500640003
  4.4204078485900000  0.9827551339800001  4.1569565499359999
  5.4306013085020002  3.8400148660200002  5.9066640000000001
  1.3898256914980001  0.9827551339800001  5.9066640000000001
