Fe Sb
 1.0000000000000000
     4.0175559999999999    0.0000000000000000    0.0000000000000000
    -2.0087769999999998    3.4793050000000001    0.0000000000000000
     0.0000000000000000    0.0000000000000000    5.0205679999999999
 Fe  Sb 
   2   2
Cartesian
  0.0000000000000000  0.0000000000000000  0.0000000000000000
  0.0000000000000000  0.0000000000000000  2.5102840000000000
 -0.0000013421110000  2.3195378264349999  1.2551420000000000
  2.0087803421110002  1.1597671735649999  3.7654259999999997
