Pr Tl Ag
 1.0000000000000000
     0.0000010000000000    3.8531710000000001    3.8531700000000000
     3.8531719999999998    0.0000010000000000    3.8531689999999998
     3.8531710000000001    3.8531689999999998    0.0000030000000000
 Pr  Tl  Ag 
   2   1   1
Cartesian
  0.0000000000000000  0.0000000000000000  0.0000000000000000
  3.8531797063440001  3.8531782063410001  3.8531787063420002
  5.7797580000000002  5.7797557499999996  5.7797564999999995
  1.9265859999999999  1.9265852500000000  1.9265855000000001
