Hf Cu Sn
 1.0000000000000000
     8.5286050000000007    0.0000000000000000    0.0000000000000000
    -4.2643019999999998    7.3859880000000002    0.0000000000000000
     0.0000000000000000    0.0000000000000000    5.7935670000000004
 Hf  Cu  Sn 
  10   2   6
Cartesian
 -0.0000039309690000  4.9239944619960001  0.0000000000000000
  4.2643069309690009  2.4619935380040001  2.8967835000000002
  4.2643069309690009  2.4619935380040001  0.0000000000000000
 -0.0000039309690000  4.9239944619960001  2.8967835000000002
  2.2329081894700002  0.0000000000000000  1.4483917500000001
  1.1164542256420003  1.9337550622319999  4.3451752500000005
 -3.1478480361719998  5.4522329377680006  4.3451752500000005
 -1.1164539638280000  1.9337550622319999  1.4483917500000001
  3.1478487743580010  5.4522329377680006  1.4483917500000001
  6.2956968105300009  0.0000000000000000  4.3451752500000005
  0.0000000000000000  0.0000000000000000  0.0000000000000000
  0.0000000000000000  0.0000000000000000  2.8967835000000002
  5.2225509719850010  0.0000000000000000  1.4483917500000001
  2.6112757921710008  4.5228614537160006  4.3451752500000005
 -1.6530268201859999  2.8631265462840001  4.3451752500000005
 -2.6112751798140001  4.5228614537160006  1.4483917500000001
  1.6530272078290007  2.8631265462840001  1.4483917500000001
  3.3060540280150006  0.0000000000000000  4.3451752500000005
