La As
 1.0000000000000000
     3.7955880000000000    0.0000000000000000    2.1913830000000001
     1.2651960000000000    3.5785149999999999    2.1913830000000001
    -0.0000000000000000   -0.0000000000000000    4.3827670000000003
 La  As 
   1   1
Cartesian
  0.0000000000000000  0.0000000000000000  0.0000000000000000
  2.5303920000000000  1.7892574999999999  4.3827665000000007
