Cs Pd I  Br
 1.0000000000000000
    -4.3493690000000003    4.3493690000000003    4.5660059999999998
     4.3493690000000003   -4.3493690000000003    4.5660059999999998
     4.3493690000000003    4.3493690000000003   -4.5660059999999998
 Cs  Pd  I   Br 
   2   1   2   4
Cartesian
 -0.0000000000000004  4.3493690000000012  2.2830029999999999
  4.3493690000000003  0.0000000000000000  2.2830029999999999
  0.0000000000000000  0.0000000000000000  0.0000000000000000
  0.0000000000000000 -0.0000000000000000  3.1266821926440000
 -0.0000000000000000  0.0000000000000000  6.0053298073559995
  1.7555097132560000  1.7555097132560000 -0.0000000000000000
  2.5938592867440002 -2.5938592867440002  4.5660059999999998
 -2.5938592867440002  2.5938592867440002  4.5660059999999998
  2.5938592867440002  2.5938592867440002  4.5660059999999998
