Y  Ge Rh
 1.0000000000000000
     3.8518059999999998    0.0000000000000000   -1.4366209999999999
    -0.5358200000000000    3.8143549999999999   -1.4366209999999999
     0.0123440000000000    0.0141990000000000    5.9150590000000003
 Y   Ge  Rh 
   1   2   2
Cartesian
  0.0000000000000000  0.0000000000000000  0.0000000000000000
  2.0655051178900004  2.3759357247049997 -0.3440164811399998
  1.2628248821100001  1.4526182752950001  3.3858334811400002
  2.7610714999999999  0.9606882500000000  1.5209085000000002
  0.5672585000000000  2.8678657500000000  1.5209085000000002
