Tl P  S 
 1.0000000000000000
     6.0547480000000000    0.0000000000000000    3.4743210000000002
     2.6588150000000002    6.0221049999999998    2.3794529999999998
     0.0076460000000000   -0.0347250000000000    6.9996840000000002
 Tl  P   S  
   2   2   6
Cartesian
  0.6980634309800000  1.5425946685999998  5.7964834429800005
  1.9683975690200002  4.4447853314000003  3.5826535570200000
  4.9113434455539995  2.0204892800400001  5.4669483977280002
  3.8098655544459996  3.9668907199599999  7.3865096022719996
  3.8456093593679999  1.3348743962400000  3.9566138684310004
  8.0228818700240012  4.6525056037599999 10.7028100846530005
  3.8506786545399998  1.8287193177999999  7.3153842305399994
  4.8705303454600006  4.1586606821999998  5.5380737694599995
  4.8755996406320001  4.6525056037599999  8.8968441315689990
  0.6983271299760000  1.3348743962400000  2.1506479153470002
