Cs Rb In F 
 1.0000000000000000
     0.0000000000000000    4.8192589999999997    4.8192589999999997
     4.8192589999999997    0.0000000000000000    4.8192589999999997
     4.8192589999999997    4.8192589999999997    0.0000000000000000
 Cs  Rb  In  F  
   2   1   1   6
Cartesian
  7.2288885000000001  7.2288885000000001  7.2288885000000001
  2.4096294999999999  2.4096294999999999  2.4096294999999999
  4.8192589999999997  4.8192589999999997  4.8192589999999997
  0.0000000000000000  0.0000000000000000  0.0000000000000000
  2.1149703662219999  4.8192589999999997  4.8192589999999997
  4.8192589999999997  4.8192589999999997  2.1149703662219999
  7.5235476337779996  4.8192589999999997  4.8192589999999997
  4.8192589999999997  2.1149703662219999  4.8192589999999997
  4.8192589999999997  7.5235476337779996  4.8192589999999997
  4.8192589999999997  4.8192589999999997  7.5235476337779996
