Sm Tl Cd
 1.0000000000000000
     0.0000000000000000    3.8209979999999999    3.8209979999999999
     3.8209979999999999    0.0000000000000000    3.8209979999999999
     3.8209979999999999    3.8209979999999999    0.0000000000000000
 Sm  Tl  Cd 
   2   1   1
Cartesian
  1.9104989999999999  1.9104989999999999  1.9104989999999999
  5.7314970000000001  5.7314970000000001  5.7314970000000001
  0.0000000000000000  0.0000000000000000  0.0000000000000000
  3.8209979999999999  3.8209979999999999  3.8209979999999999
