U 
 1.0000000000000000
     2.7707519999999999    0.0000000000000000    0.0000000000000000
    -1.3853750000000000    2.9246059999999998    0.0000000000000000
     0.0000000000000000    0.0000000000000000    4.8501060000000003
 U  
   2
Cartesian
  0.0000001925340000  0.5630860916040000  3.6375795000000002
  1.3853781928409998  2.3615169837899996  1.2125265000000001
