Sb Ru
 1.0000000000000000
     3.2267939999999999    0.0000000000000000    0.0000000000000000
     0.0000000000000000    6.0246199999999996    0.0000000000000000
     0.0000000000000000    0.0000000000000000    6.7487480000000000
 Sb  Ru 
   4   2
Cartesian
  0.0000000000000000  1.0996738885999999  2.4125154400480002
  0.0000000000000000  4.9249461113999997  4.3362325599520002
  1.6133970000000000  4.1119838885999993  0.9618585599520001
  1.6133970000000000  1.9126361113999997  5.7868894400480002
  0.0000000000000000  0.0000000000000000  0.0000000000000000
  1.6133970000000000  3.0123099999999998  3.3743740000000000
