Li Y  S 
 1.0000000000000000
     6.2376500000000004   -1.9534260000000001   -0.0065510000000000
     6.2376500000000004    1.9534260000000001   -0.0065510000000000
     5.6293970000000000    0.0000000000000000    3.3217599999999998
 Li  Y   S  
   1   1   2
Cartesian
  9.0523485000000008  0.0000000000000000  1.6543289999999999
  0.0000000000000000  0.0000000000000000  0.0000000000000000
  4.5182624974110004 -0.0000000000000000  0.8257186164540000
 13.5864345025890003 -0.0000000000000001  2.4829393835459999
