Ho Cd
 1.0000000000000000
     5.7462080000000002    0.4918400000000000    1.6230110000000000
    -2.4475090000000002    4.2394140000000000    0.0010250000000000
     1.1281170000000000    0.6521160000000000    3.2092170000000002
 Ho  Cd 
   1   2
Cartesian
  1.1281158718830000  0.6521153478840001  3.2092137907830001
  3.9557119528149998  2.2850752452740002  3.7609158263799998
  0.4711051753019999  3.0982954068419999  1.0723403828370000
