Al Ru Pt
 1.0000000000000000
    -0.0000000000000000    3.0039039999999999    3.0039039999999999
     3.0039039999999999   -0.0000000000000000    3.0039039999999999
     3.0039039999999999    3.0039039999999999   -0.0000000000000000
 Al  Ru  Pt 
   2   1   1
Cartesian
  3.0039100078079999  3.0039100078079999  3.0039100078079999
  6.0078079999999998  6.0078079999999998  6.0078079999999998
  4.5058499921920001  4.5058499921920001  4.5058499921920001
  1.5019520000000000  1.5019520000000000  1.5019520000000000
