Sr Se
 1.0000000000000000
     3.8453430000000002   -0.0000000000000000    2.2201100000000000
     1.2817799999999999    3.6254260000000000    2.2201100000000000
    -0.0000000000000000   -0.0000000000000000    4.4402229999999996
 Sr  Se 
   1   1
Cartesian
  0.0000000000000000  0.0000000000000000  0.0000000000000000
  2.5635615000000000  1.8127130000000000  4.4402214999999998
