Zr Pd
 1.0000000000000000
     3.2132749999999999    0.0000000000000000   -1.0386070000000001
     0.0000000000000000    4.3325019999999999    0.0000000000000000
    -0.0046920000000000    0.0000000000000000    5.4754519999999998
 Zr  Pd 
   2   2
Cartesian
  2.7574174771619999  1.0831255000000000  3.0410151610539997
  0.4511655228380000  3.2493764999999999  1.3958298389460000
  1.8925655624800000  1.0831255000000000  0.3652931071120000
  1.3160174375199998  3.2493764999999999  4.0715518928879995
