Ba Sn Pd
 1.0000000000000000
     4.5842020000000003   -0.0000000000000000   -1.8321040000000000
    -0.7322120000000000    4.5253480000000001   -1.8321040000000000
    -0.0089940000000000   -0.0105670000000000    6.6287300000000000
 Ba  Sn  Pd 
   1   3   1
Cartesian
  3.8429538349720005  4.5147314642129999  2.9644098454980004
  3.2488340250780001  1.1239770573460002  1.4778385108280003
  1.5817366951100003  1.8582360067700001  3.9577440788600002
  0.5906270250780000  3.3866510573460000  1.4778385108280001
  2.5025445527560004  2.9400086928920000 -0.3894899507439998
