Ho Fe
 1.0000000000000000
     0.0000000000000000    3.6422859999999999    3.6422859999999999
     3.6422859999999999    0.0000000000000000    3.6422859999999999
     3.6422859999999999    3.6422859999999999    0.0000000000000000
 Ho  Fe 
   2   4
Cartesian
  5.4634289999999996  5.4634289999999996  5.4634289999999996
  3.6422859999999999  3.6422859999999999  3.6422859999999999
  2.7317144999999998  0.9105715000000000  2.7317144999999998
  2.7317144999999998  2.7317144999999998  0.9105715000000000
  0.9105715000000000  2.7317144999999998  2.7317144999999998
  0.9105715000000000  0.9105715000000000  0.9105715000000000
