Nb Sb
 1.0000000000000000
    10.4288930000000004    0.0000000000000000    0.0000000000000000
     0.0000000000000000   10.4288930000000004    0.0000000000000000
     0.0000000000000000    0.0000000000000000    3.5804429999999998
 Nb  Sb 
  10   8
Cartesian
  0.0000000000000000  0.0000000000000000  0.0000000000000000
  1.9641151342620000  9.1004710385529997  1.7902214999999999
  9.1004710385529997  8.4647778657380002  1.7902214999999999
  1.3284219614469999  1.9641151342620000  1.7902214999999999
  8.4647778657380002  1.3284219614469999  1.7902214999999999
  5.2144465000000002  5.2144465000000002  1.7902214999999999
  7.1785616342620004  3.8860245385529999  0.0000000000000000
  3.8860245385529999  3.2503313657380000  0.0000000000000000
  6.5428684614470001  7.1785616342620004  0.0000000000000000
  3.2503313657380000  6.5428684614470001  0.0000000000000000
  9.8721778338739998  3.0585127367890004  0.0000000000000000
  3.0585127367890004  0.5567151661260000  0.0000000000000000
  7.3703802632110005  9.8721778338739998  0.0000000000000000
  0.5567151661260000  7.3703802632110005  0.0000000000000000
  4.6577313338740005  8.2729592367890010  1.7902214999999999
  8.2729592367890010  5.7711616661260008  1.7902214999999999
  2.1559337632109998  4.6577313338740005  1.7902214999999999
  5.7711616661260008  2.1559337632109998  1.7902214999999999
