Na Zr Si O 
 1.0000000000000000
     7.9305079999999997   -4.6631369999999999    0.0000000000000000
     7.9305079999999997    4.6631369999999999    0.0000000000000000
     5.1885839999999996    0.0000000000000000    7.5971299999999999
 Na  Zr  Si  O  
   8   4   6  24
Cartesian
  0.0000000000000000  0.0000000000000000  0.0000000000000000
  7.8566919999999998 -1.2333344525820000  5.6978475000000000
  8.8650537444679998  2.9482357262910002  2.9039497625899999
  9.5902542555320007 -1.7149012737090001  0.8946152374100000
 11.4593457444679991  1.7149012737089999  6.7025147625899999
 12.1845462555319983 -2.9482357262910002  4.6931802374100000
 10.5247999999999990  0.0000000000000000  3.7985650000000000
 13.1929079999999992  1.2333344525820000  1.8992825000000000
  7.4412861951999991  0.0000000000000001  2.6856766205599998
 17.9660861951999991 -0.0000000000000001  6.4842416205600006
 13.6083138047999981  0.0000000000000001  4.9114533794399993
  3.0835138047999999  0.0000000000000000  1.1128883794400000
 13.1929079999999992 -1.8933548635619999  1.8992825000000000
  8.6710077829879992 -3.2782459317810000  3.4415986526899998
 12.3785922170119989  3.2782459317810000  4.1555313473100002
  7.8566919999999998  1.8933548635619999  5.6978475000000000
  9.7843002170119995  1.3848910682190001  0.3569663473100000
 11.2652997829880004 -1.3848910682190001  7.2401636526899997
 15.0891238728480008  0.8048387936520002  3.7235281469899997
 14.0275167062239987  1.0006159374599999  6.6649545518700002
 14.5007618209279983 -1.8054547311119999  5.3537203023899993
  9.6163752937759988 -3.6625210625399998  4.7307404481299997
 11.2966921271520011  0.8048387936520005  0.0750368530100000
  9.1431301790719992  2.8576822688879995  6.0419746976100006
  5.9604761271519990 -0.8048387936519998  3.8736018530100003
  7.0220832937760003 -1.0006159374600001  0.9321754481300000
  6.5488381790719998  1.8054547311119999  2.2434096976099998
 11.4332247062239976  3.6625210625399998  2.8663895518699998
  9.7529078728479988 -0.8048387936520000  7.5220931469899996
 11.9064698209279989 -2.8576822688879999  1.5551553023900000
 12.3378161171040013  1.6418625588780000  4.2926595438100001
 11.7783512022199996 -0.6903914222609998  5.8427855461400000
 12.7437661910759985 -0.9514711366169999  3.1678816559200000
 11.8655407977799996  3.9727455777389999  5.5529094538599999
 11.3060758828959980 -3.0212744411219998  7.1030354561899998
 13.6420498089239999 -0.9514711366169998  0.6306833440800000
  7.4075501910759991  0.9514711366169999  6.9664466559200005
  9.7435241171039983  3.0212744411219998  0.4940945438100000
  9.1840592022200003 -3.9727455777389999  2.0442205461400000
  8.3058338089239996  0.9514711366169999  4.4292483440799995
  9.2712487977800002  0.6903914222609998  1.7543444538599999
  8.7117838828959986 -1.6418625588780000  3.3044704561899998
