Li Sn N 
 1.0000000000000000
     3.2583009999999999   -0.0000020000000000   -0.0000010000000000
    -1.6291519999999999    2.8217750000000001    0.0000000000000000
    -0.0000030000000000   -0.0000020000000000    5.4290900000000004
 Li  Sn  N  
   2   1   2
Cartesian
  1.6291504910830001  0.9405886340290001  2.0595571993730002
 -0.0000044910830000  1.8811823659710001  3.3695318006270001
  0.0000000000000000  0.0000000000000000  0.0000000000000000
  1.6291509377160001  0.9405906674580001  4.1995524628520000
 -0.0000049377159998  1.8811803325420000  1.2295365371480000
