Lu Co
 1.0000000000000000
     4.3164720000000001    0.0000130000000000    2.4921310000000001
     1.4387980000000000    4.0697010000000002    2.4921980000000001
    -0.0000070000000000    0.0000800000000000    4.9842740000000001
 Lu  Co 
   2   4
Cartesian
  5.0358810238949996  3.5610697493580004  8.7224977193199997
  0.7193819761050001  0.5087242506420000  1.2461052806800001
  2.8776315000000001  2.0348970000000000  4.9843015000000008
  2.8776350000000002  2.0348570000000001  2.4921645000000003
  0.7193955000000000  2.0348904999999999  3.7382360000000001
  2.1582325000000000  0.0000465000000000  3.7382024999999999
