Ca Ga Ni
 1.0000000000000000
     5.9827159999999999    0.0000000000000000   -2.1152090000000001
    -2.9913580000000000    5.1811840000000000   -2.1152090000000001
     0.0000000000000000    0.0000000000000000    6.3456289999999997
 Ca  Ga  Ni 
   3   4   4
Cartesian
 -1.4956790000000000  2.5905920000000000  2.1152099999999998
  2.9913580000000000  0.0000000000000000  2.1152099999999998
  1.4956790000000000  2.5905920000000000 -2.1152090000000001
  0.0000000000000000  0.0000000000000000  3.8705227541789999
  3.6491636069160003  0.0000000000000000 -1.2901738447590001
  1.1667761965419998  2.0209156380160000  0.8250359353389998
 -1.8245818034580001  3.1602683619840000 -1.2901738447590001
 -0.7325626346940000  1.2688356933120000 -0.5179998776370001
  1.4651252693879999  0.0000000000000000 -0.5179998776370001
  0.0000000000000000  0.0000000000000000  1.5540001226969999
  2.2587953653059998  3.9123483066880000  1.5972106325769995
