Mn Cu Sn Se
 1.0000000000000000
    -2.8973499999999999    2.8973499999999999    5.7414100000000001
     2.8973499999999999   -2.8973499999999999    5.7414100000000001
     2.8973499999999999    2.8973499999999999   -5.7414100000000001
 Mn  Cu  Sn  Se 
   1   2   1   4
Cartesian
  0.0000000000000000  0.0000000000000000  0.0000000000000000
  2.8973499999999999  0.0000000000000000  2.8707050000000001
 -0.0000000000000002  2.8973500000000003  2.8707050000000001
  0.0000000000000000  0.0000000000000000  5.7414100000000001
  1.4957946030500000 -1.4957946030500000  7.3030677785900000
  1.4957946030500000  1.4957946030500000  4.1797522214100002
  1.4015553969499999  1.4015553969499999 -1.5616577785899999
 -1.4957946030500002  1.4957946030500002  7.3030677785900000
