Tm Bi Br O 
 1.0000000000000000
     3.8903040000000000    0.0000000000000000    0.0000000000000000
     0.0000000000000000    3.8903040000000000    0.0000000000000000
     0.0000000000000000    0.0000000000000000    9.2595630000000000
 Tm  Bi  Br  O  
   1   2   1   4
Cartesian
  0.0000000000000000  0.0000000000000000  0.0000000000000000
  1.9451520000000000  1.9451520000000000  2.4876186382020000
  1.9451520000000000  1.9451520000000000  6.7719443617980009
  0.0000000000000000  0.0000000000000000  4.6297815000000000
  0.0000000000000000  1.9451520000000000  1.3542296078759999
  0.0000000000000000  1.9451520000000000  7.9053333921239997
  1.9451520000000000  0.0000000000000000  1.3542296078759999
  1.9451520000000000  0.0000000000000000  7.9053333921239997
