Ti Cu Sb
 1.0000000000000000
     3.8081700000000001    0.0000000000000000    0.0000000000000000
     0.0000000000000000    3.8081700000000001    0.0000000000000000
     0.0000000000000000    0.0000000000000000    8.2830899999999996
 Ti  Cu  Sb 
   2   1   3
Cartesian
  0.0000000000000000  1.9040850000000000  2.1768623167199999
  1.9040850000000000  0.0000000000000000  6.1062276832799993
  0.0000000000000000  0.0000000000000000  0.0000000000000000
  0.0000000000000000  1.9040850000000000  5.1777429928199998
  1.9040850000000000  0.0000000000000000  3.1053470071799998
  1.9040850000000000  1.9040850000000000  0.0000000000000000
