Mg In
 1.0000000000000000
     3.2157119999999999    0.0000000000000000    0.0000000000000000
     0.0000000000000000    3.2157119999999999    0.0000000000000000
     0.0000000000000000    0.0000000000000000    4.3784619999999999
 Mg  In 
   1   1
Cartesian
  1.6078560000000000  1.6078560000000000  2.1892309999999999
  0.0000000000000000  0.0000000000000000  0.0000000000000000
