Hf Ga Sb
 1.0000000000000000
     3.9075639999999998    0.0000000000000000    0.0000000000000000
     0.0000000000000000    3.9075639999999998    0.0000000000000000
     0.0000000000000000    0.0000000000000000    8.6803019999999993
 Hf  Ga  Sb 
   2   1   3
Cartesian
  1.9537819999999999  0.0000000000000000  6.4223384422499992
  0.0000000000000000  1.9537819999999999  2.2579635577499997
  1.9537819999999999  1.9537819999999999  0.0000000000000000
  1.9537819999999999  0.0000000000000000  3.3292517093820000
  0.0000000000000000  1.9537819999999999  5.3510502906179997
  0.0000000000000000  0.0000000000000000  0.0000000000000000
