Cu Pt
 1.0000000000000000
     1.3719440000000001   -0.7920920000000000    4.3166010000000004
     0.0000000000000000    1.5841850000000000    4.3166010000000004
    -1.3719440000000001   -0.7920920000000000    4.3166010000000004
 Cu  Pt 
   1   1
Cartesian
  0.0000000000000000  0.0000000000000000  0.0000000000000000
  0.0000000000000000  0.0000005000000000  6.4749015000000005
