Sb O 
 1.0000000000000000
     5.5090880000000002    0.0000000000000000    0.0000000000000000
     0.0000000000000000   12.6073769999999996    0.0000000000000000
     0.0000000000000000    0.0000000000000000    5.1806770000000002
 Sb  O  
   8  12
Cartesian
  4.5331475517120001 11.0055971447729988  4.9085619405749998
  3.7304844482879997  1.6017798552269999  2.3182234405750002
  4.5331475517120001  7.9054683552269998  2.8624535594250005
  3.7304844482879997  4.7019086447729999  0.2721150594250000
  0.9759404482880001  1.6017798552269999  0.2721150594250000
  1.7786035517120000 11.0055971447729988  2.8624535594250005
  0.9759404482880001  4.7019086447729999  2.3182234405750002
  1.7786035517120000  7.9054683552269998  4.9085619405749998
  5.4236034815040002  9.4555327499999997  3.8855077500000004
  2.8400285184960001  3.1518442499999999  1.2951692500000000
  0.0854845184960000  3.1518442499999999  1.2951692500000000
  2.6690594815040001  9.4555327499999997  3.8855077500000004
  0.8061834106560000 11.8766912512109997  4.4048706192499996
  1.9483605893440001  0.7306857487889999  1.8145321192500001
  0.8061834106560000  7.0343742487890006  3.3661448807500003
  1.9483605893440001  5.5730027512109999  0.7758063807500000
  4.7029045893439996  0.7306857487889999  0.7758063807500000
  3.5607274106560003 11.8766912512109997  3.3661448807500003
  4.7029045893439996  5.5730027512109999  1.8145321192500001
  3.5607274106560003  7.0343742487890006  4.4048706192499996
