Ba As Pd
 1.0000000000000000
     4.4399449999999998   -0.0043330000000000   -0.9384070000000000
    -0.2047840000000000    4.4352210000000003   -0.9384070000000000
    -0.0004450000000000   -0.0004650000000000   10.8596170000000001
 Ba  As  Pd 
   2   4   4
Cartesian
  2.6425964541119997  2.7647235866960003  1.5164210936720002
  1.5920602491839999  1.6656373762220000  7.4665167778940003
  0.9570230106069999  3.3241545257440004  4.4911491789819999
  3.9565713990359996  4.1394239348730002  7.6689598999169997
  0.2783266679420000  0.2911895463460000  1.3148592183979999
  3.2775574873809998  1.1061267100200001  4.4911491789819999
  2.2201189448719996 -0.0020690808300000 -0.4690605776860000
  0.8314462080360001  0.8698715264230001  3.8835825413469998
 -0.1023012918760000  2.2177611938180002 -0.4690605776860000
  3.4030411355450001  3.5603122497999999  5.0982901429940002
