Ba Zn F 
 1.0000000000000000
     4.0585110000000002    0.0000000000000000   -1.1714979999999999
     0.0000000000000000    5.8449910000000003    0.0000000000000000
    -0.0203730000000000    0.0000000000000000    7.5452769999999996
 Ba  Zn  F  
   2   2   8
Cartesian
  3.4537339919250001  5.6278086694130005  4.3491827095200000
  0.5844040080750000  2.7053131694129999  2.0245962904799999
  1.6555763577059999  2.9225948648470004  5.7355268010299998
  2.3825616422940001  0.0000993648470000  0.6382521989700000
  3.7317432207270000  2.9833886162380003  5.3123193347170004
  0.3063947792730000  0.0608931162380000  1.0614596652830000
  1.8961560673950000  4.8078850219150002  6.5690010458079993
  2.1419819326049998  1.8853895219150001 -0.1952220458080000
  2.8275894232650001  1.1806531120540000  2.1799813462559996
  1.2105485767349999  4.1031486120540004  4.1937976537439994
  2.7090613787460005  4.2705900692309999  1.7693401846459997
  1.3290766212539999  1.3480945692310002  4.6044388153540003
