Gd Tl
 1.0000000000000000
     3.8135650000000001    0.0000000000000000    0.0000000000000000
     0.0000000000000000    3.8135650000000001    0.0000000000000000
     0.0000000000000000    0.0000000000000000    3.8135650000000001
 Gd  Tl 
   1   1
Cartesian
  0.0000000000000000  0.0000000000000000  0.0000000000000000
  1.9067825000000000  1.9067825000000000  1.9067825000000000
