Os Cl O 
 1.0000000000000000
     3.4467189999999999    0.0000000000000000   -1.0545329999999999
    -0.3469320000000000    3.5109070000000000   -1.1339399999999999
     0.0471050000000000    0.0507580000000000    6.3139890000000003
 Os  Cl  O  
   1   2   1
Cartesian
  0.0000000000000000  0.0000000000000000  0.0000000000000000
  0.9857607468450000  3.0560084655390001  3.2219541762570003
  2.1611312531549998  0.5056565344610000  0.9035618237430000
 -0.1734660000000000  1.7554535000000000 -0.5669700000000000
