Sr Ag Bi
 1.0000000000000000
     4.9035500000000001    0.0000000000000000    0.0000000000000000
    -2.4517750000000000    4.2465989999999998    0.0000000000000000
     0.0000000000000000    0.0000000000000000    8.7479040000000001
 Sr  Ag  Bi 
   2   2   2
Cartesian
  0.0000000000000000  0.0000000000000000  0.0000000000000000
  0.0000000000000000  0.0000000000000000  4.3739520000000001
 -0.0000024517750001  2.8310674155330000  2.1869760000000000
  2.4517774517749999  1.4155315844669998  6.5609280000000005
 -0.0000024517750001  2.8310674155330000  6.5609280000000005
  2.4517774517749999  1.4155315844669998  2.1869760000000000
