Be Cu Ir
 1.0000000000000000
     0.0019660000000000    2.7360199999999999    2.7360199999999999
     2.7360199999999999    0.0019660000000000    2.7360199999999999
     2.7360199999999999    2.7360199999999999    0.0019660000000000
 Be  Cu  Ir 
   2   1   1
Cartesian
  2.7381196972239996  2.7381196972239996  2.7381196972239996
  5.4728838287699997  5.4728838287699997  5.4728838287699997
  1.3684905519880000  1.3684905519880000  1.3684905519880000
  4.1054990259939999  4.1054990259939999  4.1054990259939999
