Sc B  Pb
 1.0000000000000000
     4.6779289999999998    0.0000000000000000    0.0000000000000000
     0.0000000000000000    4.6779289999999998    0.0000000000000000
     0.0000000000000000    0.0000000000000000    4.6779289999999998
 Sc  B   Pb 
   3   1   1
Cartesian
  2.3389644999999999  0.0000000000000000  2.3389644999999999
  0.0000000000000000  2.3389644999999999  2.3389644999999999
  2.3389644999999999  2.3389644999999999  0.0000000000000000
  2.3389644999999999  2.3389644999999999  2.3389644999999999
  0.0000000000000000  0.0000000000000000  0.0000000000000000
