Mn Co Si
 1.0000000000000000
     3.6532450000000001    0.0000000000000000    0.0000000000000000
     0.0000000000000000    5.7195029999999996    0.0000000000000000
     0.0000000000000000    0.0000000000000000    6.8688900000000004
 Mn  Co  Si 
   4   4   4
Cartesian
  2.7399337500000001  5.5544267044139994  5.6107154186999999
  0.9133112500000000  0.1650762955860000  1.2581745813000000
  2.7399337500000001  2.6946752044139997  4.6926195813000007
  0.9133112500000000  3.0248277955859999  2.1762704187000002
  0.9133112500000000  3.7601042232539994  6.4632477010500002
  2.7399337500000001  1.9593987767459999  0.4056422989500000
  0.9133112500000000  0.9003527232540000  3.8400872989499999
  2.7399337500000001  4.8191502767459999  3.0288027010500000
  0.9133112500000000  1.5209130792509999  6.0150732352200000
  2.7399337500000001  4.1985899207489998  0.8538167647800000
  0.9133112500000000  4.3806645792509995  4.2882617647800005
  2.7399337500000001  1.3388384207490001  2.5806282352199998
