Ni
 1.0000000000000000
     3.5206550000000001    0.0000000000000000    0.0000000000000000
     0.0000000000000000    3.5206550000000001    0.0000000000000000
     0.0000000000000000    0.0000000000000000    3.5206550000000001
 Ni 
   4
Cartesian
  0.0000000000000000  0.0000000000000000  0.0000000000000000
  0.0000000000000000  1.7603275000000000  1.7603275000000000
  1.7603275000000000  0.0000000000000000  1.7603275000000000
  1.7603275000000000  1.7603275000000000  0.0000000000000000
