Na Mg Pb
 1.0000000000000000
     0.0000000000000000    3.7415389999999999    3.7415389999999999
     3.7415389999999999    0.0000000000000000    3.7415389999999999
     3.7415389999999999    3.7415389999999999    0.0000000000000000
 Na  Mg  Pb 
   1   1   2
Cartesian
  5.6123085000000001  5.6123085000000001  5.6123085000000001
  1.8707695000000000  1.8707695000000000  1.8707695000000000
  0.0000000000000000  0.0000000000000000  0.0000000000000000
  3.7415389999999999  3.7415389999999999  3.7415389999999999
