Mg Al Rh
 1.0000000000000000
     0.0000000000000000    3.0224069999999998    3.0224069999999998
     3.0224069999999998    0.0000000000000000    3.0224069999999998
     3.0224069999999998    3.0224069999999998    0.0000000000000000
 Mg  Al  Rh 
   1   1   2
Cartesian
  4.5336105000000000  4.5336105000000000  4.5336105000000000
  1.5112034999999999  1.5112034999999999  1.5112034999999999
  0.0000000000000000  0.0000000000000000  0.0000000000000000
  3.0224130448139999  3.0224130448139999  3.0224130448139999
