La Pr Hg
 1.0000000000000000
     0.0000000000000000    3.8679380000000001    3.8679380000000001
     3.8679380000000001    0.0000000000000000    3.8679380000000001
     3.8679380000000001    3.8679380000000001    0.0000000000000000
 La  Pr  Hg 
   1   1   2
Cartesian
  1.9339690000000000  1.9339690000000000  1.9339690000000000
  5.8018992641239997  5.8018992641239997  5.8018992641239997
  0.0000000000000000  0.0000000000000000  0.0000000000000000
  3.8679380000000001  3.8679380000000001  3.8679380000000001
