Ni Sb Se
 1.0000000000000000
     6.1000139999999998    0.0000730000000000   -0.0000320000000000
     0.0000730000000000    6.1001029999999998    0.0000740000000000
    -0.0000320000000000    0.0000740000000000    6.0999420000000004
 Ni  Sb  Se 
   4   4   4
Cartesian
  6.0493879432339996  6.0495813233520002  6.0493053330120006
  3.1007500894410001  0.0507958488640000  2.9992587310759999
  2.9992612245019998  3.1008164639849998  0.0507306996300000
  0.0506314429370000  2.9993551643399998  3.1007281367680002
  2.2574565247639993  0.7927509844570000  5.3073438094740002
  5.3074681354450002  2.2573735465780000  0.7927419032880000
  3.8426808468379994  3.8427792843479995  3.8425751212120005
  0.7926630923040000  5.3075168853239996  2.2573193641159999
  5.3488412249659998  0.7513256081990000  3.8011721106480003
  0.7511243552280000  3.8013896601599999  5.3487397163679997
  3.8013691939980001  5.3489543196640001  0.7512223035380001
  2.2987020262929998  2.2988609109499998  2.2987789707220001
