Re O  F 
 1.0000000000000000
     6.0850140000000001    0.0000000000000000    0.0000000000000000
     0.0000000000000000    6.8096569999999996    0.0001440000000000
     0.0000000000000000    0.0460190000000000   10.4747679999999992
 Re  O   F  
   6  18   6
Cartesian
  0.2922206273220000  0.0115047500000000  2.6186919999999998
  1.7273224991100000  2.3071953597069998  6.6856316924639998
  5.7927933726780001  0.0345142500000000  7.8560759999999998
  4.3576915008899997  2.2841858597070002  1.4482476924639998
  4.3576915008899997  4.5484806402930005  3.7892803075360000
  1.7273224991100000  4.5714901402930002  9.0266643075359987
  1.3335003930300000  5.8176203749139992  1.7348072902079998
  4.6049986398780005  3.5396967964569992  5.1297253865440000
  4.7515136069699997  1.0380556250860000  8.7401047097919982
  5.8554203367660005  5.6910544146959996  4.0563272299520001
  3.0206131196279999  1.3138779409069998  6.2238096334239987
  1.3335003930300000  1.0150461250860001  3.5027207097919999
  3.3762943579559996  3.4163332499999997  2.6187639999999996
  0.2295936632340000  1.1646215853040001  6.4185847700479997
  1.4800153601220001  3.3159792035429998  5.3451866134559998
  3.0206131196279999  5.5648075590929995  9.4884863665759998
  5.8554203367660005  1.1416120853039999  1.1812007700479998
  3.0644008803720002  5.5417980590929998  4.2511023665759993
  2.7087196420440001  3.4393427499999998  7.8561479999999992
  4.6049986398780005  3.2929697035429997  0.1078026134560000
  4.7515136069699997  5.8406298749139989  6.9721912902079994
  0.2295936632340000  5.7140639146960002  9.2937112299519988
  1.4800153601220001  3.5627062964569993 10.3671093865439996
  3.0644008803720002  1.2908684409069999  0.9864256334239999
  5.7758526937020003  3.4163332499999997  2.6187639999999996
  0.3091613062980000  3.4393427499999998  7.8561479999999992
  4.6572324000540002  1.1467354166029999  3.2603164360159993
  1.4277815999460000  5.7089405833970002  7.2145955639840000
  4.6572324000540002  5.6859310833969996  1.9772115639839998
  1.4277815999460000  1.1697449166029998  8.4977004360159984
