Ta Ti Re
 1.0000000000000000
     0.0000000000000000    3.1539109999999999    3.1539109999999999
     3.1539109999999999    0.0000000000000000    3.1539109999999999
     3.1539109999999999    3.1539109999999999    0.0000000000000000
 Ta  Ti  Re 
   1   1   2
Cartesian
  3.1539109999999999  3.1539109999999999  3.1539109999999999
  0.0000000000000000  0.0000000000000000  0.0000000000000000
  1.5769555000000000  1.5769555000000000  1.5769555000000000
  4.7308664999999994  4.7308664999999994  4.7308664999999994
