Li Sb
 1.0000000000000000
     7.9683479999999998    0.0000000000000000    0.0000000000000000
    -3.9841730000000002    6.9007920000000000    0.0000000000000000
     0.0000000000000000    0.0000000000000000    6.5101430000000002
 Li  Sb 
  12   6
Cartesian
  1.1650962794249997  2.0180055053519999  0.0000000000000000
  5.6381560260120001  0.0000000000000000  3.2550715000000001
 -2.8190773054370002  4.8827864946480002  3.2550715000000001
 -2.8190773054370002  4.8827864946480002  0.0000000000000000
  5.6381560260120001  0.0000000000000000  0.0000000000000000
  1.1650962794249997  2.0180055053519999  3.2550715000000001
  2.5631870982000002  4.3384727240640002  4.8826072500000004
  2.9295272919589999  0.0505483014000000  4.8826072500000004
  6.4598086098409988  2.5117709745360002  4.8826072500000004
  2.4756348818749996  4.3890210254640003  1.6275357500000001
 -1.0546457226910002  6.8502436985999999  1.6275357500000001
 -1.4209871591840002  2.5623192759360003  1.6275357500000001
  0.0000000000000000  0.0000000000000000  4.8826072500000004
  0.0000000000000000  0.0000000000000000  1.6275357500000001
 -0.0000033175070003  4.6005303002640003  6.3979927665390006
 -0.0000033175070003  4.6005303002640003  3.3672217334610002
  3.9841783175069998  2.3002616997360001  0.1121502334610000
  3.9841783175069998  2.3002616997360001  3.1429212665390001
