Ce O 
 1.0000000000000000
     3.3481160000000001    0.0000000000000000    1.9330360000000000
     1.1160390000000000    3.1566339999999999    1.9330360000000000
     0.0000000000000000    0.0000000000000000    3.8660709999999998
 Ce  O  
   1   2
Cartesian
  0.0000000000000000  0.0000000000000000  0.0000000000000000
  3.3481162499999999  2.3674754999999998  5.7991072500000005
  1.1160387500000000  0.7891585000000000  1.9330357499999999
