Ti Co Ge
 1.0000000000000000
     3.5547279999999999    0.0000000000000000    2.0523229999999999
     1.1849090000000000    3.3514309999999998    2.0523229999999999
     0.0000000000000000    0.0000000000000000    4.1046469999999999
 Ti  Co  Ge 
   1   2   1
Cartesian
  2.3698185000000000  1.6757154999999999  4.1046464999999994
  3.5547277499999996  2.5135732499999999  6.1569697500000000
  1.1849092500000000  0.8378577500000000  2.0523232499999997
  0.0000000000000000  0.0000000000000000  0.0000000000000000
