Dy In Pt
 1.0000000000000000
     7.6260380000000003   -0.0000010000000000    0.0000000000000000
    -3.8130190000000002    6.6043430000000001    0.0000000000000000
     0.0000000000000000    0.0000000000000000    3.8532670000000002
 Dy  In  Pt 
   3   3   3
Cartesian
  4.5282803560960003 -0.0000005937920000  1.9266335000000001
  1.5488788219520002  2.6827365551360001  1.9266335000000001
 -2.2641401780480002  3.9216060386559999  1.9266335000000001
  2.8195368995500005  4.8835806919000007  0.0000000000000000
 -0.9934821004500001  1.7207615686500000  0.0000000000000000
  1.9869642009000001 -0.0000002605500000  0.0000000000000000
 -0.0000038130190003  4.4028972014479999  0.0000000000000000
  3.8130228130189998  2.2014447985520000  0.0000000000000000
  0.0000000000000000  0.0000000000000000  1.9266335000000001
