Nb As
 1.0000000000000000
     3.3351530000000000    0.0000000000000000   -0.9453510000000001
    -0.2679600000000000    3.3243710000000002   -0.9453510000000001
     0.0107020000000000    0.0116000000000000    6.3935560000000002
 Nb  As 
   2   2
Cartesian
  2.4388732865259999  0.8359688088040000  2.2484131972840000
  3.0770425365259997  3.3350470588039998  4.4998401972839996
  0.3826681624740000  2.2221537981960000  1.3500387727159999
  1.2887974124740000  1.3968610481960000  4.5468167727160003
