Ca Si Pt
 1.0000000000000000
     6.3857080000000002    0.0000000000000000    0.0000000000000000
     0.0000000000000000    6.3857080000000002    0.0000000000000000
     0.0000000000000000    0.0000000000000000    6.3857080000000002
 Ca  Si  Pt 
   4   4   4
Cartesian
  3.9892028732640004  2.3965051267360002  5.5893591267359994
  2.3965051267360002  5.5893591267359994  3.9892028732640004
  0.7963488732640001  0.7963488732640001  0.7963488732640001
  5.5893591267359994  3.9892028732640004  2.3965051267360002
  1.0811003644000001  2.1117536356000000  4.2739543643999998
  4.2739543643999998  1.0811003644000001  2.1117536356000000
  2.1117536356000000  4.2739543643999998  1.0811003644000001
  5.3046076356000000  5.3046076356000000  5.3046076356000000
  3.6994513727639999  5.8791106272359999  0.5065973727640000
  0.5065973727640000  3.6994513727639999  5.8791106272359999
  2.6862566272360002  2.6862566272360002  2.6862566272360002
  5.8791106272359999  0.5065973727640000  3.6994513727639999
