Ti Zn N 
 1.0000000000000000
     1.5340100000000001   -5.3215300000000001    0.0000000000000000
     1.5340100000000001    5.3215300000000001    0.0000000000000000
     0.0000000000000000    0.0000000000000000    8.2998130000000003
 Ti  Zn  N  
   6   2   2
Cartesian
  1.5340100000000001 -1.3372153445200001  0.3514555814850000
  1.5340100000000001  1.3372153445200001  4.5013620814849995
  1.5340100000000001  1.3372153445200001  7.9483574185150010
  1.5340100000000001 -1.3372153445200001  3.7984509185149999
  1.5340100000000003 -4.9056205013200005  2.0749532500000001
  1.5340100000000001  4.9056205013200005  6.2248597500000002
  1.5340100000000001  2.6144251167600001  2.0749532500000001
  1.5340100000000003 -2.6144251167600001  6.2248597500000002
  0.0000000000000000  0.0000000000000000  0.0000000000000000
  0.0000000000000000  0.0000000000000000  4.1499065000000002
