Li Cu O 
 1.0000000000000000
     3.6361759999999999    0.0000000000000000    1.1502889999999999
     1.8180870000000000    5.9258230000000003    0.5751450000000000
     0.0307780000000000    0.0000000000000000    6.2250019999999999
 Li  Cu  O  
   4   4   4
Cartesian
  1.2021019540499998  0.8696856351260001  5.6833807346540004
  2.4647928671339998  5.0561373648740009  1.6918923607220000
  4.8383354263900005  5.0561373648740009  6.8336884925160000
  2.4648517524259992  0.8696856351260001  1.6919104121080000
  4.2201470702639998  2.9629115000000001  2.4654338323810001
  3.6515611819479998  1.0777649839480001  4.2627889406490000
  3.6515678180519995  4.8480580160519997  4.2627915593509993
  3.0829819297359999  2.9629115000000001  6.0601466676189997
  3.0965262907879998  1.1227064255799999  6.0172945422020003
  4.2065881645080001  4.8031165744200006  2.5082813566419997
  3.0965402144119998  4.8031165744200006  6.0172994538980005
  0.5704273302920000  1.1227064255799999  1.3579966472579998
