Zr Co Tc
 1.0000000000000000
     0.0000000000000000    3.2450660000000000    3.2450660000000000
     3.2450660000000000    0.0000000000000000    3.2450660000000000
     3.2450660000000000    3.2450660000000000    0.0000000000000000
 Zr  Co  Tc 
   2   1   1
Cartesian
  0.0000000000000000  0.0000000000000000  0.0000000000000000
  3.2450724901320003  3.2450724901320003  3.2450724901320003
  1.6225330000000000  1.6225330000000000  1.6225330000000000
  4.8675990000000002  4.8675990000000002  4.8675990000000002
