Mo P 
 1.0000000000000000
     3.2347549999999998   -0.0000000000000000    0.0000000000000000
    -1.6173780000000000    2.8013800000000000    0.0000000000000000
     0.0000000000000000    0.0000000000000000    3.1822789999999999
 Mo  P  
   1   1
Cartesian
  0.0000000000000000  0.0000000000000000  0.0000000000000000
 -0.0000019507110000  1.8675876004600001  1.5911394999999999
