Cr C 
 1.0000000000000000
     2.7899660000000002    0.0000000000000000    0.0000000000000000
     0.0000000000000000    5.4865199999999996    0.0000000000000000
     0.0000000000000000    0.0000000000000000   11.4896870000000000
 Cr  C  
  12   8
Cartesian
  2.0924745000000002  0.0927276745200000  6.8582631084220003
  0.6974915000000000  5.3937923254799998  4.6314238915779997
  2.0924745000000002  2.8359876745200001 10.3762673915779988
  0.6974915000000000  2.6505323254800000  1.1134196084220001
  0.6974915000000000  4.4757384203999999  8.8872958738740007
  2.0924745000000002  1.0107815795999999  2.6023911261260002
  0.6974915000000000  1.7324784203999999  8.3472346261259993
  2.0924745000000002  3.7540415796000000  3.1424523738740002
  0.6974915000000000  0.7308538426799999 10.7039302854440006
  2.0924745000000002  4.7556661573199994  0.7857567145560000
  0.6974915000000000  3.4741138426800000  6.5306002145560003
  2.0924745000000002  2.0124061573199996  4.9590867854439997
  2.0924745000000002  3.2927898432000000  8.0715395865610002
  0.6974915000000000  2.1937301567999996  3.4181474134390002
  2.0924745000000002  0.5495298432000000  9.1629909134389997
  0.6974915000000000  4.9369901567999994  2.3266960865609998
  0.6974915000000000  4.1855454045599991 10.9281400375620006
  2.0924745000000002  1.3009745954399998  0.5615469624380001
  0.6974915000000000  1.4422854045600000  6.3063904624379994
  2.0924745000000002  4.0442345954399999  5.1832965375620006
