Ba Tl
 1.0000000000000000
     5.2941079999999996   -0.0000000000000000    0.0000000000000000
    -2.6470549999999999    4.5848310000000003    0.0000000000000000
     0.0000000000000000    0.0000000000000000    8.6283390000000004
 Ba  Tl 
   2   4
Cartesian
  0.0000000000000000  0.0000000000000000  2.1570847500000001
  0.0000000000000000  0.0000000000000000  6.4712542500000003
 -0.0000033137210001  3.0565555282770003  3.9149707678260004
  2.6470563137209999  1.5282754717230000  8.2291402678260006
  2.6470563137209999  1.5282754717230000  4.7133682321740009
 -0.0000033137210001  3.0565555282770003  0.3991987321740000
