Ta Be
 1.0000000000000000
     7.3078849999999997    0.0000000000000000    0.0000000000000000
     0.0000000000000000    7.3078849999999997    0.0000000000000000
     0.0000000000000000    0.0000000000000000    4.2118010000000004
 Ta  Be 
   2  24
Cartesian
  0.0000000000000000  0.0000000000000000  0.0000000000000000
  3.6539424999999999  3.6539424999999999  2.1059005000000002
  4.7315193747899995  0.0000000000000000  0.0000000000000000
  5.4809137500000000  1.8269712499999999  1.0529502500000001
  0.0000000000000000  4.7315193747899995  0.0000000000000000
  1.5818720949849998  0.0000000000000000  2.1059005000000002
  2.5763656252100002  0.0000000000000000  0.0000000000000000
  1.8269712499999999  1.8269712499999999  3.1588507500000000
  0.0000000000000000  2.5763656252100002  0.0000000000000000
  0.0000000000000000  5.7260129050149997  2.1059005000000002
  5.7260129050149997  0.0000000000000000  2.1059005000000002
  1.8269712499999999  1.8269712499999999  1.0529502500000001
  0.0000000000000000  1.5818720949849998  2.1059005000000002
  5.4809137500000000  1.8269712499999999  3.1588507500000000
  1.0775768747900001  3.6539424999999999  2.1059005000000002
  1.8269712499999999  5.4809137500000000  3.1588507500000000
  3.6539424999999999  1.0775768747900001  2.1059005000000002
  5.2358145949850003  3.6539424999999999  0.0000000000000000
  6.2303081252099997  3.6539424999999999  2.1059005000000002
  5.4809137500000000  5.4809137500000000  1.0529502500000001
  3.6539424999999999  6.2303081252099997  2.1059005000000002
  3.6539424999999999  2.0720704050149998  0.0000000000000000
  2.0720704050149998  3.6539424999999999  0.0000000000000000
  5.4809137500000000  5.4809137500000000  3.1588507500000000
  3.6539424999999999  5.2358145949850003  0.0000000000000000
  1.8269712499999999  5.4809137500000000  1.0529502500000001
