Mg Cd
 1.0000000000000000
     6.3130649999999999    0.0000000000000000    0.0000000000000000
    -3.1565330000000000    5.4672749999999999    0.0000000000000000
     0.0000000000000000    0.0000000000000000    5.0913409999999999
 Mg  Cd 
   6   2
Cartesian
  1.5676946065489996  4.5499591986749994  1.2728352500000000
  4.7242274387660004  0.9173158013249999  3.8185057499999999
  1.5888373934509998  0.9173158013249999  3.8185057499999999
 -1.5676954387660000  4.5499591986749994  1.2728352500000000
 -0.0000001677830000  1.8346316026499998  1.2728352500000000
  3.1565321677830003  3.6326433973499999  3.8185057499999999
  3.1565354898660005  1.8224231775749999  1.2728352500000000
 -0.0000034898660001  3.6448518224250002  3.8185057499999999
