Co Sb
 1.0000000000000000
     3.3993300000000000    0.0000000000000000    0.0000000000000000
     0.0000000000000000    5.6245029999999998    0.0000000000000000
     0.0000000000000000    0.0000000000000000    6.4210979999999998
 Co  Sb 
   2   4
Cartesian
  0.0000000000000000  0.0000000000000000  0.0000000000000000
  1.6996650000000000  2.8122514999999999  3.2105489999999999
  0.0000000000000000  1.1311662963419999  2.2911761883600001
  0.0000000000000000  4.4933367036579996  4.1299218116400001
  1.6996650000000000  3.9434177963420001  0.9193728116400000
  1.6996650000000000  1.6810852036580000  5.5017251883600000
