Pm Al
 1.0000000000000000
     6.4508530000000004    0.0000510000000000    0.0000000000000000
    -3.2253829999999999    5.5866280000000001    0.0000000000000000
     0.0000000000000000    0.0000000000000000    4.5913880000000002
 Pm  Al 
   2   6
Cartesian
  0.0000193237350005  3.7244375288080001  3.4435364086120002
  3.2254571270310008  1.8622302979359999  1.1478515913879999
  0.0000186888820001  1.5717155758199999  1.1478515913879999
  1.8643274470890003  4.8008048644110000  1.1478515913879999
 -1.8642526852049999  4.8007753865130001  1.1478515913879999
  3.2254642127370010  4.0149522509750000  3.4435364086120002
  1.3611328766749999  0.7858797221660000  3.4435364086120002
  5.0897130089690004  0.7859092000640000  3.4435364086120002
