Mn Al Re
 1.0000000000000000
     0.0000000000000000    2.8989780000000001    2.8989780000000001
     2.8989780000000001    0.0000000000000000    2.8989780000000001
     2.8989780000000001    2.8989780000000001    0.0000000000000000
 Mn  Al  Re 
   2   1   1
Cartesian
  0.0000000000000000  0.0000000000000000  0.0000000000000000
  2.8989780000000001  2.8989780000000001  2.8989780000000001
  1.4494832020440001  1.4494832020440001  1.4494832020440001
  4.3484612020439997  4.3484612020439997  4.3484612020439997
