Na Bi
 1.0000000000000000
     5.4200390000000001    0.0000000000000000    0.0000000000000000
    -2.7100209999999998    4.6938920000000000    0.0000000000000000
     0.0000000000000000    0.0000000000000000    9.6533639999999998
 Na  Bi 
   6   2
Cartesian
 -0.0000037100200000  3.1292628979639998  8.8549632236519997
  2.7100217100200004  1.5646291020359999  4.0282812236519998
  0.0000000000000000  0.0000000000000000  2.4133410000000000
  0.0000000000000000  0.0000000000000000  7.2400229999999999
 -0.0000037100200000  3.1292628979639998  5.6250827763480000
  2.7100217100200004  1.5646291020359999  0.7984007763480000
  2.7100217100200004  1.5646291020359999  7.2400229999999999
 -0.0000037100200000  3.1292628979639998  2.4133410000000000
