Li Zr O 
 1.0000000000000000
     5.1461530000000000   -0.0338230000000000   -1.0242389999999999
    -2.7452630000000000    4.3528810000000000   -1.0242389999999999
     0.0335850000000000    0.0604180000000000    5.3845150000000004
 Li  Zr  O  
   4   2   6
Cartesian
  3.1048407495759998  1.1206796102560002  0.3218897500000002
 -0.6703657495759998  3.2587963897439995  3.0141472500000006
  0.6103799348079999  2.5073079712480002  0.3218897500000002
  1.8240950651920005  1.8721680287520002  3.0141472500000006
 -2.0163646863680000  3.9674706513919999  0.3218897500000002
  4.4508396863680000  0.4120053486080000  3.0141472500000006
 -1.3726315000000000  2.1764405000000000 -0.5121194999999999
  1.2779993398749994  3.7090685265070000  3.7483421665150010
  2.4587686749550000  3.0131552609869998  1.0560846665150003
  1.1564756601249999  0.6704074734930000 -0.4123051665149999
 -0.0242936749550001  1.3663207390129999  2.2799523334850003
  2.5898690000000002  0.0132975000000000  2.1801380000000004
