Sm Mg Ge
 1.0000000000000000
     7.3759139999999999    0.0000000000000000    0.0000000000000000
     0.0000000000000000    7.3759139999999999    0.0000000000000000
     0.0000000000000000    0.0000000000000000    4.3290660000000001
 Sm  Mg  Ge 
   4   2   4
Cartesian
  2.3727577746599997  1.3151992253400000  2.1645330000000000
  6.0607147746600001  2.3727577746599997  2.1645330000000000
  1.3151992253400000  5.0031562253399997  2.1645330000000000
  5.0031562253399997  6.0607147746600001  2.1645330000000000
  0.0000000000000000  0.0000000000000000  0.0000000000000000
  3.6879569999999999  3.6879569999999999  0.0000000000000000
  4.5808482692699997  0.8928912692700000  0.0000000000000000
  0.8928912692700000  2.7950583548160002  0.0000000000000000
  6.4830227307300001  4.5808482692699997  0.0000000000000000
  2.7950583548160002  6.4830227307300001  0.0000000000000000
