Al Ni
 1.0000000000000000
     7.4850060000000003    0.0000000000000000    0.0000000000000000
     0.0000000000000000    6.6623450000000002    0.0000000000000000
     0.0000000000000000    0.0000000000000000    3.7689659999999998
 Al  Ni 
   6  10
Cartesian
  0.0000000000000000  3.3311725000000001  0.0000000000000000
  1.6480111960500001  0.0000000000000000  1.8844829999999999
  5.8369948039499997  0.0000000000000000  1.8844829999999999
  3.7425030000000001  0.0000000000000000  0.0000000000000000
  5.3905141960500007  3.3311725000000001  1.8844829999999999
  2.0944918039500000  3.3311725000000001  1.8844829999999999
  0.0000000000000000  0.0000000000000000  0.0000000000000000
  5.6137545000000006  4.9967587499999997  0.0000000000000000
  1.8712515000000001  4.9967587499999997  0.0000000000000000
  0.0000000000000000  1.8461824359150001  1.8844829999999999
  0.0000000000000000  4.8161625640850003  1.8844829999999999
  3.7425030000000001  3.3311725000000001  0.0000000000000000
  1.8712515000000001  1.6655862500000000  0.0000000000000000
  5.6137545000000006  1.6655862500000000  0.0000000000000000
  3.7425030000000001  5.1773549359150000  1.8844829999999999
  3.7425030000000001  1.4849900640850000  1.8844829999999999
