Pm Ho Mg
 1.0000000000000000
     0.0000000000000000    3.8196970000000001    3.8196970000000001
     3.8196970000000001    0.0000000000000000    3.8196970000000001
     3.8196970000000001    3.8196970000000001    0.0000000000000000
 Pm  Ho  Mg 
   1   1   2
Cartesian
  5.7295455000000004  5.7295455000000004  5.7295455000000004
  1.9098485000000001  1.9098485000000001  1.9098485000000001
  0.0000000000000000  0.0000000000000000  0.0000000000000000
  3.8196893606060005  3.8196893606060005  3.8196893606060005
