Lu Cd In
 1.0000000000000000
     0.0000000000000000    3.6508880000000001    3.6508880000000001
     3.6508880000000001    0.0000000000000000    3.6508880000000001
     3.6508880000000001    3.6508880000000001    0.0000000000000000
 Lu  Cd  In 
   2   1   1
Cartesian
  0.0000000000000000  0.0000000000000000  0.0000000000000000
  3.6508806982240003  3.6508806982240003  3.6508806982240003
  1.8254440000000001  1.8254440000000001  1.8254440000000001
  5.4763320000000002  5.4763320000000002  5.4763320000000002
