Lu Zn Ag
 1.0000000000000000
     0.0000000000000000    3.4986440000000001    3.4986440000000001
     3.4986440000000001    0.0000000000000000    3.4986440000000001
     3.4986440000000001    3.4986440000000001    0.0000000000000000
 Lu  Zn  Ag 
   2   1   1
Cartesian
  0.0000000000000000  0.0000000000000000  0.0000000000000000
  3.4986440000000001  3.4986440000000001  3.4986440000000001
  5.2479590027120002  5.2479590027120002  5.2479590027120002
  1.7493220000000000  1.7493220000000000  1.7493220000000000
