Ti Ge C 
 1.0000000000000000
     1.5461609999999999   -2.6780290000000000    0.0000000000000000
     1.5461609999999999    2.6780290000000000    0.0000000000000000
     0.0000000000000000    0.0000000000000000   17.8136060000000001
 Ti  Ge  C  
   6   2   4
Cartesian
  1.5461609999999999  0.8926781186860000  6.5376824700300009
  1.5461609999999999 -0.8926781186860001 11.2759235299699991
  1.5461609999999999 -0.8926781186860001 15.4444854700300009
  1.5461609999999999  0.8926781186860000  2.3691205299700000
  0.0000000000000000  0.0000000000000000  8.9068030000000000
  0.0000000000000000  0.0000000000000000  0.0000000000000000
  0.0000000000000000  0.0000000000000000  4.4534015000000000
  0.0000000000000000  0.0000000000000000 13.3602045000000000
  1.5461609999999999  0.8926781186860000 16.5306344686679978
  1.5461609999999999 -0.8926781186860001  1.2829715313320000
  1.5461609999999999 -0.8926781186860001  7.6238314686680004
  1.5461609999999999  0.8926781186860000 10.1897745313320005
