Na La Au
 1.0000000000000000
     0.0000400000000000    3.6307960000000001    3.6307960000000001
     3.6307960000000001    0.0000400000000000    3.6307960000000001
     3.6307960000000001    3.6307960000000001    0.0000400000000000
 Na  La  Au 
   1   1   2
Cartesian
  5.4462167383680002  5.4462167383680002  5.4462167383679994
  1.8154080000000001  1.8154080000000001  1.8154080000000001
  3.6308160000000003  3.6308160000000003  3.6308160000000003
  0.0000000000000000  0.0000000000000000  0.0000000000000000
