Pr Fe Si
 1.0000000000000000
     4.0575390000000002    0.0000000000000000    0.0000000000000000
     0.0000000000000000    4.0575390000000002    0.0000000000000000
     0.0000000000000000    0.0000000000000000    7.0838770000000002
 Pr  Fe  Si 
   2   2   2
Cartesian
  3.0431542500000002  3.0431542500000002  2.1924386798690003
  1.0143847500000001  1.0143847500000001  4.8914383201309999
  3.0431542500000002  1.0143847500000001  0.0000000000000000
  1.0143847500000001  3.0431542500000002  0.0000000000000000
  3.0431542500000002  3.0431542500000002  5.9907214368680002
  1.0143847500000001  1.0143847500000001  1.0931555631320000
