Ca V  N 
 1.0000000000000000
     5.2073210000000003    2.7961559999999999    0.0037790000000000
    -5.2073210000000003    2.7961559999999999    0.0037790000000000
     0.0000000000000000    0.4331870000000000   11.6059079999999994
 Ca  V   N  
   8   4  12
Cartesian
 -1.1721054692479997  4.1071139868700000  0.8982553785300000
  2.1137557403200002  1.6072199412240000  4.0909593952660002
 -2.1137557403200002  1.8238134412239999  9.8939133952659990
 -2.1137557403200007  4.4182790587760001  7.5225066047339997
  1.1721054692480000  1.9183850131300000 10.7152106214699998
  1.1721054692480002  4.3237074868700001  6.7012093785300006
 -1.1721054692480002  1.7017915131299999  4.9122566214700001
  2.1137557403200002  4.2016855587760000  1.7195526047340000
  0.0025151360430000  4.6496537703119998  9.7273199572830009
  0.0025151360430000  1.5924387296879998  7.6891000427169987
 -0.0025151360430001  1.3758452296879999  1.8861460427170000
 -0.0025151360430003  4.4330602703119997  3.9243659572829999
 -4.2810948137300002  3.1210462500000000  8.7082099999999993
  4.2810948137300002  2.9044527499999999  2.9052560000000001
  0.0578741655940003  3.1210462500000000  8.7082099999999993
 -0.0578741655940001  2.9044527499999999  2.9052560000000001
  1.6979042925810002  1.0436383509870000  1.4995763791830001
  1.6979042925810004  4.7652671490129999  4.3109356208169993
 -1.6979042925810002  4.9818606490130000 10.1138896208169999
 -1.6979042925810000  1.2602318509869999  7.3025303791829996
  0.9646874591759996  4.4209342333279995 11.1712236024520006
 -0.9646874591759999  4.2043407333279994  5.3682696024520000
 -0.9646874591760001  1.6045647666720000  0.4422423975480000
  0.9646874591760002  1.8211582666719999  6.2451963975479989
