Li Cd Pd
 1.0000000000000000
     0.0000000000000000    3.0974179999999998    3.0974179999999998
     3.0974179999999998    0.0000000000000000    3.0974179999999998
     3.0974179999999998    3.0974179999999998    0.0000000000000000
 Li  Cd  Pd 
   2   1   1
Cartesian
  3.0974179999999998  3.0974179999999998  3.0974179999999998
  0.0000000000000000  0.0000000000000000  0.0000000000000000
  1.5487089999999999  1.5487089999999999  1.5487089999999999
  4.6461331948359996  4.6461331948359996  4.6461331948359996
