Hf Zn Ni
 1.0000000000000000
     0.0000000000000000    2.9998719999999999    2.9998719999999999
     2.9998719999999999    0.0000000000000000    2.9998719999999999
     2.9998719999999999    2.9998719999999999    0.0000000000000000
 Hf  Zn  Ni 
   1   1   2
Cartesian
  1.4999300002559999  1.4999300002559999  1.4999300002559999
  4.4998020002559995  4.4998020002559995  4.4998020002559995
  0.0000000000000000  0.0000000000000000  0.0000000000000000
  2.9998719999999999  2.9998719999999999  2.9998719999999999
