Ba Si O 
 1.0000000000000000
     4.6395030000000004    0.0000000000000000    0.0000000000000000
     0.0000000000000000    7.7075100000000001    0.0000000000000000
     0.0000000000000000    0.0000000000000000   13.6177729999999997
 Ba  Si  O  
   4   8  20
Cartesian
  1.2955162597080001  5.7806325000000003  0.5981334434790000
  3.6152677597080003  1.9268775000000000  6.2107530565209998
  3.3439867402920003  1.9268775000000000 13.0196395565209997
  1.0242352402920001  5.7806325000000003  7.4070199434790007
  2.9713186618170000  0.3708699661800000  9.3087147073830003
  0.6515671618170001  7.3366400338200002 11.1179447926169992
  1.6681843381830002  4.2246249661800004  4.3090582926170002
  3.9879358381830006  3.4828850338200001  2.4998282073830000
  1.6681843381830002  7.3366400338200002  4.3090582926170002
  3.9879358381830006  0.3708699661800000  2.4998282073830000
  2.9713186618170000  3.4828850338200001  9.3087147073830003
  0.6515671618170001  4.2246249661800004 11.1179447926169992
  3.9385344102390003  0.4122592948800000 10.6288352397759986
  1.6187829102390001  7.2952507051200000  9.7978242602240009
  0.7009685897610001  4.2660142948799997  2.9889377602239997
  3.0207200897610003  3.4414957051200004  3.8199487397759997
  0.7009685897610001  7.2952507051200000  2.9889377602239997
  3.0207200897610003  0.4122592948800000  3.8199487397759997
  3.9385344102390003  3.4414957051200004 10.6288352397759986
  1.6187829102390001  4.2660142948799997  9.7978242602240009
  3.5365307542950002  7.4168906279400000  7.9896835968299991
  1.2167792542950002  0.2906193720600000 12.4369759031699996
  1.1029722457050002  3.5631356279399999  5.6280894031699997
  3.4227237457050004  4.1443743720600006  1.1807970968299999
  0.2230162697070000  5.7806325000000003 11.4092834281790001
  2.5427677697070004  1.9268775000000000  9.0173760718209994
  4.4164867302930002  1.9268775000000000  2.2084895718209996
  2.0967352302930005  5.7806325000000003  4.6003969281789994
  1.2167792542950002  3.5631356279399999 12.4369759031699996
  3.5365307542950002  4.1443743720600006  7.9896835968299991
  3.4227237457050004  7.4168906279400000  1.1807970968299999
  1.1029722457050002  0.2906193720600000  5.6280894031699997
