La Ni B 
 1.0000000000000000
     5.0748290000000003   -0.0000000000000000    0.0000000000000000
    -2.5374150000000002    4.3949319999999998    0.0000000000000000
     0.0000000000000000    0.0000000000000000    6.9300550000000003
 La  Ni  B  
   2   8   2
Cartesian
  0.0000000000000000  0.0000000000000000  3.4650275000000001
  0.0000000000000000  0.0000000000000000  0.0000000000000000
 -0.0000028707480000  2.9299561316439999  0.0000000000000000
  2.5374168707480003  1.4649758683559999  0.0000000000000000
  2.5374145000000001  0.0000000000000000  2.0381638257750003
  1.2687070000000000  2.1974659999999999  2.0381638257750003
 -1.2687075000000001  2.1974659999999999  2.0381638257750003
  2.5374145000000001  0.0000000000000000  4.8918911742250009
  1.2687070000000000  2.1974659999999999  4.8918911742250009
 -1.2687075000000001  2.1974659999999999  4.8918911742250009
  2.5374168707480003  1.4649758683559999  3.4650275000000001
 -0.0000028707480000  2.9299561316439999  3.4650275000000001
