Sc Cu S 
 1.0000000000000000
     3.7379389999999999    0.0000000000000000    0.0000000000000000
    -1.8689690000000001    3.2371500000000002    0.0000000000000000
     0.0000000000000000    0.0000000000000000    5.9950469999999996
 Sc  Cu  S  
   1   1   2
Cartesian
  0.0000000000000000  0.0000000000000000  0.0140344050270000
 -0.0000015356360002  2.1581010790500001  2.4011602046279998
  1.8689715356359999  1.0790489209500000  1.5723269717369996
 -0.0000015356360002  2.1581010790500001  4.6621382252550001
