Li Cu
 1.0000000000000000
    -1.7895420000000000    1.7895420000000000    3.6146379999999998
     1.7895420000000000   -1.7895420000000000    3.6146379999999998
     1.7895420000000000    1.7895420000000000   -3.6146379999999998
 Li  Cu 
   1   3
Cartesian
  0.0000000000000000  0.0000000000000000  0.0000000000000000
  0.0000000000000002  1.7895384209159999  1.8073189999999997
  1.7895384209159999  0.0000000000000001  1.8073189999999997
  0.0000000000000000 -0.0000000000000000  3.6146452292759998
