Cr
 1.0000000000000000
     2.8505270000000000    0.0000000000000000    0.0000000000000000
     0.0000000000000000    2.8505270000000000    0.0000000000000000
     0.0000000000000000    0.0000000000000000    2.8505270000000000
 Cr 
   2
Cartesian
  0.0000000000000000  0.0000000000000000  0.0000000000000000
  1.4252635000000000  1.4252635000000000  1.4252635000000000
