Ac Zn Ge
 1.0000000000000000
     0.0000000000000000    3.8920759999999999    3.8920759999999999
     3.8920759999999999    0.0000000000000000    3.8920759999999999
     3.8920759999999999    3.8920759999999999    0.0000000000000000
 Ac  Zn  Ge 
   2   1   1
Cartesian
  3.8920759999999999  3.8920759999999999  3.8920759999999999
  0.0000000000000000  0.0000000000000000  0.0000000000000000
  5.8381140000000000  5.8381140000000000  5.8381140000000000
  1.9460457841519998  1.9460457841519998  1.9460457841519998
