Na P  S 
 1.0000000000000000
     6.9236909999999998    0.0000000000000000    0.0000000000000000
     0.0000000000000000    6.9236909999999998    0.0000000000000000
     0.0000000000000000    0.0000000000000000    7.0771410000000001
 Na  P   S  
   6   2   8
Cartesian
  0.0000000000000000  3.4618454999999999  2.9700991491750002
  3.4618454999999999  0.0000000000000000  4.1070418508249995
  3.4618454999999999  0.0000000000000000  0.5684713508250000
  0.0000000000000000  3.4618454999999999  6.5086696491750002
  0.0000000000000000  0.0000000000000000  0.0000000000000000
  3.4618454999999999  3.4618454999999999  3.5385705000000001
  0.0000000000000000  0.0000000000000000  3.5385705000000001
  3.4618454999999999  3.4618454999999999  0.0000000000000000
  2.1450287087100000  2.4127124501520001  1.1739561490800001
  2.4127124501520001  4.7786622912899999  5.9031848509199998
  4.5109785498479997  2.1450287087100000  5.9031848509199998
  5.6068742087099999  1.0491330498480000  2.3646143509199997
  1.3168167912900000  5.8745579501520000  2.3646143509199997
  4.7786622912899999  4.5109785498479997  1.1739561490800001
  1.0491330498480000  1.3168167912900000  4.7125266490800000
  5.8745579501520000  5.6068742087099999  4.7125266490800000
