Sb O 
 1.0000000000000000
     4.5117269999999996    0.0000000000000000   -1.8090310000000001
    -0.5019620000000000    5.2263200000000003   -1.2518950000000000
    -0.0058490000000000    0.0135140000000000    6.5160580000000001
 Sb  O  
   4   8
Cartesian
  3.0963066803379995  1.3065800000000001 -1.6047919329140001
  0.9134583196619999  3.9197400000000000 -1.4561340670859999
  2.0019579999999997  2.6199170000000001  1.7275659999999999
 -0.0029245000000000  0.0067570000000000  3.2580290000000001
  1.9533606258479999  2.7967858798620000  3.7343421578450005
  2.5853187015639998  5.0562081201379998 -1.2202112606809998
  2.0505553741519997  2.4430481201380001 -0.2792101578449999
  1.4185972984360000  0.1836258798620000  4.6753432606810001
  3.7186923484989998  1.7084295238640002  2.0530895303940002
  1.0133739224749998  0.9182444761360000  1.8366632329840000
  0.2852236515009999  3.5314044761360002  1.4020424696060001
  2.9905420775250002  4.3215895238639996  1.6184687670160001
