Tc B 
 1.0000000000000000
     2.8907200000000000   -0.0000010000000000    0.0000000000000000
    -1.4453609999999999    2.5034320000000001    0.0000000000000000
     0.0000000000000000    0.0000000000000000    7.4353129999999998
 Tc  B  
   2   4
Cartesian
  0.0000007786930001  1.6689551678100001  1.8588282500000000
  1.4453582213070000  0.8344758321900000  5.5764847499999997
  0.0000007786950001  1.6689501609469999  7.0787600003979998
  1.4453582213050000  0.8344808390530000  0.3565529996020000
  1.4453582213050000  0.8344808390530000  3.3611035003979999
  0.0000007786950001  1.6689501609469999  4.0742094996020004
