Ta Ti Tc
 1.0000000000000000
     0.0000020000000000    3.1366329999999998    3.1366329999999998
     3.1366329999999998    0.0000010000000000    3.1366339999999999
     3.1366339999999999    3.1366350000000001    0.0000000000000000
 Ta  Ti  Tc 
   1   1   2
Cartesian
  1.5683172499999998  1.5683172500000000  1.5683167499999999
  4.7049517500000002  4.7049517499999993  4.7049502499999996
  0.0000000000000000  0.0000000000000000  0.0000000000000000
  3.1366344999999995  3.1366345000000000  3.1366334999999999
