Na Zr Se
 1.0000000000000000
     6.0259600000000004    3.4742670000000002   -0.0007760000000000
    -6.0259600000000004    3.4742670000000002   -0.0007760000000000
     0.0000000000000000    2.3520219999999998    6.8435870000000003
 Na  Zr  Se 
   4   2   6
Cartesian
  0.0000000000000000  0.0000000000000000  0.0000000000000000
  0.0000000000000000  4.6502780000000001  3.4210175000000000
  4.1300242571200005  4.6502780000000001  3.4210175000000000
 -4.1300242571200005  4.6502780000000001  3.4210175000000000
 -2.0314716352000004  3.4742670000000002 -0.0007760000000000
  2.0314716352000000  3.4742670000000007 -0.0007760000000000
 -2.1697493393200005  5.6994879184249996  1.5418279269920001
 -0.0000000000000002  6.8015091990060004  5.3053918586260007
  2.1697493393200000  3.6010680815749998  5.3002070730080000
 -2.1697493393200000  3.6010680815750002  5.3002070730080000
  2.1697493393200005  5.6994879184249996  1.5418279269920001
  0.0000000000000000  2.4990468009940003  1.5366431413740000
