Rb B  H 
 1.0000000000000000
     0.0000000000000000    3.4532400000000001    3.4532400000000001
     3.4532400000000001    0.0000000000000000    3.4532400000000001
     3.4532400000000001    3.4532400000000001    0.0000000000000000
 Rb  B   H  
   1   1   4
Cartesian
  0.0000000000000000  0.0000000000000000  0.0000000000000000
  3.4532400000000001  3.4532400000000001  3.4532400000000001
  4.1605706024400000  4.1605706024400000  2.7459128508000004
  4.1605706024400000  2.7459128508000004  4.1605706024400000
  2.7459128508000004  4.1605706024400000  4.1605706024400000
  2.7459128508000004  2.7459128508000004  2.7459128508000004
