Ir Se
 1.0000000000000000
     3.7658420000000001    0.0000000000000000    0.0000000000000000
     0.0000000000000000    5.9858700000000002    0.0000000000000000
     0.0000000000000000    0.0000000000000000   21.1580109999999983
 Ir  Se 
   8  16
Cartesian
  0.9414605000000000  5.6363849800499999 17.0300407378780001
  2.8243815000000003  0.3494850199500000  4.1279702621220000
  2.8243815000000003  2.6434499800500002 14.7069757621219992
  0.9414605000000000  3.3424200199500000  6.4510352378779992
  0.9414605000000000  5.5676851500600000 12.1955410144329992
  2.8243815000000003  0.4181848499400000  8.9624699855669991
  2.8243815000000003  2.5747501500600003 19.5414754855669983
  0.9414605000000000  3.4111198499399999  1.6165355144329998
  0.9414605000000000  3.4251207998699997 18.2241354046849970
  2.8243815000000003  2.5607492001300001  2.9338755953150000
  2.8243815000000003  0.4321857998700000 13.5128810953150005
  0.9414605000000000  5.5536842001300002  7.6451299046849996
  0.9414605000000000  1.0931276076600001  5.5401617063169999
  2.8243815000000003  4.8927423923400006 15.6178492936829976
  2.8243815000000003  4.0860626076599997  5.0388437936829993
  0.9414605000000000  1.8998073923400001 16.1191672063169982
  0.9414605000000000  1.6537941212100000 20.9704240744739963
  2.8243815000000003  4.3320758787900004  0.1875869255260000
  2.8243815000000003  4.6467291212099999 10.7665924255259995
  0.9414605000000000  1.3391408787900001 10.3914185744739989
  0.9414605000000000  5.6935799678999999  2.5831815629899997
  2.8243815000000003  0.2922900321000000 18.5748294370099991
  2.8243815000000003  2.7006449679000002  7.9958239370099999
  0.9414605000000000  3.2852250321000005 13.1621870629900002
