Dy Fe Si
 1.0000000000000000
     3.6416670000000000   -0.0000000000000000   -1.3301300000000000
    -0.4858350000000000    3.6091139999999999   -1.3301300000000000
    -0.0074420000000000   -0.0085110000000000    5.6298209999999997
 Dy  Fe  Si 
   1   2   2
Cartesian
  0.0000000000000000  0.0000000000000000  0.0000000000000000
  0.5423195000000000  2.7025799999999998  1.4847804999999998
  2.6060705000000000  0.8980230000000000  1.4847804999999998
  1.9812608299779997  2.2658354856690002 -0.2258347306490001
  1.1671291700220001  1.3347675143310000  3.1953957306489995
