Fe Br
 1.0000000000000000
     1.8616340000000000   -3.2839100000000001   -0.0081290000000000
     1.8555569999999999    3.2805059999999999    0.0105400000000000
     0.0041790000000000    0.0198420000000000    6.5033599999999998
 Fe  Br 
   1   2
Cartesian
  3.7213495341799998  0.0164609941780002  6.5057710520810001
  1.8608658704909999 -1.0879789101060000  1.4825474273919999
  1.8605246055850000  1.1043873713540000  5.0232300052179992
