Th Co C 
 1.0000000000000000
    -3.8290570000000002    0.0000000000000000    0.0000000000000000
     0.0000000000000000   -2.2577199999999999   -3.0403850000000001
     0.0000000000000000   -2.2577199999999999    3.0403850000000001
 Th  Co  C  
   1   1   2
Cartesian
  0.0000000000000000 -2.2577199999999999 -3.0321455566500002
 -1.9145285000000001 -2.2577199999999999  0.6458020970800000
 -1.9145285000000001 -2.9641809074799998 -1.1935304952149999
 -1.9145285000000001 -1.5512590925200000 -1.1935304952150001
