Pr In
 1.0000000000000000
     4.7215639999999999    0.0000000000000000    0.0000000000000000
     0.0000000000000000    4.7215639999999999    0.0000000000000000
     0.0000000000000000    0.0000000000000000    4.7215639999999999
 Pr  In 
   1   3
Cartesian
  0.0000000000000000  0.0000000000000000  0.0000000000000000
  2.3607819999999999  0.0000000000000000  2.3607819999999999
  0.0000000000000000  2.3607819999999999  2.3607819999999999
  2.3607819999999999  2.3607819999999999  0.0000000000000000
