Tb Sn O 
 1.0000000000000000
     0.0000000000000000    5.2111409999999996    5.2111409999999996
     5.2111409999999996    0.0000000000000000    5.2111409999999996
     5.2111409999999996    5.2111409999999996    0.0000000000000000
 Tb  Sn  O  
   4   4  14
Cartesian
  3.9083557499999992  3.9083557499999992  6.5139262499999990
  3.9083557499999997  6.5139262499999990  3.9083557499999992
  6.5139262499999990  3.9083557499999997  3.9083557499999997
  6.5139262499999990  6.5139262499999990  6.5139262499999990
  3.9083557499999997  3.9083557499999997  1.3027852499999999
  3.9083557499999992  1.3027852499999999  3.9083557499999997
  1.3027852499999999  3.9083557499999992  3.9083557499999992
  1.3027852499999999  1.3027852499999999  1.3027852499999999
  7.8167114999999994  7.8167114999999994  7.8167114999999994
  5.2111409999999996  5.2111409999999996  5.2111409999999996
  2.6055704999999998  0.3910440206399999  2.6055704999999998
  5.2111409999999996  8.2077555206399992  5.2111409999999996
  2.6055704999999998  2.6055704999999998  0.3910440206399999
  0.3910440206399999  2.6055704999999998  2.6055704999999998
  4.8200969793599997  2.6055704999999998  2.6055704999999998
  2.6055704999999998  2.6055704999999998  4.8200969793599997
  2.6055704999999998  4.8200969793599997  2.6055704999999998
  8.2077555206399992  5.2111409999999996  5.2111409999999996
  2.2145264793599999  5.2111409999999996  5.2111409999999996
  5.2111409999999996  2.2145264793599999  5.2111409999999996
  5.2111409999999996  5.2111409999999996  8.2077555206399992
  5.2111409999999996  5.2111409999999996  2.2145264793599999
