Sc Se
 1.0000000000000000
     3.3483980000000000    0.0000000000000000    1.9331989999999999
     1.1161330000000000    3.1568980000000000    1.9331989999999999
     0.0000000000000000    0.0000000000000000    3.8663959999999999
 Sc  Se 
   1   1
Cartesian
  0.0000000000000000  0.0000000000000000  0.0000000000000000
  2.2322655000000000  1.5784490000000000  3.8663970000000001
