Tb Ti Ge
 1.0000000000000000
     4.0411409999999997    0.0000000000000000    0.0000000000000000
     0.0000000000000000    4.0411409999999997    0.0000000000000000
     0.0000000000000000    0.0000000000000000    7.7648419999999998
 Tb  Ti  Ge 
   2   2   2
Cartesian
  0.0000000000000000  2.0205704999999998  2.7015904176920000
  2.0205704999999998  0.0000000000000000  5.0632515823080002
  2.0205704999999998  2.0205704999999998  0.0000000000000000
  0.0000000000000000  0.0000000000000000  0.0000000000000000
  2.0205704999999998  0.0000000000000000  1.8642298564119999
  0.0000000000000000  2.0205704999999998  5.9006121435879999
