Er B 
 1.0000000000000000
     3.9878849999999999    0.0000000000000000    0.0000000000000000
     0.0000000000000000    7.0567099999999998    0.0000000000000000
     0.0000000000000000    0.0000000000000000    7.0567099999999998
 Er  B  
   4  16
Cartesian
  0.0000000000000000  4.8067485836000001  1.2783935835999998
  0.0000000000000000  5.7783164164000000  4.8067485836000001
  0.0000000000000000  1.2783935835999998  2.2499614164000001
  0.0000000000000000  2.2499614164000001  5.7783164164000000
  1.9939425000000000  3.2581818009400001  2.2836783767800002
  1.9939425000000000  3.7985281990600002  4.7730316232200005
  1.9939425000000000  2.2836783767800002  3.7985281990600002
  1.9939425000000000  4.7730316232200005  3.2581818009400001
  0.8077181915550000  0.0000000000000000  0.0000000000000000
  3.1801668084449997  3.5283549999999999  3.5283549999999999
  3.1801668084449997  0.0000000000000000  0.0000000000000000
  0.8077181915550000  3.5283549999999999  3.5283549999999999
  1.9939425000000000  0.6134186301700000  4.1417736301699994
  1.9939425000000000  2.9149363698299999  0.6134186301700000
  1.9939425000000000  4.1417736301699994  6.4432913698299998
  1.9939425000000000  6.4432913698299998  2.9149363698299999
  1.9939425000000000  1.2446766232199999  0.2701731990600000
  1.9939425000000000  6.7865368009399996  1.2446766232199999
  1.9939425000000000  0.2701731990600000  5.8120333767799996
  1.9939425000000000  5.8120333767799996  6.7865368009399996
