Hf Ir
 1.0000000000000000
     3.9681050000000000    0.0000000000000000    0.0000000000000000
     0.0000000000000000    3.9681050000000000    0.0000000000000000
     0.0000000000000000    0.0000000000000000    3.9681050000000000
 Hf  Ir 
   1   3
Cartesian
  0.0000000000000000  0.0000000000000000  0.0000000000000000
  0.0000000000000000  1.9840525000000000  1.9840525000000000
  1.9840525000000000  1.9840525000000000  0.0000000000000000
  1.9840525000000000  0.0000000000000000  1.9840525000000000
