Eu Cd Sb
 1.0000000000000000
     2.3719610000000002   -4.1083559999999997    0.0000000000000000
     2.3719610000000002    4.1083559999999997    0.0000000000000000
     0.0000000000000000    0.0000000000000000    7.7045180000000002
 Eu  Cd  Sb 
   1   2   2
Cartesian
  0.0000000000000000  0.0000000000000000  0.0000000000000000
  2.3719610000000002 -1.3694547389040002  2.8144912434720002
  2.3719610000000002  1.3694547389039999  4.8900267565280000
  2.3719610000000002 -1.3694547389040002  5.8123808334160003
  2.3719610000000002  1.3694547389039999  1.8921371665840001
