Ba Si Ni
 1.0000000000000000
     4.1900700000000004    0.0136590000000000    0.0000000000000000
    -0.7922709999999999    4.1145100000000001    0.0000000000000000
     0.0000000000000000    0.0000000000000000   11.4976850000000006
 Ba  Si  Ni 
   2   4   4
Cartesian
  2.7031461768420004  3.2841978733019999  8.6232637499999996
  0.6946528231580001  0.8439711266980001  2.8744212500000001
  2.3420654749110006  2.8455014818410000  5.0144968567350006
  1.0557335250890003  1.2826675181590002 10.7633508544200005
  2.3420654749110006  2.8455014818410000  0.7343456432650000
  1.0557335250890003  1.2826675181590002  6.4831766455800004
  3.1722474864740002  0.8514054473860000  0.0000000000000000
  0.2255515135260001  3.2767635526140002  5.7488425000000003
  3.1722474864740002  0.8514054473860000  5.7488425000000003
  0.2255515135260001  3.2767635526140002  0.0000000000000000
