Ca Al Sb
 1.0000000000000000
     4.5134290000000004    0.0000000000000000    0.0000000000000000
     0.0000000000000000   12.9382680000000008    0.0000000000000000
     0.0000000000000000    0.0000000000000000   14.3334279999999996
 Ca  Al  Sb 
  12   4  12
Cartesian
  1.1283572500000001  0.7672392924000000 12.7424174919999995
  3.3850717500000003 12.1710287075999997  1.5910105079999999
  1.1283572500000001  7.2363732924000006  8.7577245079999990
  3.3850717500000003  5.7018947076000002  5.5757034919999997
  1.1283572500000001 10.9877723459280006  7.1089216183040005
  3.3850717500000003  1.9504956540720002  7.2245063816960000
  1.1283572500000001  4.5186383459280002  0.0577923816960000
  3.3850717500000003  8.4196296540720006 14.2756356183039994
  3.3850717500000003  2.9540265349560002  3.1593168660480000
  1.1283572500000001  9.9842414650440006 11.1741111339519996
  3.3850717500000003  9.4231605349560006  4.0073971339519998
  1.1283572500000001  3.5151074650440002 10.3260308660479989
  1.1283572500000001  0.8748598056240000  4.2543190981079997
  3.3850717500000003 12.0634081943760005 10.0791089018919990
  1.1283572500000001  7.3439938056239997  2.9123949018920001
  3.3850717500000003  5.5942741943760002 11.4210330981079995
  1.1283572500000001  3.3054428321040001  5.4566787058879997
  3.3850717500000003  9.6328251678960015  8.8767492941119990
  1.1283572500000001  9.7745768321039996  1.7100352941119998
  3.3850717500000003  3.1636911678960002 12.6233927058879996
  1.1283572500000001  1.4626841356680000  1.5858074736359999
  3.3850717500000003 11.4755838643320001 12.7476205263639990
  1.1283572500000001  7.9318181356680002  5.5809065263640001
  3.3850717500000003  5.0064498643320006  8.7525214736359995
  1.1283572500000001  0.5097936357360000  9.3158681943199984
  3.3850717500000003 12.4284743642639999  5.0175598056799995
  1.1283572500000001  6.9789276357360013 12.1842738056800002
  3.3850717500000003  5.9593403642640004  2.1491541943199999
