Be V  Co
 1.0000000000000000
     0.0000780000000000    2.7347169999999998    2.7347169999999998
     2.7347169999999998    0.0000780000000000    2.7347169999999998
     2.7347169999999998    2.7347169999999998    0.0000780000000000
 Be  V   Co 
   1   1   2
Cartesian
  1.3673670609760000  1.3673670609759998  1.3673670609759998
  4.1021449390239990  4.1021449390239990  4.1021449390239999
  2.7349036768240000  2.7349036768239996  2.7349036768239996
  5.4693697926880001  5.4693697926880001  5.4693697926880001
