Ca Au N 
 1.0000000000000000
     3.4834450000000001    0.0000000000000000   -0.6906240000000000
     0.0000000000000000    4.9268270000000003    0.0000000000000000
     0.0185280000000000    0.0000000000000000    9.2238530000000001
 Ca  Au  N  
   4   2   2
Cartesian
  2.1076222694620004  1.2317067500000001  1.5002617844410000
  1.3943507305379998  3.6951202500000004  7.0329672155590002
  2.7417876985690000  1.2317067500000001  4.6989245266580006
  0.7601853014310000  3.6951202500000004  3.8343044733420002
  0.1420064488370000  3.6951202500000004  0.7162674166340000
  3.3599665511630006  1.2317067500000001  7.8169615833660000
  2.8221678144569999  3.6951202500000004  5.1043726705879999
  0.6798051855430001  1.2317067500000001  3.4288563294120000
