Ti Sb Ru
 1.0000000000000000
     6.1610310000000004    0.0000000000000000    0.0000000000000000
     0.0000000000000000    6.1610310000000004    0.0000000000000000
     0.0000000000000000    0.0000000000000000    6.1610310000000004
 Ti  Sb  Ru 
   4   4   4
Cartesian
  0.0000000000000000  0.0000000000000000  0.0000000000000000
  0.0000000000000000  3.0805155000000002  3.0805155000000002
  3.0805155000000002  0.0000000000000000  3.0805155000000002
  3.0805155000000002  3.0805155000000002  0.0000000000000000
  0.0000000000000000  0.0000000000000000  3.0805155000000002
  0.0000000000000000  3.0805155000000002  0.0000000000000000
  3.0805155000000002  0.0000000000000000  0.0000000000000000
  3.0805155000000002  3.0805155000000002  3.0805155000000002
  1.5402577500000001  4.6207732500000001  4.6207732500000001
  1.5402577500000001  1.5402577500000001  1.5402577500000001
  4.6207732500000001  4.6207732500000001  1.5402577500000001
  4.6207732500000001  1.5402577500000001  4.6207732500000001
