Pr C  Br
 1.0000000000000000
     3.8457200000000000    0.0000000000000000    0.0000000000000000
    -1.9228600000000000    3.3304909999999999    0.0000000000000000
     0.0000000000000000    0.0000000000000000   14.9700299999999995
 Pr  C   Br 
   4   2   2
Cartesian
 -0.0000019228600001  2.2203284434969999  1.3860301676100000
  1.9228619228600001  1.1101625565030000  8.8709852874899990
  1.9228619228600001  1.1101625565030000 13.5838800721500004
 -0.0000019228600001  2.2203284434969999  6.0991495027199996
  0.0000000000000000  0.0000000000000000  0.0001197602400000
  0.0000000000000000  0.0000000000000000  7.4849102097899998
  1.9228619228600001  1.1101625565030000  3.7424326498500000
 -0.0000019228600001  2.2203284434969999 11.2275973501500008
