Ba Bi N 
 1.0000000000000000
     7.7279850000000003    0.0000000000000000    0.0000000000000000
    -3.8639920000000001    6.6926319999999997    0.0000000000000000
     0.0000000000000000    0.0000000000000000    6.7793380000000001
 Ba  Bi  N  
   6   2   2
Cartesian
 -2.0313468042079998  5.6345536513279999  1.6948345000000000
  3.8639928419039999  4.5764753026559992  5.0845035000000003
  1.8326453538880001  1.0580783486719998  5.0845035000000003
  5.8953398042080005  1.0580783486719998  5.0845035000000003
  2.0313476461119997  5.6345536513279999  1.6948345000000000
  0.0000001580960001  2.1161566973439996  1.6948345000000000
 -0.0000035306590003  4.4617568975440003  5.0845035000000003
  3.8639965306590001  2.2308751024559998  1.6948345000000000
  0.0000000000000000  0.0000000000000000  0.0000000000000000
  0.0000000000000000  0.0000000000000000  3.3896690000000000
