Na Li S 
 1.0000000000000000
     4.0092610000000004    0.0000000000000000    0.0000000000000000
     0.0000000000000000    4.0092610000000004    0.0000000000000000
     0.0000000000000000    0.0000000000000000    6.4794539999999996
 Na  Li  S  
   2   2   2
Cartesian
  1.0023152500000001  1.0023152500000001  4.2022628506080002
  3.0069457500000003  3.0069457500000003  2.2771911493919998
  1.0023152500000001  3.0069457500000003  0.0000000000000000
  3.0069457500000003  1.0023152500000001  0.0000000000000000
  1.0023152500000001  1.0023152500000001  1.4043957366839999
  3.0069457500000003  3.0069457500000003  5.0750582633159995
