Er Co Ge
 1.0000000000000000
     3.6652520000000002    0.0000000000000000   -1.3475360000000001
    -0.4954240000000000    3.6316150000000000   -1.3475360000000001
     0.0196000000000000    0.0224550000000000    5.7117630000000004
 Er  Co  Ge 
   1   2   2
Cartesian
  0.0000000000000000  0.0000000000000000  0.0000000000000000
  2.6348829999999999  0.9191312500000000  1.5083455000000001
  0.5545450000000001  2.7349387500000000  1.5083455000000001
  1.9936863458960001  2.2841305401850001 -0.2357052078609998
  1.1957416541040000  1.3699394598150001  3.2523962078610000
