Ac H 
 1.0000000000000000
     3.6230470000000001    0.0000000000000000    2.0917669999999999
     1.2076830000000001    3.4158409999999999    2.0917669999999999
     0.0000000000000000    0.0000000000000000    4.1835339999999999
 Ac  H  
   1   2
Cartesian
  0.0000000000000000  0.0000000000000000  0.0000000000000000
  3.6230475000000002  2.5618807499999998  6.2753009999999998
  1.2076825000000000  0.8539602500000000  2.0917669999999999
