Rb Ti Cl
 1.0000000000000000
     6.1193619999999997    0.0000000000000000    3.5330159999999999
     2.0397870000000000    5.7693899999999996    3.5330159999999999
     0.0000000000000000    0.0000000000000000    7.0660309999999997
 Rb  Ti  Cl 
   2   1   6
Cartesian
  6.1193617500000004  4.3270424999999992 10.5990472499999999
  2.0397872499999998  1.4423474999999999  3.5330157499999997
  0.0000000000000000  0.0000000000000000  0.0000000000000000
  2.9997150770749998  4.4118467636099998  8.9364028396690003
  2.9997150770749998  4.4118467636099998  5.1956601603310002
  5.1594339229250004  1.3575432363900000  8.9364028396690003
  5.1594339229250004  1.3575432363900000  5.1956601603310002
  6.2392930811510006  4.4118467636099998  7.0660317646989999
  1.9198559188490001  1.3575432363900000  7.0660312353009997
