Sm Cd
 1.0000000000000000
     4.9973590000000003    0.0000000000000000    0.0000000000000000
    -2.4986790000000001    4.3278390000000000    0.0000000000000000
     0.0000000000000000    0.0000000000000000    3.4714589999999999
 Sm  Cd 
   1   2
Cartesian
  0.0000000000000000  0.0000000000000000  0.0000000000000000
 -0.0000021653460000  2.8852274426130000  1.7352018382320000
  2.4986821653460001  1.4426115573870000  1.7362571617680000
