Zr Zn Rh
 1.0000000000000000
     0.0000000000000000    3.1328040000000001    3.1328040000000001
     3.1328040000000001    0.0000000000000000    3.1328040000000001
     3.1328040000000001    3.1328040000000001    0.0000000000000000
 Zr  Zn  Rh 
   1   1   2
Cartesian
  4.6992060000000002  4.6992060000000002  4.6992060000000002
  1.5663957343920001  1.5663957343920001  1.5663957343920001
  0.0000000000000000  0.0000000000000000  0.0000000000000000
  3.1328040000000001  3.1328040000000001  3.1328040000000001
