Sc Cu Os
 1.0000000000000000
     0.0000000000000000    3.2166920000000001    3.2166920000000001
     3.2166920000000001    0.0000000000000000    3.2166920000000001
     3.2166920000000001    3.2166920000000001    0.0000000000000000
 Sc  Cu  Os 
   2   1   1
Cartesian
  0.0000000000000000  0.0000000000000000  0.0000000000000000
  3.2166920000000001  3.2166920000000001  3.2166920000000001
  1.6083460000000001  1.6083460000000001  1.6083460000000001
  4.8250315666160004  4.8250315666160004  4.8250315666160004
