Nb Te
 1.0000000000000000
     3.5859350000000001    0.0000000000000000    0.9218120000000000
     1.7928720000000000    7.3635880000000000    0.4612780000000000
    -0.0403350000000000   -0.0003830000000000    7.5926250000000000
 Nb  Te 
   5   4
Cartesian
  0.0000000000000000  0.0000000000000000  0.0000000000000000
  1.2303881664170000  0.5140891854820001  2.6493850720040002
  3.4578456654760004  5.1039559138710002  1.4200844559190000
  1.8806263345240002  2.2592490861290004  7.5556305440810005
  4.1080838335830006  6.8491158145180000  6.3263299279960004
  0.5944722731740000  1.6391935820549999  5.1231874722549993
  3.1777335886910003  2.5497264356380001  2.5097614560600001
  2.1607384113090000  4.8134785643619997  6.4659535439399995
  4.7439997268259999  5.7240114179450003  3.8525275277450000
