Na Mn S 
 1.0000000000000000
     4.4702169999999999   -7.7434180000000001    0.0000020000000000
     4.4702169999999999    7.7434190000000003    0.0000000000000000
     0.0000020000000000   -0.0000010000000000    6.9251750000000003
 Na  Mn  S  
  12   2   8
Cartesian
  2.6695204530409997 -3.6208612767019996  2.5456884696090003
  4.4702187352039999  0.5017112038499999  6.0082966155579998
  4.4702180728899998  5.4719795676019993  3.7149757962129999
  1.9669626061290000 -1.1357657249170001  0.2523331881650000
  6.9734715396190001 -1.1357651649319995  0.2523343081350000
  1.9669680763460000  1.1357733354770001  3.7149203948150005
  6.9734725396190003  1.1357661520430005  3.7149215147850003
  4.4702170728899997 -5.4719791404920004  0.2523897095370000
  4.4702177352039998 -0.5016959522169998  2.5457092451399999
  6.2709150173529995 -3.6208608738799994  2.5456823500760000
  6.2709070769210005  3.6208610415030003  6.0082758400390004
  2.6695303934750001  3.6208606386839999  6.0082750344010005
  4.4702229717110002 -2.5811681432809999  5.1990556890630009
  4.4702130312769999  2.5811681417870003  1.7364675223870001
  2.4948239215809997  1.4405624844850002  0.9837145556370001
  6.4456106466150009  1.4405629263860000  0.9837154394390001
  4.4702137267489999  2.5811368203770000  4.1446001761910001
  4.4702127267449994 -2.5811365173419993  0.6819994925070000
  4.4702128138910000  4.8623173932320007  0.9837491815200001
  4.4702182841080003 -4.8623094339220003  4.4463379373779999
  6.4456161168320003 -1.4405545251640008  4.4463033115129997
  2.4948249215830001 -1.4405627104849998  4.4463093528859998
