Ca Ge N 
 1.0000000000000000
     4.8041840000000002    0.0000000000000000    0.0000000000000000
     0.0000000000000000    4.8041820000000000    0.0000000000000000
     0.0000000000000000    0.0000000000000000    4.8041840000000002
 Ca  Ge  N  
   3   1   1
Cartesian
  2.4020920000000001  0.0000000000000000  2.4020920000000001
  0.0000000000000000  2.4020910000000000  2.4020920000000001
  2.4020920000000001  2.4020910000000000  0.0000000000000000
  0.0000000000000000  0.0000000000000000  0.0000000000000000
  2.4020920000000001  2.4020910000000000  2.4020920000000001
