Ca Zn
 1.0000000000000000
     7.1441439999999998    0.0015260000000000   -3.2825419999999998
    -1.5045890000000000    6.9838920000000000   -3.2825489999999999
     0.0085670000000000    0.0106030000000000    9.4453650000000007
 Ca  Zn 
  10   6
Cartesian
  0.0085669914330000  0.0106029893970000  9.4453555546350003
  2.8283459960220001  3.5033050055050001  6.1628133371840006
  1.0427904146420002  5.7154200917890003 -0.9575107228219998
  2.9216615429010004  2.2236025270019999  0.1657893818289998
  4.3774819478360003  6.8174725287950002 -3.1167666674779997
  2.7264589696439998  4.7724254780960003  2.7145002263520008
  1.2706486923300000  0.1785414782360000  5.9970312221200004
 -0.6075446631420000  3.6712339530609999  4.8744726511220007
  4.6053372249129998  1.2806078936290000  3.8377781577310004
  6.2556595189979989  3.3247870454130002 -1.9941953685799998
  1.4142500800300000  1.7515931481030000  3.0814003046980005
  4.2338760635029997  5.2444418318100006 -0.2011267069729999
  1.4280848016409999  6.1926578402610000  5.2726646075310004
  0.2498291468180000  2.7003938073829996  7.8040793807960007
  5.3982800523490004  4.2956201844670003 -4.9238144238929999
  4.2200372069260004  0.8033631703420000 -2.3923811621659996
