Li Al Ge
 1.0000000000000000
     3.6472099999999998    0.0000000000000000    2.1057169999999998
     1.2157359999999999    3.4386220000000001    2.1057169999999998
     0.0000000000000000    0.0000000000000000    4.2114349999999998
 Li  Al  Ge 
   1   1   1
Cartesian
  2.4314730000000000  1.7193110000000000  4.2114344999999993
  0.0000000000000000  0.0000000000000000  0.0000000000000000
  1.2157365000000000  0.8596555000000000  2.1057172499999997
