Ce P 
 1.0000000000000000
     3.6281690000000002    0.0000000000000000    2.0947260000000001
     1.2093900000000000    3.4206710000000000    2.0947260000000001
     0.0000000000000000    0.0000000000000000    4.1894489999999998
 Ce  P  
   1   1
Cartesian
  0.0000000000000000  0.0000000000000000  0.0000000000000000
  2.4187795000000003  1.7103355000000000  4.1894504999999995
