Cd I 
 1.0000000000000000
     4.2851330000000001    0.0000000000000000    0.0000000000000000
    -2.1425660000000000    3.7110340000000002    0.0000000000000000
     0.0000000000000000    0.0000000000000000   21.4841529999999992
 Cd  I  
   3   6
Cartesian
  2.1425688092330000  1.2370100963220001  1.7781359230450000
  0.0000000000000000  0.0000000000000000  8.9555832414379992
  0.0000000000000000  0.0000000000000000 16.1190228920750016
  2.1425688092330000  1.2370100963220001 14.3964449886879997
 -0.0000018092330000  2.4740239036780003 17.8457257528379998
 -0.0000018092330000  2.4740239036780003  3.4993388406399997
  2.1425688092330000  1.2370100963220001  7.2349174276679999
  0.0000000000000000  0.0000000000000000  0.0565677748490000
 -0.0000018092330000  2.4740239036780003 10.6798583929119992
