Hf Ge Te
 1.0000000000000000
     3.7330500000000000    0.0000000000000000    0.0000000000000000
     0.0000000000000000    3.7330500000000000    0.0000000000000000
     0.0000000000000000    0.0000000000000000   10.1449820000000006
 Hf  Ge  Te 
   2   2   2
Cartesian
  2.7997874999999999  2.7997874999999999  8.0306561563980008
  0.9332625000000000  0.9332625000000000  2.1143258436020003
  2.7997874999999999  0.9332625000000000  0.0000000000000000
  0.9332625000000000  2.7997874999999999  0.0000000000000000
  0.9332625000000000  0.9332625000000000  6.6977576963280008
  2.7997874999999999  2.7997874999999999  3.4472243036720003
