Hf Mg Au
 1.0000000000000000
     0.0000000000000000    3.3205819999999999    3.3205819999999999
     3.3205819999999999    0.0000000000000000    3.3205819999999999
     3.3205819999999999    3.3205819999999999    0.0000000000000000
 Hf  Mg  Au 
   1   1   2
Cartesian
  1.6602910000000000  1.6602910000000000  1.6602910000000000
  4.9808729999999999  4.9808729999999999  4.9808729999999999
  0.0000000000000000  0.0000000000000000  0.0000000000000000
  3.3205819999999999  3.3205819999999999  3.3205819999999999
