Ca La Cd
 1.0000000000000000
     0.0000000000000000    3.8784470000000000    3.8784470000000000
     3.8784470000000000    0.0000000000000000    3.8784470000000000
     3.8784470000000000    3.8784470000000000    0.0000000000000000
 Ca  La  Cd 
   1   1   2
Cartesian
  1.9392235000000000  1.9392235000000000  1.9392235000000000
  5.8176782568940002  5.8176782568940002  5.8176782568940002
  3.8784392431060000  3.8784392431060000  3.8784392431060000
  0.0000000000000000  0.0000000000000000  0.0000000000000000
