Mo Ir
 1.0000000000000000
     5.5481290000000003    0.0000000000000000    0.0000000000000000
    -2.7740640000000001    4.8048209999999996    0.0000000000000000
     0.0000000000000000    0.0000000000000000    4.4210039999999999
 Mo  Ir 
   2   6
Cartesian
 -0.0000024407310000  3.2032156016069999  1.1052510000000000
  2.7740674407310006  1.6016053983929999  3.3157530000000000
  2.7740592855040003  3.2060936893859999  1.1052510000000000
 -1.3895173949760002  4.0054525398719996  3.3157530000000000
  1.3895293248660001  4.0054525398719996  3.3157530000000000
  1.3845356751339999  0.7993684601279999  1.1052510000000000
  4.1635823949760002  0.7993684601279999  1.1052510000000000
  0.0000057144960000  1.5987273106139996  3.3157530000000000
