Ho Ir
 1.0000000000000000
     3.3899430000000002    0.0000000000000000    0.0000000000000000
     0.0000000000000000    3.3899430000000002    0.0000000000000000
     0.0000000000000000    0.0000000000000000    3.3899430000000002
 Ho  Ir 
   1   1
Cartesian
  0.0000000000000000  0.0000000000000000  0.0000000000000000
  1.6949715000000001  1.6949715000000001  1.6949715000000001
