Be Co Pt
 1.0000000000000000
     0.0000000000000000    2.7089240000000001    2.7089240000000001
     2.7089240000000001    0.0000000000000000    2.7089240000000001
     2.7089240000000001    2.7089240000000001    0.0000000000000000
 Be  Co  Pt 
   2   1   1
Cartesian
  0.0000000000000000  0.0000000000000000  0.0000000000000000
  2.7089294178480001  2.7089294178480001  2.7089294178480001
  1.3544674178479998  1.3544674178479998  1.3544674178479998
  4.0633860000000004  4.0633860000000004  4.0633860000000004
