Hf Cd Rh
 1.0000000000000000
     0.0000010000000000    3.2019039999999999    3.2019000000000002
     3.2018990000000001    0.0000060000000000    3.2018960000000001
     3.2019069999999998    3.2019069999999998   -0.0000020000000000
 Hf  Cd  Rh 
   1   1   2
Cartesian
  4.8028552500000004  4.8028627500000001  4.8028455000000001
  1.6009517500000001  1.6009542500000000  1.6009484999999999
  3.2018957981009999  0.0000059999940000  3.2018927981040002
  3.2019067018990000  3.2019085000059997  3.2019002018960001
