Cu O 
 1.0000000000000000
     4.3025349999999998    0.0000000000000000    0.0000000000000000
     0.0000000000000000    4.3025349999999998    0.0000000000000000
     0.0000000000000000    0.0000000000000000    4.3025349999999998
 Cu  O  
   4   2
Cartesian
  2.1512674999999999  2.1512674999999999  0.0000000000000000
  0.0000000000000000  2.1512674999999999  2.1512674999999999
  2.1512674999999999  0.0000000000000000  2.1512674999999999
  0.0000000000000000  0.0000000000000000  0.0000000000000000
  3.2269012500000001  3.2269012500000001  3.2269012500000001
  1.0756337499999999  1.0756337499999999  1.0756337499999999
