Ce Al Co
 1.0000000000000000
     4.0334490000000001    0.0000000000000000    0.0000000000000000
     0.0000000000000000    6.8605159999999996    0.0000060000000000
     0.0000000000000000    0.0000040000000000    7.5837770000000004
 Ce  Al  Co 
   2   8   2
Cartesian
  0.0000000000000000  4.2340184730079997  5.6878288691650001
  0.0000000000000000  2.6265015269920000  1.8959541308349999
  2.0167245000000000  2.0385497241680000  4.3206615504000006
  2.0167245000000000  4.8219702758319993  3.2631214496000003
  2.0167245000000000  2.0385443058599999  7.0550075152980005
  2.0167245000000000  4.8219756941399998  0.5287754847020000
  0.0000000000000000  0.0000000000000000  0.0000000000000000
  0.0000000000000000  0.0000020000000000  3.7918885000000002
  2.0167245000000000  0.2820230917279999  1.8959444966480001
  2.0167245000000000  6.5785037687879999  5.6878385033579999
  0.0000000000000000  1.3012027671399999  5.6878338879900001
  0.0000000000000000  5.5593172328599998  1.8959491120100000
