Zr Al Ni
 1.0000000000000000
     6.8740620000000003    0.0000000000000000    0.0000000000000000
    -3.4370300000000000    5.9531120000000000    0.0000000000000000
     0.0000000000000000    0.0000000000000000    3.4819460000000002
 Zr  Al  Ni 
   3   3   3
Cartesian
  4.0566383264940002  0.0000000000000000  1.7409730000000001
  1.4087122466160003  2.4399603436559998  1.7409730000000001
 -2.0283185731100000  3.5131516563440002  1.7409730000000001
  1.7012959746900000  0.0000000000000000  0.0000000000000000
  2.5863837651600003  4.4797465455599994  0.0000000000000000
 -0.8506477398500000  1.4733654544399999  0.0000000000000000
  0.0000000000000000  0.0000000000000000  1.7409730000000001
 -0.0000027703639998  3.9687433177039999  0.0000000000000000
  3.4370347703640003  1.9843686822959998  0.0000000000000000
