Ga
 1.0000000000000000
     2.8032290000000000    0.0000000000000000    0.0000000000000000
     0.0000000000000000    8.1379280000000005    0.0000000000000000
     0.0000000000000000    0.0000000000000000    3.3631350000000002
 Ga 
   4
Cartesian
  0.0000000000000000  1.0904579382160000  0.8407837500000001
  0.0000000000000000  7.0474700617839998  2.5223512500000003
  1.4016145000000000  5.1594219382160009  0.8407837500000001
  1.4016145000000000  2.9785060617840005  2.5223512500000003
