Th Si
 1.0000000000000000
     4.1024890000000003    0.0000000000000000    0.0000000000000000
    -2.0512450000000002    3.5528599999999999    0.0000000000000000
     0.0000000000000000    0.0000000000000000    4.1969300000000000
 Th  Si 
   1   2
Cartesian
  0.0000000000000000  0.0000000000000000  0.0000000000000000
  2.0512463845780005  1.1842854823800000  2.0984650000000000
 -0.0000023845780000  2.3685745176199999  2.0984650000000000
