Ti Fe Sb
 1.0000000000000000
     5.9640180000000003    0.0000000000000000    0.0000000000000000
     0.0000000000000000    5.9640180000000003    0.0000000000000000
     0.0000000000000000    0.0000000000000000    5.9640180000000003
 Ti  Fe  Sb 
   4   4   4
Cartesian
  0.0000000000000000  0.0000000000000000  0.0000000000000000
  0.0000000000000000  2.9820090000000001  2.9820090000000001
  2.9820090000000001  0.0000000000000000  2.9820090000000001
  2.9820090000000001  2.9820090000000001  0.0000000000000000
  1.4910045000000001  4.4730135000000004  4.4730135000000004
  1.4910045000000001  1.4910045000000001  1.4910045000000001
  4.4730135000000004  4.4730135000000004  1.4910045000000001
  4.4730135000000004  1.4910045000000001  4.4730135000000004
  0.0000000000000000  0.0000000000000000  2.9820090000000001
  0.0000000000000000  2.9820090000000001  0.0000000000000000
  2.9820090000000001  0.0000000000000000  0.0000000000000000
  2.9820090000000001  2.9820090000000001  2.9820090000000001
