Ga Te I 
 1.0000000000000000
     7.2218330000000002    0.0000000000000000   -1.6828360000000000
     0.0000000000000000    7.2758390000000004    0.0000000000000000
    -0.0709280000000000    0.0000000000000000   16.5311640000000004
 Ga  Te  I  
   2   2  14
Cartesian
  2.0139969366980002  3.7148105665520004 12.8715341781559989
  2.0494609366980003  3.5610284334480000  4.6059521781560004
 -0.0344054398390000  6.6246223061440004 10.8051212523080000
  0.0010585601610000  0.6512166938560000  2.5395392523080003
  2.2238554421260002  1.1778637481930001 13.0128153709880010
  2.2593194421260003  6.0979752518070001  4.7472333709879999
  3.6287557399680002  4.8337036396500004 14.5331847171040014
  3.6642197399679999  2.4421353603500000  6.2676027171040003
  2.5981660425189999  4.5442489367130001 10.4951177420840001
  2.6336300425190000  2.7315900632870003  2.2295357420840003
  6.8576038505809995  4.5226469707220005 11.7724516078280015
  6.8930678505809997  2.7531920292780003  3.5068696078280004
  5.6509126322079997  4.8588562150730006  7.6486370553400009
  5.6863766322079998  2.4169827849270002 -0.6169449446600000
  5.1206830372169998  0.9088905320410000 10.0411538818199997
  5.1561470372170000  6.3669484679590003  1.7755718818200004
  0.8486781084880000  0.8718637873700001  8.7014330277000003
  0.8841421084880000  6.4039752126300007  0.4358510277000000
