Sr Pd O 
 1.0000000000000000
     3.4233600000000002   -0.0000000000000000   -0.9007060000000000
    -0.3018590000000000    3.8256329999999998   -1.1472899999999999
    -0.0041870000000000   -0.0155030000000000    6.9401120000000001
 Sr  Pd  O  
   2   1   3
Cartesian
  2.0184083944650002  2.4706149440529996  0.7154467940139999
  1.0989056055349999  1.3395150559469999  4.1766692059859993
  0.0000000000000000  0.0000000000000000  0.0000000000000000
  2.6186766946130002  3.2024861108249998  2.9969185710280000
  0.4986373053870001  0.6076438891749999  1.8951974289720002
 -0.1509295000000000  1.9128164999999999 -0.5736450000000000
