Mg Pd
 1.0000000000000000
    -4.1622219999999999    2.4029379999999998    0.0019050000000000
    -0.0001060000000000   -4.8060609999999997   -0.0019050000000000
    -1.3884110000000001    2.4047990000000001    4.5508959999999998
 Mg  Pd 
   1   5
Cartesian
 -4.1627671212699999  0.8018213386000000  2.2760829993649998
 -1.3872396149399999 -2.4110969324699996 -0.0003106666980000
 -1.3953512874620002 -2.3970329477569994  4.5486666673330003
 -2.7758743332979998 -1.6012038184329997  2.2529203031930001
 -1.3881843512479999  0.8014807360170000  2.2973315975549999
 -2.7675256901980001  0.0041654267520001  0.0006349993650000
