Mn Nb
 1.0000000000000000
     4.8205869999999997    0.0000000000000000    0.0000000000000000
    -2.4102939999999999    4.1747519999999998    0.0000000000000000
     0.0000000000000000    0.0000000000000000    7.9191409999999998
 Mn  Nb 
   8   4
Cartesian
 -1.1715645450090000  3.4595710601279999  1.9797852499999999
  2.4102931713109998  2.7443901202559999  5.9393557499999998
  1.2387292836799999  0.7151809398719999  5.9393557499999998
  1.1715637163200001  3.4595710601279999  1.9797852499999999
  0.0000000000000000  0.0000000000000000  0.0000000000000000
  0.0000000000000000  0.0000000000000000  3.9595704999999999
  3.5818575450090000  0.7151809398719999  5.9393557499999998
 -0.0000001713110000  1.4303618797439999  1.9797852499999999
 -0.0000027436270002  2.7831693915839999  4.4592762162409993
  2.4102957436269996  1.3915826084159999  0.4997057162410000
  2.4102957436269996  1.3915826084159999  3.4598647837590000
 -0.0000027436270002  2.7831693915839999  7.4194352837590003
