Al B  Mo
 1.0000000000000000
     3.0964980000000000    0.0000000000000000    0.0000000000000000
     0.0000000000000000    3.1243740000000000   -0.7175900000000000
     0.0000000000000000    0.0013230000000000    7.1662920000000003
 Al  B   Mo 
   2   2   2
Cartesian
  2.3223734999999999  0.9421242207000000  4.1019934672900007
  0.7741245000000000  2.1835727792999999  2.3467085327100001
  0.7741245000000000  1.6673768297489999  0.0992212820420000
  2.3223734999999999  1.4583201702510000  6.3494807179580004
  0.7741245000000000  2.8457317710569998  5.2297308058940004
  2.3223734999999999  0.2799652289430000  1.2189711941060000
