Nd Mg Al
 1.0000000000000000
     0.0000000000000000    3.7967399999999998    3.7967399999999998
     3.7967399999999998    0.0000000000000000    3.7967399999999998
     3.7967399999999998    3.7967399999999998    0.0000000000000000
 Nd  Mg  Al 
   2   1   1
Cartesian
  3.7967324065199999  3.7967324065199999  3.7967324065199999
  0.0000000000000000  0.0000000000000000  0.0000000000000000
  5.6951099999999997  5.6951099999999997  5.6951099999999997
  1.8983699999999999  1.8983699999999999  1.8983699999999999
