Sr Ag P 
 1.0000000000000000
     4.4053480000000000   -0.0000000000000000    0.0000000000000000
    -2.2026750000000002    3.8151430000000000    0.0000000000000000
     0.0000000000000000    0.0000000000000000    8.3344100000000001
 Sr  Ag  P  
   2   2   2
Cartesian
  0.0000000000000000  0.0000000000000000  0.0000000000000000
  0.0000000000000000  0.0000000000000000  4.1672050000000000
  2.2026758693410002  1.2717130616190000  2.0836025000000000
 -0.0000028693410001  2.5434299383810002  6.2508075000000005
  2.2026758693410002  1.2717130616190000  6.2508075000000005
 -0.0000028693410001  2.5434299383810002  2.0836025000000000
