Sn Ru
 1.0000000000000000
     6.4482280000000003    0.0000000000000000    0.0000000000000000
     0.0000000000000000    6.4482280000000003    0.0000000000000000
     0.0000000000000000    0.0000000000000000    5.8029080000000004
 Sn  Ru 
   8   4
Cartesian
  4.2752912321040002  1.0511772321040000  0.0000000000000000
  1.0511772321040000  2.1729367678960001  0.0000000000000000
  2.1729367678960001  1.0511772321040000  2.9014540000000002
  2.1729367678960001  5.3970507678960002  0.0000000000000000
  1.0511772321040000  4.2752912321040002  2.9014540000000002
  4.2752912321040002  5.3970507678960002  2.9014540000000002
  5.3970507678960002  4.2752912321040002  0.0000000000000000
  5.3970507678960002  2.1729367678960001  2.9014540000000002
  0.0000000000000000  0.0000000000000000  4.3521809999999999
  0.0000000000000000  0.0000000000000000  1.4507270000000001
  3.2241140000000001  3.2241140000000001  1.4507270000000001
  3.2241140000000001  3.2241140000000001  4.3521809999999999
