In I 
 1.0000000000000000
     4.5537349999999996    0.0000000000000000   -1.6986660000000000
     0.0000000000000000    4.8336360000000003    0.0000000000000000
    -0.0286470000000000    0.0000000000000000    6.8762939999999997
 In  I  
   2   2
Cartesian
  1.7838865272529998  3.6252270000000002  4.7821886368259996
  2.7412014727470000  1.2084090000000001  0.3954393631739999
  0.6569165980709999  3.6252270000000002  1.7610280898460000
  3.8681714019289992  1.2084090000000001  3.4165999101539999
