Sc Sn
 1.0000000000000000
     8.4601400000000009    0.0000000000000000    0.0000000000000000
    -4.2300700000000004    7.3266960000000001    0.0000000000000000
     0.0000000000000000    0.0000000000000000    6.1014629999999999
 Sc  Sn 
  10   6
Cartesian
 -0.0000042300699999  4.8844664422320001  3.0507314999999999
  4.2300742300700005  2.4422295577680000  0.0000000000000000
  4.2300742300700005  2.4422295577680000  3.0507314999999999
 -0.0000042300699999  4.8844664422320001  0.0000000000000000
  6.4627517068400007  0.0000000000000000  4.5760972500000001
  3.2313758534200003  5.5969070345759997  1.5253657500000000
  1.9973882931600002  0.0000000000000000  1.5253657500000000
  0.9986941465800001  1.7297889654240000  4.5760972500000001
 -3.2313758534200003  5.5969070345759997  4.5760972500000001
 -0.9986941465800001  1.7297889654240000  1.5253657500000000
  3.3392933992600002  0.0000000000000000  4.5760972500000001
  1.6696466996300001  2.8919128514639998  1.5253657500000000
 -2.5604233003700005  4.4347831485359999  1.5253657500000000
 -1.6696466996300001  2.8919128514639998  4.5760972500000001
  2.5604233003700005  4.4347831485359999  4.5760972500000001
  5.1208466007400011  0.0000000000000000  1.5253657500000000
