Ag P  F 
 1.0000000000000000
     5.7291660000000002    0.0000000000000000    0.0000000000000000
     2.8645830000000001    4.9616040000000003    0.0000000000000000
     2.8645830000000001    1.6538679999999999    4.6778430000000002
 Ag  P   F  
   1   1   6
Cartesian
  5.7291660000000002  3.3077360000000002  2.3389215000000001
  0.0000000000000000  0.0000000000000000  0.0000000000000000
  4.0086458877060007  2.3143931095760002  3.7437198534870002
  4.0086458877059998  4.3010788904240007  0.9341231465130001
  5.7291660000000002  5.2944217808480003  3.7437198534870002
  5.7291659999999993  1.3210502191520002  0.9341231465130001
  7.4496861122939997  2.3143931095760002  3.7437198534870002
  7.4496861122939997  4.3010788904240007  0.9341231465130001
