Ce Al C 
 1.0000000000000000
     4.9873159999999999    0.0000000000000000    0.0000000000000000
     0.0000000000000000    4.9873200000000004    0.0000000000000000
     0.0000000000000000    0.0000000000000000    4.9872829999999997
 Ce  Al  C  
   3   1   1
Cartesian
  0.0000000000000000  2.4936600000000002  2.4936414999999998
  2.4936579999999999  0.0000000000000000  2.4936414999999998
  2.4936579999999999  2.4936600000000002  0.0000000000000000
  0.0000000000000000  0.0000000000000000  0.0000000000000000
  2.4936579999999999  2.4936600000000002  2.4936414999999998
