Sc Co C 
 1.0000000000000000
     3.8113109999999999    0.0000000000000000    0.0000000000000000
     0.0000000000000000    3.8113109999999999    0.0000000000000000
     0.0000000000000000    0.0000000000000000    3.8113109999999999
 Sc  Co  C  
   1   3   1
Cartesian
  0.0000000000000000  0.0000000000000000  0.0000000000000000
  0.0000000000000000  1.9056554999999999  1.9056554999999999
  1.9056554999999999  0.0000000000000000  1.9056554999999999
  1.9056554999999999  1.9056554999999999  0.0000000000000000
  1.9056554999999999  1.9056554999999999  1.9056554999999999
