Sr Zr N 
 1.0000000000000000
     6.4739250000000004    0.0103800000000000   -0.0574780000000000
     2.4232700000000000    5.9998259999999997    0.0311770000000000
     1.7032369999999999    2.6655229999999999    9.2321700000000000
 Sr  Zr  N  
   8   2   8
Cartesian
  6.5873893322030010  4.1398961734390003  1.6671493256780001
  4.0130426677970004  4.5358328265609993  7.5387196743219995
  7.1367335209520002  4.0870631955369996  9.0707249384509989
  3.4636984790480003  4.5886658044630000  0.1351440615490000
  6.8827182453100004  4.3966573562409996  5.2677499145209996
  3.7177137546900005  4.2790716437590000  3.9381190854789998
  4.8737981631800000  7.3253005383459993  5.5823948651260000
  5.7266338368199996  1.3504284616539999  3.6234741348739998
  7.9892141500770002  7.1057861711769998  7.0018446363000004
  2.6112178499230003  1.5699428288230000  2.2040243636999999
  9.0633652460469989  5.8575992604309999  5.6873963129950003
  1.5370667539530001  2.8181297395690001  3.5184726870050000
  9.1950952338820002  7.6015374509329998  8.6302282971329998
  1.4053367661180001  1.0741915490670000  0.5756407028670000
  6.2586636325590002  5.9615922480389996  7.4019241195529997
  4.3417683674409995  2.7141367519610000  1.8039448804470000
  5.7457427004780008  5.9578574933519990  3.4366462780420002
  4.8546892995219997  2.7178715066480001  5.7692227219580001
