Li H  O 
 1.0000000000000000
     2.4639910000000000   -2.4678960000000001    0.0000000000000000
     2.4639910000000000    2.4678960000000001    0.0000000000000000
     0.0000000000000000    0.0000000000000000    4.2794660000000002
 Li  H   O  
   2   2   2
Cartesian
  2.2125752143240001  0.0000000000000000  2.1397330000000001
  4.6765662143239997  0.0000000000000000  2.1397330000000001
  3.4109323091919999  1.2339480000000000  0.3271566167680000
  3.4109323091919999 -1.2339480000000000  3.9523093832320004
  3.4383466730580001  1.2339480000000000  1.2898824059920002
  3.4383466730579997 -1.2339480000000000  2.9895835940080002
