Ti Mo Pt
 1.0000000000000000
     0.0000030000000000    3.1309930000000001    3.1309960000000001
     3.1309909999999999    0.0000040000000000    3.1309939999999998
     3.1309909999999999    3.1309909999999999    0.0000050000000000
 Ti  Mo  Pt 
   2   1   1
Cartesian
  0.0000000000000000  0.0000000000000000  0.0000000000000000
  3.1309987619849999  3.1310002619880004  3.1310037619950002
  1.5654962499999998  1.5654970000000001  1.5654987499999999
  4.6964824880149996  4.6964847380119998  4.6964899880049993
