Li Mn Pd
 1.0000000000000000
     0.0000000000000000    3.0466020000000000    3.0466020000000000
     3.0466020000000000    0.0000000000000000    3.0466020000000000
     3.0466020000000000    3.0466020000000000    0.0000000000000000
 Li  Mn  Pd 
   1   1   2
Cartesian
  1.5233010000000000  1.5233010000000000  1.5233010000000000
  4.5699030000000000  4.5699030000000000  4.5699030000000000
  0.0000000000000000  0.0000000000000000  0.0000000000000000
  3.0466020000000000  3.0466020000000000  3.0466020000000000
