Li Sn
 1.0000000000000000
     7.5213010000000002    0.0000000000000000   -2.0781610000000001
     0.0000000000000000    3.2223720000000000    0.0000000000000000
     0.0257470000000000    0.0000000000000000    5.1743600000000001
 Li  Sn 
   3   3
Cartesian
  5.0724903706219999  1.6111860000000000  2.4016245052960001
  0.0128735000000000  1.6111860000000000  2.5871800000000000
  2.4745576293780003  1.6111860000000000  0.6945744947040000
  2.5726289178359996  0.0000000000000000  3.2120989380659997
  4.9744190821639993  0.0000000000000000 -0.1158999380660000
  0.0000000000000000  0.0000000000000000  0.0000000000000000
