Cr Ga C 
 1.0000000000000000
     2.8434499999999998   -0.0000000000000000    0.0000000000000000
    -1.4217260000000000    2.4625010000000001    0.0000000000000000
     0.0000000000000000    0.0000000000000000   12.4211299999999998
 Cr  Ga  C  
   4   2   2
Cartesian
 -0.0000020883920001  1.6416681541670000  1.0626152503699999
  1.4217260883920000  0.8208328458330000  7.2731802503699994
  1.4217260883920000  0.8208328458330000 11.3585147496300003
 -0.0000020883920001  1.6416681541670000  5.1479497496300004
 -0.0000020883920001  1.6416681541670000  9.3158475000000003
  1.4217260883920000  0.8208328458330000  3.1052824999999999
  0.0000000000000000  0.0000000000000000  6.2105649999999999
  0.0000000000000000  0.0000000000000000  0.0000000000000000
