Sc Fe
 1.0000000000000000
     6.9698729999999998    0.0000000000000000    0.0000000000000000
     0.0000000000000000    6.9698729999999998    0.0000000000000000
     0.0000000000000000    0.0000000000000000    6.9698729999999998
 Sc  Fe 
   8  16
Cartesian
  6.0986388749999998  2.6137023749999999  6.0986388749999998
  4.3561706249999999  0.8712341250000000  0.8712341250000000
  6.0986388749999998  6.0986388749999998  2.6137023749999999
  4.3561706249999999  4.3561706249999999  4.3561706249999999
  2.6137023749999999  2.6137023749999999  2.6137023749999999
  0.8712341250000000  0.8712341250000000  4.3561706249999999
  2.6137023749999999  6.0986388749999998  6.0986388749999998
  0.8712341250000000  4.3561706249999999  0.8712341250000000
  0.0000000000000000  0.0000000000000000  0.0000000000000000
  0.0000000000000000  5.2274047499999998  5.2274047499999998
  5.2274047499999998  0.0000000000000000  5.2274047499999998
  5.2274047499999998  5.2274047499999998  0.0000000000000000
  0.0000000000000000  3.4849364999999999  3.4849364999999999
  0.0000000000000000  1.7424682499999999  1.7424682499999999
  5.2274047499999998  3.4849364999999999  1.7424682499999999
  5.2274047499999998  1.7424682499999999  3.4849364999999999
  3.4849364999999999  0.0000000000000000  3.4849364999999999
  3.4849364999999999  5.2274047499999998  1.7424682499999999
  1.7424682499999999  0.0000000000000000  1.7424682499999999
  1.7424682499999999  5.2274047499999998  3.4849364999999999
  3.4849364999999999  3.4849364999999999  0.0000000000000000
  3.4849364999999999  1.7424682499999999  5.2274047499999998
  1.7424682499999999  3.4849364999999999  5.2274047499999998
  1.7424682499999999  1.7424682499999999  0.0000000000000000
