Eu Pd
 1.0000000000000000
     4.7587370000000000   -0.0000040000000000    2.7474530000000001
     1.5862410000000000    4.4865849999999998    2.7474539999999998
    -0.0000050000000000   -0.0000020000000000    5.4949149999999998
 Eu  Pd 
   2   4
Cartesian
  0.7931168662630000  0.5608223750039999  1.3737250025469998
  5.5518561337370009  3.9257566249959996  9.6160969974529991
  3.9656101724910000  4.4865775134089994  6.8686434949140001
  5.5518518274990001  2.2432919865870002  6.8686429949159997
  3.1724928449730001  2.2432939865790003  5.4949219898220001
  3.1724903449830002  2.2432929865830000  8.2423684999919988
