Pr Si Rh
 1.0000000000000000
     3.8470949999999999   -0.0000000000000000   -1.4363360000000001
    -0.5362660000000000    3.8095370000000002   -1.4363360000000001
    -0.0034360000000000   -0.0039520000000000    5.8610179999999996
 Pr  Si  Rh 
   1   2   2
Cartesian
  0.0000000000000000  0.0000000000000000  0.0000000000000000
  2.0737450121189998  2.3861122583430001 -0.3158679161220003
  1.2336479844450001  1.4194727377050000  3.3042197771400001
  0.5578562499999999  2.8551767500000000  1.4941729999999998
  2.7495367500000003  0.9504082500000001  1.4941729999999998
