Ce Pd
 1.0000000000000000
    -4.0165530000000000   -4.0165530000000000    0.0000000000000000
    -4.0165530000000000    0.0000000000000000   -4.0165530000000000
     0.0000000000000000   -4.0165530000000000   -4.0165530000000000
 Ce  Pd 
   1   7
Cartesian
  0.0000000000000000  0.0000000000000000  0.0000000000000000
  0.0000000000000000 -2.0082765000000000 -2.0082765000000000
 -4.0165530000000000 -2.0082765000000000 -2.0082765000000000
 -2.0082765000000000  0.0000000000000000 -2.0082765000000000
 -2.0082765000000000 -4.0165530000000000 -2.0082765000000000
 -2.0082765000000000 -2.0082765000000000  0.0000000000000000
 -2.0082765000000000 -2.0082765000000000 -4.0165530000000000
 -4.0165530000000000 -4.0165530000000000 -4.0165530000000000
