La Co Si
 1.0000000000000000
     3.7796069999999999    0.0000000000000000   -1.3995059999999999
    -0.5182060000000001    3.7439140000000002   -1.3995059999999999
    -0.0242130000000000   -0.0277960000000000    5.7381000000000002
 La  Co  Si 
   1   2   2
Cartesian
  0.0000000000000000  0.0000000000000000  0.0000000000000000
  0.5441407500000000  2.7940375000000000  1.4695440000000002
  2.6930472500000002  0.9220805000000001  1.4695440000000002
  2.0923150441999998  2.4018655983840000 -0.1528370456639999
  1.1448729557999997  1.3142524016160000  3.0919250456639999
