Sr Pd
 1.0000000000000000
     5.4273069999999999    0.0000000000000000    0.0000000000000000
    -2.7136540000000000    4.7001860000000004    0.0000000000000000
     0.0000000000000000    0.0000000000000000    4.3832709999999997
 Sr  Pd 
   1   5
Cartesian
  0.0000000000000000  0.0000000000000000  0.0000000000000000
  2.7136560469869999  1.5667270999380001  0.0000000000000000
  2.7136534999999999  0.0000000000000000  2.1916354999999998
  1.3568264999999999  2.3500930000000002  2.1916354999999998
 -1.3568270000000000  2.3500930000000002  2.1916354999999998
 -0.0000030469870002  3.1334589000620001  0.0000000000000000
