Fe B 
 1.0000000000000000
     4.0352870000000003   -0.0032910000000000   -1.0730440000000001
    -2.3859789999999998    3.2543259999999998   -1.0730440000000001
     0.0016660000000000    0.0032850000000000    4.1755050000000002
 Fe  B  
   4   2
Cartesian
 -0.9152533643860000  2.1746237296750000  2.5908734154390003
  0.9425957660130002  0.5458074707390000  1.5512273975390001
  2.5662290153600003  1.0796995246449999 -0.5614543860220002
  0.7083765813470002  2.7085092716560002  0.4781833975390001
  1.2369810016660003  2.4382762532849998 -1.6095618244950001
  0.4123270016660001  0.8127587532850000 -0.5365178244950001
