Mn B  W 
 1.0000000000000000
     3.1559720000000002    0.0000000000000000    0.0000000000000000
     0.0000000000000000    5.8113590000000004    0.0000000000000000
     0.0000000000000000   -0.0000000000000000    5.8113590000000004
 Mn  B   W  
   2   4   4
Cartesian
  0.0000000000000000  2.9056795000000002  2.9056795000000002
  0.0000000000000000  0.0000000000000000  0.0000000000000000
  0.0000000000000000  3.5621654807940004  0.6565440943840000
  0.0000000000000000  2.2491935192060000  5.1548149056160009
  0.0000000000000000  5.1548149056160009  3.5621654807940004
  0.0000000000000000  0.6565440943840000  2.2491935192060000
  1.5779860000000001  3.9398980044350007  4.7768324935380004
  1.5779860000000001  1.8714609955650001  1.0345265064620002
  1.5779860000000001  1.0345265064620002  3.9398980044350007
  1.5779860000000001  4.7768324935380004  1.8714609955650001
