Zr Ti As
 1.0000000000000000
     3.6696320000000000    0.0000000000000000   -0.9108640000000000
    -0.2260920000000000    3.6626620000000001   -0.9108640000000000
     0.0156610000000000    0.0166570000000000    7.9105230000000004
 Zr  Ti  As 
   2   2   2
Cartesian
  2.3449413108329997  2.4941562312549999  1.5997237816430003
  1.1142596891670000  1.1851627687449999  4.4890712183570001
 -0.1130460000000000  1.8313310000000000 -0.4554320000000000
  1.8348160000000000  0.0000000000000000 -0.4554320000000000
  0.4498000523890000  0.4784219340010000  1.8121356297150000
  3.0094009476110002  3.2008970659990004  4.2766593702849995
