Ta Co
 1.0000000000000000
     2.5807090000000001   -1.4899730000000000    6.2561479999999996
     0.0000000000000000    2.9799470000000001    6.2561479999999996
    -2.5807090000000001   -1.4899730000000000    6.2561479999999996
 Ta  Co 
   3   9
Cartesian
  0.0000000000000000  0.0000000000000000  0.0000000000000000
  0.0000000000000000  0.0000002185040000  4.1009800877759996
  0.0000000000000002  0.0000007814960000 14.6674639122239991
  1.2903545000000001  0.7449870000000001  6.2561479999999996
 -1.2903545000000001  0.7449870000000001  6.2561479999999996
  0.0000000000000000 -1.4899730000000000  6.2561479999999996
  0.0000000000000000 -1.4074967928489999 10.4463470144039992
  1.2189282170070002  0.7037492313110001 10.4463470144040009
 -1.2189282170069999  0.7037492313110000 10.4463470144039992
  1.2189282170070002 -0.7037482313109999  8.3220969855959996
 -0.0000000000000000  1.4074977928490002  8.3220969855959996
 -1.2189282170070002 -0.7037482313110001  8.3220969855959996
