Co Pt
 1.0000000000000000
     5.1921499999999998    0.0000550000000000    0.0000030000000000
    -2.5960800000000002    4.4978780000000000    0.0000040000000000
     0.0000050000000000    0.0000150000000000    4.1136369999999998
 Co  Pt 
   6   2
Cartesian
 -0.0000756015500001  1.4081855136150001  1.0284109718690000
  1.3756857319450000  3.7938981599910000  1.0284187976269998
 -1.3757046469650005  3.7937655629220002  1.0284172077599998
  2.5961350251049997  3.0897534903939996  3.0852289144739995
  1.2204100366599997  0.7040678319260000  3.0852457705920000
  3.9718237802749994  0.7041599480480001  3.0852350195120000
  0.0000419547350000  2.9978292829309998  3.0852273020929997
  2.5959992962799996  1.5001502021250002  1.0284372661109999
