Ca Zr O 
 1.0000000000000000
     5.5850059999999999    0.0000000000000000    0.0000000000000000
     0.0000000000000000    5.7780969999999998    0.0000000000000000
     0.0000000000000000    0.0000000000000000    8.0173799999999993
 Ca  Zr  O  
   4   4  12
Cartesian
  0.0756433212640000  5.4778786360740002  2.0043449999999998
  2.8681463212640002  3.1892668639259996  6.0130349999999995
  2.7168596787359998  2.5888301360739998  2.0043449999999998
  5.5093626787360002  0.3002183639260000  6.0130349999999995
  0.0000000000000000  2.8890484999999999  0.0000000000000000
  2.7925030000000000  0.0000000000000000  0.0000000000000000
  2.7925030000000000  0.0000000000000000  4.0086899999999996
  0.0000000000000000  2.8890484999999999  4.0086899999999996
  1.6887661892500001  4.0464475538759999  3.5550345700799997
  4.4812691892499998  4.6206979461239994  4.4623454299199992
  1.1037368107499999  1.1573990538760000  0.4536554299200000
  3.8962398107500000  1.7316494461240000  7.5637245700799998
  3.8962398107500000  1.7316494461240000  4.4623454299199992
  1.1037368107499999  1.1573990538760000  3.5550345700799997
  4.4812691892499998  4.6206979461239994  7.5637245700799998
  1.6887661892500001  4.0464475538759999  0.4536554299200000
  3.3892385510760001  0.2401319332230000  2.0043449999999998
  0.5967355510760000  2.6489165667769998  6.0130349999999995
  4.9882704489240002  3.1291804332230000  2.0043449999999998
  2.1957674489239998  5.5379650667769997  6.0130349999999995
