Lu Al Ge
 1.0000000000000000
     3.9796260000000001    0.0000000000000000    0.0000000000000000
    -1.9898130000000001    5.1025090000000004    0.0000000000000000
     0.0000000000000000    0.0000000000000000    5.6408090000000000
 Lu  Al  Ge 
   2   2   2
Cartesian
  0.0000000000000001  3.1636066050900000  1.4102022500000000
  1.9898130000000001  1.9389023949100002  4.2306067499999997
  0.0000000000000000  0.0000000000000000  0.0000000000000000
  0.0000000000000000  0.0000000000000000  2.8204045000000000
  1.9898169796259999  1.1032644959800000  1.4102022500000000
 -0.0000039796260000  3.9992445040200004  4.2306067499999997
