Sr Co P 
 1.0000000000000000
     3.6239490000000001   -0.0000000000000000   -1.1249520000000000
    -0.3492100000000000    3.6070840000000000   -1.1249520000000000
    -0.0219440000000000   -0.0241710000000000    6.3289249999999999
 Sr  Co  P  
   1   2   2
Cartesian
  0.0000000000000000  0.0000000000000000  0.0000000000000000
  0.6331077500000000  2.6932274999999999  2.0395105000000000
  2.6196872500000001  0.8896855000000000  2.0395105000000000
  2.1350594586490006  2.3517412697350002  0.4783255546030000
  1.1177355413510002  1.2311717302650000  3.6006954453970001
