Th Ge
 1.0000000000000000
     3.9030740000000002    0.0000000000000000   -0.9435210000000001
     0.0000000000000000    4.1477130000000004    0.0000000000000000
     0.0373390000000000    0.0000000000000000    8.6991790000000009
 Th  Ge 
   2   4
Cartesian
  0.5438461716050000  0.0000000000000000  2.2497295251350002
  3.3965668283950001  0.0000000000000000  5.5059284748650006
  1.1790774043530001  2.0738565000000002  4.8775359714030007
  2.7613355956470005  2.0738565000000002  2.8781220285970002
  1.9515370000000001  0.0000000000000000 -0.4717605000000000
  0.0000000000000000  2.0738565000000002  0.0000000000000000
