Li U  O 
 1.0000000000000000
     4.0079130000000003    0.0000000000000000    1.8751840000000000
     2.0038960000000001    4.7168869999999998    0.9377220000000001
     0.0050310000000000   -0.0001430000000000    5.2099820000000001
 Li  U   O  
   4   1   5
Cartesian
  4.8043941171569999  3.6188744200109997  5.3935607137779993
  1.2124458828430003  1.0978695799890001  2.6293272862219998
  2.4742414343500005  1.8675982956889998  5.1531616791179999
  3.5425985656500005  2.8491457043109998  2.8697263208820001
  0.0000000000000000  0.0000000000000000  0.0000000000000000
  4.4146192298870002  1.7815341435440000  6.2266588459440007
  3.2528767070520002  0.9478280135539999  3.4889663329639999
  2.0039565000000001  0.0000000000000000  0.9375920000000000
  1.6022207701130002  2.9352098564559999  1.7962291540560000
  2.7639632929480005  3.7689159864459998  4.5339216670360001
