Al Pt
 1.0000000000000000
    13.0557870000000005    0.0000000000000000    0.0000000000000000
     0.0000000000000000   13.0557870000000005    0.0000000000000000
     0.0000000000000000    0.0000000000000000   10.7590509999999995
 Al  Pt 
  84  32
Cartesian
  0.0000000000000000  9.7918402499999999  4.0346441249999998
  6.5278935000000002  9.7918402499999999  1.3448813749999999
  7.6979400751530003  2.5703580656249998  5.1082575471369998
 12.3621983156250010  2.0939001748470001  2.4184947971369999
  0.6935886843750000  4.4339933251530006  2.4184947971369999
  5.3578469248470002  3.9575354343750000  5.1082575471369998
 11.8857404248470004  3.9575354343750000  0.2712679528630000
  7.2214821843749997  4.4339933251530006  2.9610307028629999
  5.8343048156250008  2.0939001748470001  2.9610307028629999
  1.1700465751530000  2.5703580656249998  0.2712679528630000
  7.6832653705650005  6.5516419765530003  4.5899402652119994
  3.2876952265530002  2.1085748794350003  1.9001775152119997
  9.7680917734470007  4.4193186205649999  1.9001775152119997
 11.9004151294350002  6.5041450234470002  9.9694657652120000
 11.9004151294350002 13.0320385234469995  0.7895852347879999
  3.2401982734470001  4.4193186205649999  3.4793479847879998
  9.8155887265530009  2.1085748794350003  3.4793479847879998
  7.6832653705650005  0.0237484765530000  6.1691107347880001
 10.3228582746510007  6.9367485256920007  3.7621173631699998
  3.6728017756920002 12.5247689753490015  1.0723546131699999
  9.3829852243079994  7.0589115246510001  1.0723546131699999
  9.2608222253490009  6.1190384743079997  9.1416428631700004
  9.2608222253490009 12.6469319743080000  1.6174081368299997
  2.8550917243080001  7.0589115246510001  4.3071708868299998
 10.2006952756920004 12.5247689753490015  4.3071708868299998
 10.3228582746510007  0.4088550256920000  6.9969336368299997
  6.6538165656150001  0.4133853837810000  9.1953843229150003
 10.2052256337809997  3.1380236843850002  6.5056215729149995
  9.3784548662190002  9.9177633156149998  1.1260960729149998
 12.9298639343850006 12.6424016162190007  3.8158588229150001
 12.9298639343850006  6.1145081162190005  6.9431921770849998
  9.3784548662190002  3.3898698156150004  9.6329549270849988
 10.2052256337809997  9.6659171843850000  4.2534294270849999
  6.6538165656150001  6.9412788837810000  1.5636666770849998
  5.6141711910180003  2.0570045207850001  6.9655387260119994
 11.8488447707850000  4.1776690589820005  4.2757759760119995
  1.2069422292150001  2.3502244410180002  4.2757759760119995
  7.4416158089820001  4.4708889792150002  6.9655387260119994
  0.9137223089820001  4.4708889792150002  9.1730377739879998
  7.7348357292149998  2.3502244410180002  1.1037495239880000
  5.3209512707850006  4.1776690589820005  1.1037495239880000
 12.1420646910179997  2.0570045207850001  9.1730377739879998
  6.5278935000000002  3.2639467500000001  9.4141696249999995
  0.0000000000000000  3.2639467500000001  6.7244068749999997
  1.1700465751530000  9.0982515656250005 10.4877830471369986
  5.8343048156250008  8.6217936748469999  7.7980202971369996
  7.2214821843749997 10.9618868251529999  7.7980202971369996
 11.8857404248470004 10.4854289343749993 10.4877830471369986
  5.3578469248470002 10.4854289343749993  5.6507934528629997
  0.6935886843750000 10.9618868251529999  8.3405562028630005
 12.3621983156250010  8.6217936748469999  8.3405562028630005
  7.6979400751530003  9.0982515656250005  5.6507934528629997
  1.1553718705650000  0.0237484765530000  9.9694657652120000
  9.8155887265530009  8.6364683794349997  7.2797030152119993
  3.2401982734470001 10.9472121205650001  7.2797030152119993
  5.3725216294350000 13.0320385234469995  4.5899402652119994
  5.3725216294350000  6.5041450234470002  6.1691107347880001
  9.7680917734470007 10.9472121205650001  8.8588734847879991
  3.2876952265530002  8.6364683794349997  8.8588734847879991
  1.1553718705650000  6.5516419765530003  0.7895852347879999
  3.7949647746510005  0.4088550256920000  9.1416428631700004
 10.2006952756920004  5.9968754753490003  6.4518801131699997
  2.8550917243080001  0.5310180246510000  6.4518801131699997
  2.7329287253490002 12.6469319743080000  3.7621173631699998
  2.7329287253490002  6.1190384743079997  6.9969336368299997
  9.3829852243079994  0.5310180246510000  9.6866963868299987
  3.6728017756920002  5.9968754753490003  9.6866963868299987
  3.7949647746510005  6.9367485256920007  1.6174081368299997
  0.1259230656150000  6.9412788837810000  3.8158588229150001
  3.6773321337809999  9.6659171843850000  1.1260960729149998
  2.8505613662190004  3.3898698156150004  6.5056215729149995
  6.4019704343850004  6.1145081162190005  9.1953843229150003
  6.4019704343850004 12.6424016162190007  1.5636666770849998
  2.8505613662190004  9.9177633156149998  4.2534294270849999
  3.6773321337809999  3.1380236843850002  9.6329549270849988
  0.1259230656150000  0.4133853837810000  6.9431921770849998
 12.1420646910179997  8.5848980207850012  1.5860132260119997
  5.3209512707850006 10.7055625589820007  9.6553014760119993
  7.7348357292149998  8.8781179410180009  9.6553014760119993
  0.9137223089820001 10.9987824792150004  1.5860132260119997
  7.4416158089820001 10.9987824792150004  3.7935122739880001
  1.2069422292150001  8.8781179410180009  6.4832750239879999
 11.8488447707850000 10.7055625589820007  6.4832750239879999
  5.6141711910180003  8.5848980207850012  3.7935122739880001
  8.2303028458650012  8.5788140240430000  3.0073376583670002
 11.8427607740430005  8.0894309041349999  5.6971004083669996
  7.7409197259570002  4.9663560958649997  0.3175749083670000
 11.3533776541350004  4.4769729759570005  8.3868631583669995
 11.3533776541350004 11.0048664759569998  2.3721878416330000
  7.7409197259570002 11.4942495958650017 10.4414760916329996
 11.8427607740430005  1.5615374041350001  5.0619505916329999
  8.2303028458650012  2.0509205240430002  7.7517133416329997
 10.2528139773960003  1.9784086830450001  0.8940771380999999
  5.2423554330449997  6.0669197726039998  3.5838398881000000
  7.8134315669550007  0.4609737273960000  3.5838398881000000
  9.3308665226039995 11.0773783169550004  6.2736026380999990
  9.3308665226039995  4.5494848169550002  4.4854483618999996
  1.2855380669550001  0.4609737273960000  1.7956856118999998
 11.7702489330450000  6.0669197726039998  1.7956856118999998
 10.2528139773960003  8.5063021830449994  9.8649738618999994
  1.7024093458650003  2.0509205240430002  8.3868631583669995
  5.3148672740430003  1.5615374041350001  0.3175749083670000
  1.2130262259569999 11.4942495958650017  5.6971004083669996
  4.8254841541350002 11.0048664759569998  3.0073376583670002
  4.8254841541350002  4.4769729759570005  7.7517133416329997
  1.2130262259569999  4.9663560958649997  5.0619505916329999
  5.3148672740430003  8.0894309041349999 10.4414760916329996
  1.7024093458650003  8.5788140240430000  2.3721878416330000
  3.7249204773960001  8.5063021830449994  6.2736026380999990
 11.7702489330450000 12.5948132726040001  8.9633653880999997
  1.2855380669550001  6.9888672273960006  8.9633653880999997
  2.8029730226040002  4.5494848169550002  0.8940771380999999
  2.8029730226040002 11.0773783169550004  9.8649738618999994
  7.8134315669550007  6.9888672273960006  7.1752111119000004
  5.2423554330449997 12.5948132726040001  7.1752111119000004
  3.7249204773960001  1.9784086830450001  4.4854483618999996
