Ga Cl
 1.0000000000000000
     7.2108619999999997    0.0000000000000000    0.0000000000000000
     0.0000000000000000    9.5771420000000003    0.0000000000000000
     0.0000000000000000    0.0000000000000000    9.5832329999999999
 Ga  Cl 
   8  16
Cartesian
  1.8027154999999999  1.7439688267740001  0.0000000000000000
  5.4081465000000000  6.5325398267739994  4.7916164999999999
  1.1367923943000000  7.1828564999999998  2.3958082500000000
  6.0740696057000001  2.3942855000000001  7.1874247499999999
  5.4081465000000000  7.8331731732260010  0.0000000000000000
  2.4686386056999998  7.1828564999999998  7.1874247499999999
  1.8027154999999999  3.0446021732260000  4.7916164999999999
  4.7422233942999998  2.3942855000000001  2.3958082500000000
  4.8323086932660004  5.3073935135660006  6.5147392927980006
  3.6509748043919998  7.7755379326699998  4.3948227376349998
  2.3785533067340001  4.2697484864339996  3.0684937072019998
  4.8323086932660004  9.0583194864339998  7.8601102072019993
  7.1653181956080001  6.5901750673300006  9.1864392376349997
  2.3785533067340001  0.5188225135660000  1.7231227927980000
  1.2268776932659999  4.2697484864339996  6.5147392927980006
  0.0455438043920000  1.8016040673300000  4.3948227376349998
  5.9839843067339995  5.3073935135660006  3.0684937072019998
  7.1653181956080001  7.7755379326699998  5.1884102623650001
  3.6509748043919998  6.5901750673300006  0.3967937623650000
  1.2268776932659999  0.5188225135660000  7.8601102072019993
  5.9839843067339995  9.0583194864339998  1.7231227927980000
  0.0455438043920000  2.9869669326700001  0.3967937623650000
  3.5598871956079998  1.8016040673300000  5.1884102623650001
  3.5598871956079998  2.9869669326700001  9.1864392376349997
