Dy B  C 
 1.0000000000000000
     3.1092529999999998    0.0000000000000000    1.0189269999999999
     1.3418399999999999    4.9554070000000001    1.1587820000000000
    -0.0031510000000000   -0.0048300000000000    5.2630160000000004
 Dy  B   C  
   2   4   1
Cartesian
  2.6957625656960000  1.1561379502719999  2.2806918818560002
  1.7521794343040000  3.7944390497280001  5.1600331181440007
  0.4889879318549999  1.8101455194850000  3.7612562582300000
  2.5916135299219998  3.8311296020540002  2.5985029699719999
  0.8497010681449999  3.1404314805149998  2.6605417417699999
  1.8563284700780001  1.1194473979460000  4.8422220300280001
  1.5546264999999999  0.0000000000000000  0.5094635000000000
