Ni Sb
 1.0000000000000000
     3.8137740000000000    0.0000000000000000    0.0000000000000000
     0.0000000000000000    5.2707780000000000    0.0000000000000000
     0.0000000000000000    0.0000000000000000    6.2996610000000004
 Ni  Sb 
   2   4
Cartesian
  0.0000000000000000  0.0000000000000000  0.0000000000000000
  1.9068870000000000  2.6353890000000000  3.1498305000000002
  0.0000000000000000  1.1400692814000000  2.2673487884760002
  0.0000000000000000  4.1307087185999993  4.0323122115240002
  1.9068870000000000  3.7754582814000002  0.8824817115240000
  1.9068870000000000  1.4953197186000000  5.4171792884760004
