Sc Ru
 1.0000000000000000
     3.2162579999999998    0.0000000000000000    0.0000000000000000
     0.0000000000000000    3.2162579999999998    0.0000000000000000
     0.0000000000000000    0.0000000000000000    3.2162579999999998
 Sc  Ru 
   1   1
Cartesian
  1.6081289999999999  1.6081289999999999  1.6081289999999999
  0.0000000000000000  0.0000000000000000  0.0000000000000000
