Ca Fe N 
 1.0000000000000000
     3.5905109999999998   -6.2189670000000001    0.0000000000000000
     3.5905260000000001    6.2189589999999999    0.0000000000000000
     0.0000000000000000    0.0000000000000000    4.9774130000000003
 Ca  Fe  N  
   6   2   6
Cartesian
  4.2849475182300001  3.9699635418749994  3.7330597500000002
  4.8861469600170002  0.5230901914310000  3.7330597500000002
  1.6004685217229999  1.7258723908419999  3.7330597500000002
  2.8963695425129998 -3.9697227836670006  1.2443532500000001
  2.2949762119620001 -0.5234837672330001  1.2443532500000001
  5.5802022455099998 -1.7257808870260003  1.2443532500000001
  3.5905210000050003  2.0729878126419998  1.2443532500000001
  3.5905159999950000 -2.0729958126420005  3.7330597500000002
  4.3022678565390002  3.7021874137249999  1.2443532500000001
  4.6455787733909997  0.6419908130319999  1.2443532500000001
  1.8237163700700001  1.8747727732430002  1.2443532500000001
  2.8790097087180002 -3.7017663055459997  3.7330597500000002
  2.5357095623940000 -0.6424217027960000  3.7330597500000002
  5.3568251383770003 -1.8747807726910004  3.7330597500000002
