Ca Pd
 1.0000000000000000
     7.7561749999999998    0.0000000000000000    0.0000000000000000
     0.0000000000000000    7.7561749999999998    0.0000000000000000
     0.0000000000000000    0.0000000000000000    7.7561749999999998
 Ca  Pd 
   8  16
Cartesian
  6.7866531250000000  6.7866531250000000  6.7866531250000000
  0.9695218750000000  4.8476093750000002  4.8476093750000002
  6.7866531250000000  2.9085656250000000  2.9085656250000000
  0.9695218750000000  0.9695218750000000  0.9695218750000000
  2.9085656250000000  6.7866531250000000  2.9085656250000000
  4.8476093750000002  4.8476093750000002  0.9695218750000000
  2.9085656250000000  2.9085656250000000  6.7866531250000000
  4.8476093750000002  0.9695218750000000  4.8476093750000002
  3.8780874999999999  1.9390437500000000  1.9390437500000000
  3.8780874999999999  0.0000000000000000  0.0000000000000000
  5.8171312500000001  1.9390437500000000  0.0000000000000000
  5.8171312500000001  0.0000000000000000  1.9390437500000000
  3.8780874999999999  5.8171312500000001  5.8171312500000001
  3.8780874999999999  3.8780874999999999  3.8780874999999999
  5.8171312500000001  5.8171312500000001  3.8780874999999999
  5.8171312500000001  3.8780874999999999  5.8171312500000001
  0.0000000000000000  1.9390437500000000  5.8171312500000001
  0.0000000000000000  0.0000000000000000  3.8780874999999999
  1.9390437500000000  1.9390437500000000  3.8780874999999999
  1.9390437500000000  0.0000000000000000  5.8171312500000001
  0.0000000000000000  5.8171312500000001  1.9390437500000000
  0.0000000000000000  3.8780874999999999  0.0000000000000000
  1.9390437500000000  5.8171312500000001  0.0000000000000000
  1.9390437500000000  3.8780874999999999  1.9390437500000000
