Tb In Cu
 1.0000000000000000
     0.0000000000000000    3.5891340000000000    3.5891340000000000
     3.5891340000000000    0.0000000000000000    3.5891340000000000
     3.5891340000000000    3.5891340000000000    0.0000000000000000
 Tb  In  Cu 
   1   1   4
Cartesian
  0.0000000000000000  0.0000000000000000  0.0000000000000000
  1.7945670000000000  1.7945670000000000  1.7945670000000000
  4.4839553540760004  4.4839553540760004  4.4839553540760004
  2.6943198241920001  2.6943198241920001  4.4839553540760004
  4.4839553540760004  2.6943198241920001  2.6943198241920001
  2.6943198241920001  4.4839553540760004  2.6943198241920001
