Ce Al Ni
 1.0000000000000000
     3.7688030000000001   -0.0000000000000000    1.2675860000000001
     1.3192560000000000    5.6386279999999998    2.3140879999999999
     0.0001280000000000   -0.0113270000000000    6.2361399999999998
 Ce  Al  Ni 
   1   5   2
Cartesian
  0.0000000000000000  0.0000000000000000  0.0000000000000000
  0.6596919999999999  2.8136505000000001  4.2751140000000003
  2.6838400100839999  0.8496947425280000  4.4934181386559997
  2.4043469899159997  4.7776062574719997  5.3243958613439997
  1.9050214254600000  2.6389457411869999  6.8089984387479996
  3.1831655745400003  2.9883552588129998  3.0088155612520002
  3.8434953613919998  4.1576300524320002  7.2820279541440005
  1.2446916386080000  1.4696709475680001  2.5357860458560002
