Yb Mn Si
 1.0000000000000000
    -1.9176010000000001    1.9176010000000001    5.1990930000000004
     1.9176010000000001   -1.9176010000000001    5.1990930000000004
     1.9176010000000001    1.9176010000000001   -5.1990930000000004
 Yb  Mn  Si 
   1   2   2
Cartesian
  0.0000000000000000  0.0000000000000000  0.0000000000000000
  0.0000000000000001  1.9176009999999999  2.5995465000000002
  1.9176010000000001  0.0000000000000000  2.5995465000000002
 -0.0000000000000000  0.0000000000000000  6.4043155447020004
  0.0000000000000000 -0.0000000000000000  3.9938704552980004
