La Si C  N 
 1.0000000000000000
     6.0410620000000002    0.0000000000000000    0.0000000000000000
     0.0000000000000000   10.2288160000000001    0.0000000000000000
     0.0000000000000000    0.0000000000000000   10.5912590000000009
 La  Si  C   N  
   8  16   4  24
Cartesian
  4.5307965000000001  0.5022041791520000  4.1930370730640005
  1.5102655000000000  4.6122038208480003  9.4886665730640019
  4.5307965000000001  4.1664524772000000  4.6523587933760000
  1.5102655000000000  0.9479555228000000  9.9479882933760013
  4.5307965000000001  9.2808604772000010  0.6432707066240000
  1.5102655000000000  6.0623635227999992  5.9389002066240009
  4.5307965000000001  5.6166121791519998  1.1025924269360001
  1.5102655000000000  9.7266118208480012  6.3982219269360003
  4.5307965000000001  5.2947420260800007  7.8237100670050008
  1.5102655000000000 10.0484819739199995  2.5280805670049999
  4.5307965000000001  0.1803340260800000  8.0631784329950005
  1.5102655000000000  4.9340739739200004  2.7675489329950005
  4.5307965000000001  3.0497317192160001  9.7919366832700003
  1.5102655000000000  2.0646762807840000  4.4963071832700008
  4.5307965000000001  8.1641397192160010  6.0949518167300010
  1.5102655000000000  7.1790842807839992  0.7993223167300000
  3.0409981180559997  7.4404509872159998  3.4940245703230004
  3.0000638819440000  7.9027730127840004  8.7896540703230013
  6.0205948819440005  2.3260429872159998  1.8016049296770003
  0.0204671180560000  2.7883650127839998  7.0972344296770009
  3.0000638819440000  2.7883650127839998  7.0972344296770009
  3.0409981180559997  2.3260429872159998  1.8016049296770003
  0.0204671180560000  7.9027730127840004  8.7896540703230013
  6.0205948819440005  7.4404509872159998  3.4940245703230004
  4.5307965000000001  2.0984313735839999  8.0930246008570013
  1.5102655000000000  3.0159766264159997  2.7973951008570004
  4.5307965000000001  7.2128393735840000  7.7938638991430009
  1.5102655000000000  8.1303846264159993  2.4982343991430001
  4.5307965000000001  9.8810362559999998  6.4321563207720001
  1.5102655000000000  5.4621877440000004  1.1365268207720001
  0.0552757173000000  7.3678673088800002 10.4479804482480017
  5.9857862827000003  7.9753566911200000  5.1523509482480003
  2.9652552827000003  2.2534593088800001  5.4389080517520005
  3.0758067172999999  2.8609486911200004  0.1432785517520000
  5.9857862827000003  2.8609486911200004  0.1432785517520000
  0.0552757173000000  2.2534593088800001  5.4389080517520005
  3.0758067172999999  7.9753566911200000  5.1523509482480003
  5.9212012888580006  4.5597606812159999  7.0407618366890006
  3.1403917111420001  4.5597606812159999  7.0407618366890006
  2.9006702888580000  0.5546473187840000  1.7451323366890001
  5.9212012888580006  9.6741686812159990  8.8461266633110007
  0.1198607111420000  5.6690553187840003  3.5504971633110003
  1.5102655000000000  2.3651170643360002  7.9114904215970006
  4.5307965000000001  2.7492909356639998  2.6158609215970001
  1.5102655000000000  7.4795250643360003  7.9753980784030007
  4.5307965000000001  7.8636989356639999  2.6797685784030003
  2.9652552827000003  7.3678673088800002 10.4479804482480017
  2.9006702888580000  5.6690553187840003  3.5504971633110003
  3.1403917111420001  9.6741686812159990  8.8461266633110007
  0.1198607111420000  0.5546473187840000  1.7451323366890001
  4.5307965000000001  4.7666282560000006  9.4547321792280012
  1.5102655000000000  0.3477797440000000  4.1591026792279999
