Sr P 
 1.0000000000000000
     8.0855399999999999   -0.0000000000000000    0.0000000000000000
    -4.0427700000000000    7.0022830000000003    0.0000000000000000
     0.0000000000000000    0.0000000000000000    6.0469730000000004
 Sr  P  
   6   6
Cartesian
 -2.5867744700399999  4.4804247821159997  3.0234865000000002
  1.4559955299600000  2.5218582178840001  3.0234865000000002
  5.1735489400799999  0.0000000000000000  3.0234865000000002
 -1.2326648296200000  2.1350381003980003  0.0000000000000000
  2.8101051703800000  4.8672448996020004  0.0000000000000000
  2.4653296592400000  0.0000000000000000  0.0000000000000000
  4.0427740427700005  2.3340919992389999  1.1532545026680001
  4.0427740427700005  2.3340919992389999  4.8937184973320003
 -0.0000040427700000  4.6681910007610004  4.8937184973320003
 -0.0000040427700000  4.6681910007610004  1.1532545026680001
  0.0000000000000000  0.0000000000000000  4.1460163328549999
  0.0000000000000000  0.0000000000000000  1.9009566671450002
