In Se
 1.0000000000000000
     4.0417339999999999    0.0000000000000000    0.0000000000000000
    -2.0208670000000000    3.5002450000000001    0.0000000000000000
     0.0000000000000000    0.0000000000000000   17.4284430000000015
 In  Se 
   4   4
Cartesian
 -0.0000020208670001  2.3334978334150001  5.7566844366719998
  2.0208690208669999  1.1667471665850000 14.4709059366720023
  2.0208690208669999  1.1667471665850000 11.6717585633279999
 -0.0000020208670001  2.3334978334150001  2.9575370633280005
 -0.0000020208670001  2.3334978334150001 10.4104447149750001
  2.0208690208669999  1.1667471665850000  1.6962232149750001
  2.0208690208669999  1.1667471665850000  7.0179982850250004
 -0.0000020208670001  2.3334978334150001 15.7322197850250021
