Mg Sb Pt
 1.0000000000000000
     6.3562029999999998    0.0000000000000000    0.0000000000000000
     0.0000000000000000    6.3562029999999998    0.0000000000000000
     0.0000000000000000    0.0000000000000000    6.3562029999999998
 Mg  Sb  Pt 
   4   4   4
Cartesian
  0.0000000000000000  0.0000000000000000  3.1781014999999999
  0.0000000000000000  3.1781014999999999  0.0000000000000000
  3.1781014999999999  0.0000000000000000  0.0000000000000000
  3.1781014999999999  3.1781014999999999  3.1781014999999999
  0.0000000000000000  0.0000000000000000  0.0000000000000000
  0.0000000000000000  3.1781014999999999  3.1781014999999999
  3.1781014999999999  0.0000000000000000  3.1781014999999999
  3.1781014999999999  3.1781014999999999  0.0000000000000000
  4.7671522499999996  1.5890507500000000  1.5890507500000000
  4.7671522499999996  4.7671522499999996  4.7671522499999996
  1.5890507500000000  1.5890507500000000  4.7671522499999996
  1.5890507500000000  4.7671522499999996  1.5890507500000000
