Ta Si Ir
 1.0000000000000000
     3.8118599999999998    0.0000000000000000    0.0000000000000000
     0.0000000000000000    6.4341790000000003    0.0000000000000000
     0.0000000000000000    0.0000000000000000    7.3296310000000000
 Ta  Si  Ir 
   4   4   4
Cartesian
  2.8588950000000000  3.3736781143230004  1.2599269207449999
  0.9529650000000000  6.2775903856769997  4.9247424207449999
  2.8588950000000000  0.1565886143230000  2.4048885792549997
  0.9529650000000000  3.0605008856770000  6.0697040792549997
  0.9529650000000000  1.4955541325810000  0.9109631888350000
  0.9529650000000000  4.7126436325809999  2.7538523111650002
  2.8588950000000000  4.9386248674190005  6.4186678111650002
  2.8588950000000000  1.7215353674190002  4.5757786888350003
  0.9529650000000000  5.4983791378820008  0.4757223704240000
  0.9529650000000000  2.2812896378820002  3.1890931295759999
  2.8588950000000000  4.1528893621179996  4.1405378704239997
  2.8588950000000000  0.9357998621179999  6.8539086295759999
