Ba As Ru
 1.0000000000000000
     3.9711970000000001    0.0000000000000000   -1.2761620000000000
    -0.4101010000000000    3.9499640000000000   -1.2761620000000000
     0.0193120000000000    0.0214210000000000    6.8770129999999998
 Ba  As  Ru 
   1   2   2
Cartesian
  0.0000000000000000  0.0000000000000000  0.0000000000000000
  2.3254303976480002  2.5793650371869998  0.4194103513230000
  1.2549776023520001  1.3920199628129999  3.9052786486770001
  0.6948795000000000  2.9731835000000002  2.1623444999999997
  2.8855285000000004  0.9982015000000000  2.1623444999999997
