Sr Pt
 1.0000000000000000
     4.7952120000000003    0.0000000000000000    2.7685170000000001
     1.5984039999999999    4.5209700000000002    2.7685170000000001
     0.0000000000000000    0.0000000000000000    5.5370330000000001
 Sr  Pt 
   2   4
Cartesian
  5.5944140000000004  3.9558487500000004  9.6898086250000013
  0.7992020000000000  0.5651212500000000  1.3842583749999999
  3.1968079999999999  2.2604850000000001  5.5370334999999997
  3.1968079999999999  2.2604850000000001  2.7685170000000001
  0.7992020000000000  2.2604850000000001  4.1527750000000001
  2.3976060000000001  0.0000000000000000  4.1527750000000001
