Sc In Rh
 1.0000000000000000
     0.0000000000000000    3.2020780000000002    3.2020780000000002
     3.2020780000000002    0.0000000000000000    3.2020780000000002
     3.2020780000000002    3.2020780000000002    0.0000000000000000
 Sc  In  Rh 
   1   1   2
Cartesian
  4.8031234041560005  4.8031234041560005  4.8031234041560005
  1.6010390000000001  1.6010390000000001  1.6010390000000001
  0.0000000000000000  0.0000000000000000  0.0000000000000000
  3.2020780000000002  3.2020780000000002  3.2020780000000002
