Pb F 
 1.0000000000000000
     3.6227309999999999    0.0000000000000000    2.0915849999999998
     1.2075769999999999    3.4155460000000000    2.0915849999999998
     0.0000000000000000    0.0000000000000000    4.1831709999999998
 Pb  F  
   1   2
Cartesian
  0.0000000000000000  0.0000000000000000  0.0000000000000000
  3.6227309999999999  2.5616595000000002  6.2747557499999989
  1.2075769999999999  0.8538865000000000  2.0915852499999996
