Rb Tl O 
 1.0000000000000000
     3.3605459999999998   -0.0052160000000000    5.8084959999999999
     1.5551990000000000    2.9790359999999998    5.8084959999999999
    -0.0086210000000000   -0.0052160000000000    6.7105750000000004
 Rb  Tl  O  
   1   1   2
Cartesian
  2.4535619999999998  1.4843020000000000  9.1637835000000010
  0.0000000000000000  0.0000000000000000  0.0000000000000000
  3.5731763189639998  2.1616216572439999 13.3454195142869985
  1.3339476810360000  0.8069823427559999  4.9821474857129999
