Lu B  Ir
 1.0000000000000000
     0.0379890000000000    0.0000000000000000    3.1338450000000000
    -5.4037990000000002    0.0000000000000000    0.0668240000000000
    -2.7019000000000002   -4.6798190000000002    0.0334120000000000
 Lu  B   Ir 
   1   2   3
Cartesian
 -2.6829050000000003  0.0000000000000000  1.6003345000000000
 -2.6829026314130004 -3.1196843408750001  1.6003344665879999
 -5.3848073685869995 -1.5601346591250000  1.6337465334120000
 -1.3509500000000001 -2.3399095000000001  0.0167060000000000
 -4.0528495000000007 -2.3399095000000001  0.0501180000000000
  0.0000000000000000  0.0000000000000000  0.0000000000000000
