Ni As
 1.0000000000000000
     3.5641379999999998    0.0000000000000000    0.0000000000000000
     0.0000000000000000    4.7422550000000001    0.0000000000000000
     0.0000000000000000    0.0000000000000000    5.7658250000000004
 Ni  As 
   2   4
Cartesian
  1.7820689999999999  2.3711275000000001  2.8829125000000002
  0.0000000000000000  0.0000000000000000  0.0000000000000000
  1.7820689999999999  3.3421421492899999  0.7474930846500001
  1.7820689999999999  1.4001128507100000  5.0183319153500001
  0.0000000000000000  3.7712403507100003  3.6304055846500005
  0.0000000000000000  0.9710146492900000  2.1354194153500003
