Ho Co B 
 1.0000000000000000
     4.9666569999999997    0.0000200000000000    0.0000000000000000
    -2.4833120000000002    4.3012699999999997    0.0000000000000000
     0.0000000000000000    0.0000000000000000    2.9688560000000002
 Ho  Co  B  
   1   3   2
Cartesian
  0.0000000000000000  0.0000000000000000  0.0000000000000000
  2.4833284999999998  0.0000100000000000  1.4844280000000001
 -1.2416560000000001  2.1506349999999999  1.4844280000000001
  1.2416724999999997  2.1506449999999999  1.4844280000000001
  2.4833066834799999  1.4337943738099999  0.0000000000000000
  0.0000383165200000  2.8674956261899998  0.0000000000000000
