Y  Si Os
 1.0000000000000000
     4.1771099999999999    0.0000000000000000    0.0000000000000000
     0.0000000000000000    4.1771099999999999    0.0000000000000000
     0.0000000000000000    0.0000000000000000    9.6996939999999991
 Y   Si  Os 
   2   4   4
Cartesian
  0.0000000000000000  0.0000000000000000  0.0000000000000000
  2.0885549999999999  2.0885549999999999  4.8498469999999996
  2.0885549999999999  2.0885549999999999  8.4563969227739992
  2.0885549999999999  2.0885549999999999  1.2432970772259997
  0.0000000000000000  0.0000000000000000  3.6065499227739997
  0.0000000000000000  0.0000000000000000  6.0931440772259995
  0.0000000000000000  2.0885549999999999  7.2747704999999989
  2.0885549999999999  0.0000000000000000  7.2747704999999989
  2.0885549999999999  0.0000000000000000  2.4249234999999998
  0.0000000000000000  2.0885549999999999  2.4249234999999998
