Ac
 1.0000000000000000
     4.0460409999999998   -0.0000000000000000    0.0000000000000000
    -2.0230210000000000    3.5039739999999999    0.0000000000000000
     0.0000000000000000    0.0000000000000000   13.0170359999999992
 Ac 
   4
Cartesian
  0.0000000000000000  0.0000000000000000  0.0000000000000000
 -0.0000003333340000  2.3359873386320000  3.2542589999999998
  0.0000000000000000  0.0000000000000000  6.5085179999999996
  2.0230223563539997  1.1679901653420000  9.7627769999999998
