Al Cu
 1.0000000000000000
     6.0709819999999999    0.0000000000000000    0.0000000000000000
     0.0000000000000000    6.0709819999999999    0.0000000000000000
     0.0000000000000000    0.0000000000000000    4.8606410000000002
 Al  Cu 
   8   4
Cartesian
  5.1103583761759994  2.0748673761759999  0.0000000000000000
  3.9961146238240000  5.1103583761759994  0.0000000000000000
  5.1103583761759994  3.9961146238240000  2.4303205000000001
  3.9961146238240000  0.9606236238240000  2.4303205000000001
  2.0748673761759999  5.1103583761759994  2.4303205000000001
  0.9606236238240000  2.0748673761759999  2.4303205000000001
  2.0748673761759999  0.9606236238240000  0.0000000000000000
  0.9606236238240000  3.9961146238240000  0.0000000000000000
  0.0000000000000000  0.0000000000000000  1.2151602500000001
  0.0000000000000000  0.0000000000000000  3.6454807499999999
  3.0354909999999999  3.0354909999999999  3.6454807499999999
  3.0354909999999999  3.0354909999999999  1.2151602500000001
