Bi Te Br
 1.0000000000000000
     4.3096259999999997    0.0000000000000000    0.0000000000000000
    -2.1548120000000002    3.7322449999999998    0.0000000000000000
     0.0000000000000000    0.0000000000000000    6.8077730000000001
 Bi  Te  Br 
   1   1   1
Cartesian
  0.0000000000000000  0.0000000000000000  0.0418541884040000
 -0.0000014881460002  2.4881645774150001  1.7763658244360001
  2.1548154881459998  1.2440804225850000  4.9895529871599997
