Ho In Pt
 1.0000000000000000
     7.6073449999999996    0.0000000000000000    0.0000000000000000
    -3.8036720000000002    6.5881520000000000    0.0000000000000000
     0.0000000000000000    0.0000000000000000    3.8357860000000001
 Ho  In  Pt 
   3   3   3
Cartesian
 -1.5453102160960002  2.6765553367360000  0.0000000000000000
  3.0906208384600000  0.0000000000000000  0.0000000000000000
  2.2583623776359998  3.9115966632640005  0.0000000000000000
 -2.8097687027280003  4.8666612942479999  1.9178930000000001
  5.6195381441549994  0.0000000000000000  1.9178930000000001
  0.9939035585729998  1.7214907057520001  1.9178930000000001
  0.0000000000000000  0.0000000000000000  0.0000000000000000
  3.8036764703390000  2.1960484706159997  1.9178930000000001
 -0.0000034703390002  4.3921035293840003  1.9178930000000001
