Tb Mn Si
 1.0000000000000000
     3.9081600000000001    0.0000000000000000    0.0000000000000000
     0.0000000000000000    3.9081600000000001    0.0000000000000000
     0.0000000000000000    0.0000000000000000    7.3076090000000002
 Tb  Mn  Si 
   2   2   2
Cartesian
  1.9540800000000000  0.0000000000000000  4.8634695558150005
  0.0000000000000000  1.9540800000000000  2.4441394441850002
  1.9540800000000000  1.9540800000000000  0.0000000000000000
  0.0000000000000000  0.0000000000000000  0.0000000000000000
  0.0000000000000000  1.9540800000000000  5.8238209153770004
  1.9540800000000000  0.0000000000000000  1.4837880846230000
