Tm Pt
 1.0000000000000000
     4.0637480000000004    0.0000000000000000    0.0000000000000000
     0.0000000000000000    4.0637480000000004    0.0000000000000000
     0.0000000000000000    0.0000000000000000    4.0637480000000004
 Tm  Pt 
   1   3
Cartesian
  0.0000000000000000  0.0000000000000000  0.0000000000000000
  2.0318740000000002  2.0318740000000002  0.0000000000000000
  2.0318740000000002  0.0000000000000000  2.0318740000000002
  0.0000000000000000  2.0318740000000002  2.0318740000000002
