Ca B  H 
 1.0000000000000000
     0.0000000000000000    4.3948520000000002    6.5890680000000001
     3.7512249999999998    0.0000000000000000    6.5890680000000001
     3.7512249999999998    4.3948520000000002    0.0000000000000000
 Ca  B   H  
   2   4  16
Cartesian
  5.6268374999999997  6.5922780000000003  9.8836019999999998
  3.7512249999999998  4.3948520000000002  6.5890680000000001
  5.6268374999999997  6.5922780000000003 12.7921088621520003
  5.6268374999999997  6.5922780000000003  6.9750951378480002
  3.7512249999999998  4.3948520000000002  3.6805611378480001
  3.7512249999999998  4.3948520000000002  9.4975748621519998
  4.6112571020750002  2.1964723171160001  5.5058647552080000
  2.8911928979249999  6.5932316828840003  5.5058647552080000
  2.8911928979249999  2.1964723171160001  7.6722712447920003
  4.6112571020750002  6.5932316828840003  7.6722712447920003
  4.7668053979250002  4.3958056828840002  4.3777372447919998
  2.7356446020749998  4.3938983171160002  4.3777372447919998
  2.7356446020749998  4.3958056828840002  8.8003987552080005
  4.7668053979250002  4.3938983171160002  8.8003987552080005
  3.6762305097999994  3.4072452534119999  2.9661282618120000
  3.8262194901999997  5.3824587465880001  2.9661282618120000
  3.8262194901999997  3.4072452534119999 10.2120077381879995
  3.6762305097999999  5.3824587465880001 10.2120077381879995
  5.7018319901999996  3.1850327465880004  6.9174737381879998
  1.8006180097999998  5.6046712534119996  6.9174737381879998
  1.8006180098000000  3.1850327465880004  6.2606622618120005
  5.7018319901999996  5.6046712534120005  6.2606622618120005
