Ac Al
 1.0000000000000000
     6.9806830000000000   -0.0000040000000000    0.0000000000000000
    -3.4903460000000002    6.0454559999999997    0.0000000000000000
     0.0000000000000000    0.0000000000000000    4.6515839999999997
 Ac  Al 
   2   6
Cartesian
  0.0000039806860000  4.0302986363599995  3.4886926515840000
  3.4903434903430006  2.0151473181799999  1.1628959999999999
  0.0000058181980000  1.5617221318159999  1.1628959999999999
  2.1378477017090001  5.2645796181719993  1.1628959999999999
 -2.1378415778400002  5.2645820681839997  1.1628959999999999
  3.4903381624939995  4.4837177772720000  3.4886926515840000
  1.3524962789830000  0.7808602909160000  3.4886926515840000
  5.6281855585319995  0.7808578409040000  3.4886926515840000
