Ca Ag P 
 1.0000000000000000
     7.0296589999999997    0.0000000000000000    0.0000000000000000
    -3.5148280000000001    6.0878629999999996    0.0000000000000000
     0.0000000000000000    0.0000000000000000    4.1971040000000004
 Ca  Ag  P  
   3   3   3
Cartesian
  4.1361599700329998  0.0000000000000000  2.0985520000000002
  1.4467501324029997  2.5058435530190000  2.0985520000000002
 -2.0680791024360001  3.5820194469809996  2.0985520000000002
  1.7747780077300002  0.0000000000000000  0.0000000000000000
  2.6274416174299993  4.5508602283899995  0.0000000000000000
 -0.8873886251600002  1.5370027716100001  0.0000000000000000
  0.0000000000000000  0.0000000000000000  2.0985520000000002
 -0.0000025148290001  4.0585773626209996  0.0000000000000000
  3.5148335148289997  2.0292856373789996  0.0000000000000000
