Ba Ce Pt O 
 1.0000000000000000
     0.0000000000000000    4.2567500000000003    4.2567500000000003
     4.2567500000000003    0.0000000000000000    4.2567500000000003
     4.2567500000000003    4.2567500000000003    0.0000000000000000
 Ba  Ce  Pt  O  
   2   1   1   6
Cartesian
  6.3851250000000004  6.3851250000000004  6.3851250000000004
  2.1283750000000001  2.1283750000000001  2.1283750000000001
  4.2567500000000003  4.2567500000000003  4.2567500000000003
  0.0000000000000000  0.0000000000000000  0.0000000000000000
  4.2567500000000003  4.2567500000000003  6.4744912095000000
  4.2567500000000003  6.4744912095000000  4.2567500000000003
  4.2567500000000003  2.0390087905000001  4.2567500000000003
  2.0390087905000001  4.2567500000000003  4.2567500000000003
  4.2567500000000003  4.2567500000000003  2.0390087905000001
  6.4744912095000000  4.2567500000000003  4.2567500000000003
