Tm Cu Te
 1.0000000000000000
     6.9104729999999996    0.0000000000000000    0.0000000000000000
     0.0000000000000000    7.5479430000000001    0.0000000000000000
     0.0000000000000000    0.0000000000000000   12.7024000000000008
 Tm  Cu  Te 
   4  12  12
Cartesian
  1.6827209069189999  5.6573568811890000 10.6411942544000002
  5.1379574069189999  1.8905861188110000  8.4124057456000010
  5.1379574069189999  1.8905861188110000  4.2899942544000007
  1.6827209069189999  5.6573568811890000  2.0612057456000001
  2.5105471990079997  0.8928084377550001 10.4974793008000002
  4.2891923816399995  4.6879292740409992  0.0000000000000000
  0.8405484728820000  2.8727244619710000  2.2067244399999999
  0.8339558816399999  2.8600137259589999  6.3512000000000004
  6.0071083275479999  6.6311019117329995  0.0000000000000000
  2.5518718275479997  0.9168410882669999  6.3512000000000004
  4.2957849728820001  4.6752185380290001  8.5579244400000007
  5.9657836990079991  6.6551345622450002  8.5561206992000010
  0.8405484728820000  2.8727244619710000 10.4956755600000005
  2.5105471990079997  0.8928084377550001  2.2049206992000001
  5.9657836990079991  6.6551345622450002  4.1462793008000007
  4.2957849728820001  4.6752185380290001  4.1444755600000001
  6.7644408845639994  0.4949941019400000 10.6263451488000005
  0.0513517248630000  4.2772230515820002  8.4245746447999998
  6.7644408845639994  0.4949941019400000  2.0760548512000003
  6.8427849169649999  0.4049094022350000  6.3512000000000004
  3.5065882248629996  3.2707199484179998 10.6290253552000014
  3.4356936823559998  3.3809652038759999  6.3512000000000004
  6.8909301823559996  4.1669777961239998  0.0000000000000000
  3.3092043845640000  7.0529488980600004  8.4272548512000007
  3.3875484169649996  7.1430335977649992  0.0000000000000000
  0.0513517248630000  4.2772230515820002  4.2778253552000001
  3.5065882248629996  3.2707199484179998  2.0733746448000003
  3.3092043845640000  7.0529488980600004  4.2751451488000001
