Ba Pb
 1.0000000000000000
     4.8946829999999997    0.0000000000000000    0.0000000000000000
     0.0000000000000000    4.9678909999999998   -2.0857260000000002
     0.0000000000000000   -0.0087330000000000    6.9384509999999997
 Ba  Pb 
   2   2
Cartesian
  3.6710122499999995  0.6585500960580000  1.5685614136529997
  1.2236707499999999  4.3006079039419998  3.2841635863469993
  3.6710122499999995  2.0938961397239995  4.9873282708949995
  1.2236707499999999  2.8652618602759996 -0.1346032708950001
