Ca B  Rh
 1.0000000000000000
     5.2975700000000003    0.0307770000000000   -1.4246490000000001
    -2.7897390000000000    4.5036160000000001   -1.4246490000000001
    -0.0247080000000000   -0.0446740000000000    6.0434859999999997
 Ca  B   Rh 
   2   4   4
Cartesian
  4.2804793750000005  0.5787133750000000  0.0862224999999999
 -1.7973563749999999  3.9110056250000000  3.1079654999999997
  1.6576275820470003  2.0293311009630002  0.0862224999999996
  3.6671008320470002  0.8887843509630000  3.1079654999999997
 -1.1839778320470000  3.6009346490370002  0.0862224999999999
  0.8254954179530003  2.4603878990370003  3.1079654999999997
  0.5572448277320003  3.3944822154460002  1.2902300219500000
  2.5914260777320006  2.2986094654459999 -1.7315129780500000
  1.9258781722680001  1.0952367845540001  1.9039579780500000
 -0.1083030777319998  2.1911095345540001  4.9257009780499992
