Sr Cu N 
 1.0000000000000000
     5.3647330000000002    0.0000000000000000    0.0000000000000000
     0.0000000000000000    9.0427099999999996    0.0000000000000000
     0.0000000000000000    0.0000000000000000   13.2142540000000004
 Sr  Cu  N  
  12  12  12
Cartesian
  0.0198119589690000  0.1835670130000000  3.3035635000000001
  2.7021784589689997  4.3377879869999996  9.9106905000000012
  2.6625545410310001  4.7049220130000000  3.3035635000000001
  5.3449210410310002  8.8591429870000002  9.9106905000000012
  0.0884268940390000  3.0638781303299996  1.1402844061680000
  2.7707933940390004  1.4574768696699998 12.0739695938320004
  5.2763061059609999  5.9788318696699996 12.0739695938320004
  2.5939396059609998  7.5852331303299998  5.4668425938320002
  5.2763061059609999  5.9788318696699996  7.7474114061680011
  0.0884268940390000  3.0638781303299996  5.4668425938320002
  2.7707933940390004  1.4574768696699998  7.7474114061680011
  2.5939396059609998  7.5852331303299998  1.1402844061680000
  2.7647741636129997  1.5874929540499998  2.0780735840400002
  0.0000000000000000  0.0000000000000000  6.6071270000000002
  2.6823665000000001  4.5213549999999998  6.6071270000000002
  2.6823665000000001  4.5213549999999998  0.0000000000000000
  0.0000000000000000  0.0000000000000000  0.0000000000000000
  0.0824076636130000  2.9338620459499998 11.1361804159600002
  5.2823253363870002  6.1088479540499998  2.0780735840400002
  2.5999588363870001  7.4552170459499996  8.6852005840400004
  2.5999588363870001  7.4552170459499996 11.1361804159600002
  2.7647741636129997  1.5874929540499998  4.5290534159600000
  0.0824076636130000  2.9338620459499998  8.6852005840400004
  5.2823253363870002  6.1088479540499998  4.5290534159600000
  3.9662436720940004  5.3076909761800000  5.5459563325300003
  3.8233271849740005  6.7247559748599999  9.9106905000000012
  1.1409606849740002  6.8393090251399995  3.3035635000000001
  4.2237723150260003  2.2034009748599996  9.9106905000000012
  1.5414058150260002  2.3179540251400002  3.3035635000000001
  4.0808558279060003  0.7863359761800000  5.5459563325300003
  1.3984893279060002  3.7350190238200001  7.6682976674700001
  3.9662436720940004  5.3076909761800000  1.0611706674700001
  1.2838771720940001  8.2563740238199994 12.1530833325300005
  1.2838771720940001  8.2563740238199994  7.6682976674700001
  1.3984893279060002  3.7350190238200001 12.1530833325300005
  4.0808558279060003  0.7863359761800000  1.0611706674700001
