Na S  O 
 1.0000000000000000
     5.5147360000000001    0.0135170000000000   -1.2518370000000001
    -3.0210499999999998    4.6136480000000004   -1.2518370000000001
    -0.0019680000000000   -0.0036530000000000    6.7608360000000003
 Na  S   O  
   4   2   8
Cartesian
  1.7564410355740003  2.0377700215710002  0.4383720000000000
 -1.3976855355739999  3.7376012284290003  0.4383720000000000
  3.8894035355740000  0.8859107715710000  3.8187899999999999
  0.7352769644260001  2.5857419784290006  3.8187899999999999
  4.4472707499999995  0.5876201250000000  0.4383720000000000
 -1.9555527499999998  4.0358918750000008  3.8187899999999999
  0.8323768733760001  0.8307053693510000  5.4574430457150003
 -0.9915729057519999  3.9835784075090008  2.6981871636690000
  2.2545732429380010  3.4696655804300005  2.1801369542850000
 -1.3818022105619998  3.2594871427100003  4.9393928363309998
  1.6593411266240001  3.7928066306490007 -1.2002810457150002
  3.4832909057519998  0.6399335924910001  1.5589748363309999
  3.8735202105620004  1.3640248572900002 -0.6822308363310003
  0.2371447570620000  1.1538464195700002  2.0770250457150001
