Pa Ag O 
 1.0000000000000000
     4.3149709999999999    0.0000000000000000    0.0000000000000000
     0.0000000000000000    4.3149709999999999    0.0000000000000000
     0.0000000000000000    0.0000000000000000    4.3149709999999999
 Pa  Ag  O  
   1   1   3
Cartesian
  2.1574898149710000  2.1574898149710000  2.1574898149710000
  0.0000000000000000  0.0000000000000000  0.0000000000000000
  2.1574898149710000  2.1574898149710000  0.0000000000000000
  2.1574898149710000  0.0000000000000000  2.1574898149710000
  0.0000000000000000  2.1574898149710000  2.1574898149710000
