Ce Si Ir
 1.0000000000000000
     5.0986289999999999    0.0000000000000000    2.3603580000000002
     1.7950969999999999    5.7820109999999998    2.8093720000000002
     0.0058620000000000    0.0091280000000000    6.6743139999999999
 Ce  Si  Ir 
   2   4   6
Cartesian
  6.2858301193410000  4.3433542500000000  9.3974234585820007
  0.6137578806589999  1.4477847499999998  2.4466205414180000
  4.2022481375169995  3.3528725822739998  6.9534149166220001
  3.8253774413010002  0.4573030822739999  2.4539712417900001
  2.6973398624830001  2.4382664177260001  4.8906290833780002
  3.0742105586989998  5.3338359177259997  9.3900727582099996
  2.9451349005449998  1.2673105312010000  7.0121404859260004
  3.4468630000000000  2.8910054999999999  2.5848650000000002
  0.5105210994550000  1.6373869687989999  5.5841955140739996
  3.9544530994549998  4.5238284687989996  4.8319035140739999
  1.2904379005450000  4.1537520312009999  3.8994904859260000
  2.5522454999999997  0.0045640000000000  4.5173360000000002
