La Cd
 1.0000000000000000
     5.0815970000000004   -0.0000000000000000    0.0000000000000000
    -2.5407999999999999    4.4007930000000002    0.0000000000000000
     0.0000000000000000    0.0000000000000000    3.6084499999999999
 La  Cd 
   1   2
Cartesian
  0.0000000000000000  0.0000000000000000  0.0000000000000000
 -0.0000035407989999  2.9338634669310002  1.8045136759999998
  2.5408005407990002  1.4669295330690000  1.8039363239999999
