Mg Ga Ir
 1.0000000000000000
    -0.0000280000000000    3.0426739999999999    3.0426739999999999
     3.0426739999999999   -0.0000280000000000    3.0426739999999999
     3.0426739999999999    3.0426739999999999   -0.0000280000000000
 Mg  Ga  Ir 
   1   1   2
Cartesian
  4.5639960853200003  4.5639960853200003  4.5639960853200003
  1.5213299999999998  1.5213299999999998  1.5213299999999998
  0.0000060853200000  0.0000060853200000  0.0000060853200000
  3.0426539146799998  3.0426539146800002  3.0426539146800002
