Ca Si N 
 1.0000000000000000
     6.1759740000000001    0.0000000000000000    0.0000000000000000
     0.0000000000000000   10.8162880000000001    0.0000000000000000
     0.0000000000000000    0.0000000000000000   12.9961870000000008
 Ca  Si  N  
  28   4  24
Cartesian
  4.5413357296019994  0.4158213758720000 12.7328582590060009
  4.7226252703980007  4.9923226241280005  6.2347647590060005
  4.7226252703980007  5.8239653758720005  0.2633287409940000
  4.5413357296019994 10.4004666241280006  6.7614222409940004
  1.6346382703980000 10.4004666241280006  0.2633287409940000
  1.4533487296020000  5.8239653758720005  6.7614222409940004
  1.4533487296020000  4.9923226241280005 12.7328582590060009
  1.6346382703980000  0.4158213758720000  6.2347647590060005
  5.2872389894520007  2.4397435538560002  8.1270615709539999
  3.9767220105479999  2.9684004461440003  1.6289680709540002
  3.9767220105479999  7.8478875538560002  4.8691254290460000
  5.2872389894520007  8.3765444461439991 11.3672189290460022
  0.8887350105480000  8.3765444461439991  4.8691254290460000
  2.1992519894520002  7.8478875538560002 11.3672189290460022
  2.1992519894520002  2.9684004461440003  8.1270615709539999
  0.8887350105480000  2.4397435538560002  1.6289680709540002
  3.7779544633320001  3.1832011095359998 11.4170852985650004
  5.4860065366680004  2.2249428904639998  4.9189917985650009
  5.4860065366680004  8.5913451095360003  1.5791017014350002
  3.7779544633320001  7.6330868904639999  8.0771952014349999
  2.3980195366679999  7.6330868904639999  1.5791017014350002
  0.6899674633320000  8.5913451095360003  8.0771952014349999
  0.6899674633320000  2.2249428904639998 11.4170852985650004
  2.3980195366679999  3.1832011095359998  4.9189917985650009
  2.7362961605699998  0.0000000000000000  9.7471402500000011
  0.3516908394300000  5.4081440000000001  3.2490467500000002
  3.4396778394300003  0.0000000000000000  3.2490467500000002
  5.8242831605700003  5.4081440000000001  9.7471402500000011
  5.7616340803140007  0.0000000000000000  9.7471402500000011
  3.5023269196859999  5.4081440000000001  3.2490467500000002
  0.4143399196860000  0.0000000000000000  3.2490467500000002
  2.6736470803139998  5.4081440000000001  9.7471402500000011
  4.7155537801680003  1.3640853448320001 10.2787492792350008
  4.5484072198319998  4.0440586551679996  3.7806557792350004
  4.5484072198319998  6.7722293448319997  2.7174377207650000
  4.7155537801680003  9.4522026551680014  9.2155312207650013
  1.4604202198320000  9.4522026551680014  2.7174377207650000
  1.6275667801680000  6.7722293448319997  9.2155312207650013
  1.6275667801680000  4.0440586551679996 10.2787492792350008
  1.4604202198320000  1.3640853448320001  3.7806557792350004
  3.6573994508520000  1.8014960315520001  6.5406300200510001
  5.6065615491480001  3.6066479684480002  0.0425365200510000
  5.6065615491480001  7.2096400315519995  6.4555569799489998
  3.6573994508520000  9.0147919684479998 12.9536504799490011
  2.5185745491480001  9.0147919684479998  6.4555569799489998
  0.5694124508520000  7.2096400315519995 12.9536504799490011
  0.5694124508520000  3.6066479684480002  6.5406300200510001
  2.5185745491480001  1.8014960315520001  0.0425365200510000
  3.7068195947999998  4.9172035039679995  8.3818518170890020
  5.5571414052000003  0.4909404960320000  1.8837583170890000
  5.5571414052000003 10.3253475039680005  4.6143351829110006
  3.7068195947999998  5.8990844960320006 11.1124286829110002
  2.4691544051999998  5.8990844960320006  4.6143351829110006
  0.6188325948000000 10.3253475039680005 11.1124286829110002
  0.6188325948000000  0.4909404960320000  8.3818518170890020
  2.4691544051999998  4.9172035039679995  1.8837583170890000
