Ca Dy Hg
 1.0000000000000000
     0.0000010000000000    3.7094399999999998    3.7094399999999998
     3.7094339999999999   -0.0000020000000000    3.7094440000000000
     3.7094399999999998    3.7094469999999999   -0.0000070000000000
 Ca  Dy  Hg 
   1   1   2
Cartesian
  1.8547187500000000  1.8547212499999999  1.8547192500000000
  5.5641562499999999  5.5641637499999996  5.5641577499999997
  0.0000000000000000  0.0000000000000000  0.0000000000000000
  3.7094300811249998  3.7094350811150001  3.7094310811230002
