Nd Br
 1.0000000000000000
     4.1302420000000000    0.0000000000000000    0.0000000000000000
    -2.0651199999999998    6.5643609999999999    0.0000000000000000
     0.0000000000000000    0.0000000000000000    9.2397369999999999
 Nd  Br 
   2   6
Cartesian
  2.0651173543699999  3.1811681129319997  2.3099342500000000
  0.0000046456300002  3.3831928870679997  6.9298027500000003
  0.0000007034760002  4.6178704188359996  4.0102306527399998
  2.0651212965240000  1.9464905811640001  5.2295063472600001
  2.0651197637239997  5.4408377930450005  6.9298027500000003
  0.0000022362760000  1.1235232069550001  2.3099342500000000
  0.0000007034760002  4.6178704188359996  0.6096378472599999
  2.0651212965240000  1.9464905811640001  8.6300991527399997
