Ba Ta S 
 1.0000000000000000
     6.9457890000000004    0.0000000000000000    0.0000000000000000
    -3.4728940000000001    6.0152299999999999    0.0000000000000000
     0.0000000000000000    0.0000000000000000    5.7067389999999998
 Ba  Ta  S  
   2   2   6
Cartesian
 -0.0000031395610003  4.0101553384099997  4.2800542500000001
  3.4728981395610004  2.0050746615899997  1.4266847499999999
  0.0000000000000000  0.0000000000000000  0.0000000000000000
  0.0000000000000000  0.0000000000000000  2.8533694999999999
  1.7108767432359997  4.9979282871699997  1.4266847499999999
  3.4728948308790009  3.9806265743399996  4.2800542500000001
  0.0000001691210001  2.0346034256599999  1.4266847499999999
  5.1837709123570006  1.0173017128299999  4.2800542500000001
  1.7620182567640001  1.0173017128299999  4.2800542500000001
 -1.7108759123570001  4.9979282871699997  1.4266847499999999
