Rb Pd F 
 1.0000000000000000
     5.1976030000000000    0.0000000000000000    3.0008379999999999
     1.7325340000000000    4.9003480000000001    3.0008379999999999
     0.0000000000000000    0.0000000000000000    6.0016759999999998
 Rb  Pd  F  
   2   1   6
Cartesian
  1.7325342500000001  1.2250870000000000  3.0008379999999999
  5.1976027499999997  3.6752609999999999  9.0025139999999997
  0.0000000000000000  0.0000000000000000  0.0000000000000000
  2.5173790586380003  3.7904093773040004  7.6431223826479995
  2.5173790586380003  3.7904093773040004  4.3602296173520001
  4.4127579413620008  1.1099386226960002  7.6431223826479995
  4.4127579413620008  1.1099386226960002  4.3602296173520001
  5.3604471092260004  3.7904093773040004  6.0016759999999998
  1.5696898907740002  1.1099386226960002  6.0016759999999998
