Ac Ti O 
 1.0000000000000000
     3.9958200000000001    0.0000000000000000    0.0000000000000000
     0.0000000000000000    3.9958200000000001    0.0000000000000000
     0.0000000000000000    0.0000000000000000    3.9958200000000001
 Ac  Ti  O  
   1   1   3
Cartesian
  0.0000000000000000  0.0000000000000000  0.0000000000000000
  1.9979060041800001  1.9979060041800001  1.9979060041800001
  1.9979060041800001  1.9979060041800001  0.0000000000000000
  1.9979060041800001  0.0000000000000000  1.9979060041800001
  0.0000000000000000  1.9979060041800001  1.9979060041800001
