Sm Pb Au
 1.0000000000000000
    -0.0000010000000000    3.5878199999999998    3.5878190000000001
     3.5878190000000001   -0.0000000000000000    3.5878190000000001
     3.5878199999999998    3.5878199999999998   -0.0000020000000000
 Sm  Pb  Au 
   1   1   2
Cartesian
  5.3817284999999995  5.3817299999999992  5.3817270000000006
  1.7939094999999998  1.7939099999999999  1.7939090000000000
  3.5878261756380003  3.5878271756400002  3.5878251756360005
  0.0000000000000000  0.0000000000000000  0.0000000000000000
