Pm Cd Pd
 1.0000000000000000
     0.0000020000000000    3.4245070000000002    3.4245070000000002
     3.4245070000000002    0.0000020000000000    3.4245070000000002
     3.4245070000000002    3.4245070000000002    0.0000020000000000
 Pm  Cd  Pd 
   1   1   2
Cartesian
  5.1367551509840004  5.1367551509840004  5.1367551509839995
  1.7122540000000002  1.7122540000000002  1.7122540000000002
  6.8490160000000007  6.8490160000000007  6.8490160000000007
  3.4245148490160005  3.4245148490160005  3.4245148490160005
