Nb Si Rh
 1.0000000000000000
     3.7765830000000000    0.0000000000000000    0.0000000000000000
     0.0000000000000000    6.4540119999999996    0.0000000000000000
     0.0000000000000000    0.0000000000000000    7.3696429999999999
 Nb  Si  Rh 
   4   4   4
Cartesian
  2.8324372499999999  3.0623641538799999  4.9625186158389996
  0.9441457500000000  0.1646418461200000  1.2776971158390000
  2.8324372499999999  6.2893701538799993  6.0919458841610004
  0.9441457500000000  3.3916478461200001  2.4071243841609999
  0.9441457500000000  1.7335669852359998  6.4515623536320001
  0.9441457500000000  4.9605729852360003  4.6029021463679998
  2.8324372499999999  4.7204450147639996  0.9180806463680000
  2.8324372499999999  1.4934390147639998  2.7667408536319997
  0.9441457500000000  4.1640188241959999  6.9084433714170004
  0.9441457500000000  0.9370128241960000  4.1460211285829995
  2.8324372499999999  5.5169991758040000  3.2236218714170000
  2.8324372499999999  2.2899931758039997  0.4611996285830000
