Ho In Ag
 1.0000000000000000
     0.0000030000000000    3.6738599999999999    3.6738550000000001
     3.6738499999999998    0.0000050000000000    3.6738529999999998
     3.6738529999999998    3.6738610000000000    0.0000020000000000
 Ho  In  Ag 
   2   1   1
Cartesian
  3.6738463261499996  0.0000049999950000  3.6738493261469998
  3.6738603477059999  3.6738703477260000  3.6738623477100001
  5.5107831738500002  5.5107945000049998  5.5107861738530000
  1.8369264999999999  1.8369314999999999  1.8369275000000000
