Zr Cu Si
 1.0000000000000000
     3.7925339999999998    0.0004520000000000   -1.0230809999999999
    -0.7279620000000000    5.7162329999999999   -2.6953260000000001
     0.0000700000000000    0.0086010000000000    7.5262370000000001
 Zr  Cu  Si 
   3   4   4
Cartesian
  2.6811826944360000  5.0082387160899993  2.3889794794080004
  0.3834585776020000  0.7170530001430000  1.4188478252660000
 -0.3639810000000000  2.8581164999999999 -1.3476630000000001
  0.8761673648299998  2.9931940858599999  3.2259865635250002
  1.9096965999339997  4.9248779103170000 -0.4581562133770003
  1.1549454000660000  0.8004080896829998  4.2659862133770003
  2.1884753631320000  2.7320861979069999  0.5818461318010002
  1.3069444220540001  4.6332064801749997  4.8330063144280002
  1.7576975779459996  1.0920795198250002 -1.0251763144279999
  2.7700063087619999  1.6309460911520000  2.7133694016090004
  0.2946356912380000  4.0943399088480001  1.0944605983909999
