Li Tb Tl
 1.0000000000000000
     0.0000000000000000    3.6470330000000000    3.6470330000000000
     3.6470330000000000    0.0000000000000000    3.6470330000000000
     3.6470330000000000    3.6470330000000000    0.0000000000000000
 Li  Tb  Tl 
   1   1   2
Cartesian
  1.8235165000000000  1.8235165000000000  1.8235165000000000
  5.4705494999999997  5.4705494999999997  5.4705494999999997
  3.6470330000000000  3.6470330000000000  3.6470330000000000
  0.0000000000000000  0.0000000000000000  0.0000000000000000
