Ba Sb Au
 1.0000000000000000
     4.8036610000000000    0.0000000000000000    0.0000000000000000
    -2.4018299999999999    4.1600919999999997    0.0000000000000000
     0.0000000000000000    0.0000000000000000    9.4754529999999999
 Ba  Sb  Au 
   2   2   2
Cartesian
  0.0000000000000000  0.0000000000000000  0.0000000000000000
  0.0000000000000000  0.0000000000000000  4.7377265000000000
  2.4018330684970004  1.3866959466359998  2.3688632500000000
 -0.0000020684969999  2.7733960533639999  7.1065897499999995
 -0.0000020684969999  2.7733960533639999  2.3688632500000000
  2.4018330684970004  1.3866959466359998  7.1065897499999995
