Na Tl Sb
 1.0000000000000000
     0.0000000000000000    3.7655949999999998    3.7655949999999998
     3.7655949999999998    0.0000000000000000    3.7655949999999998
     3.7655949999999998    3.7655949999999998    0.0000000000000000
 Na  Tl  Sb 
   2   1   1
Cartesian
  0.0000000000000000  0.0000000000000000  0.0000000000000000
  3.7656025311899999  3.7656025311899999  3.7656025311899999
  5.6483924999999999  5.6483924999999999  5.6483924999999999
  1.8827974999999999  1.8827974999999999  1.8827974999999999
