Dy Mg Ge
 1.0000000000000000
     7.2361079999999998   -0.0000010000000000   -0.0000000000000000
    -0.0000010000000000    7.2361079999999998   -0.0000000000000000
    -0.0000000000000000   -0.0000000000000000    4.2221029999999997
 Dy  Mg  Ge 
   4   2   4
Cartesian
  1.2842785975369999  2.3337821385699997  2.1110514999999999
  2.3337814935329999  5.9518359935329999  2.1110514999999999
  4.9023255064670002  1.2842710064670000  2.1110514999999999
  5.9518356385709996  4.9023248614290003  2.1110514999999999
  0.0000000000000000  0.0000000000000000  4.2221029999999997
  3.6180534999999998  3.6180534999999998  0.0000000000000000
  0.8901274942849999  4.5081747581759997  4.2221029999999997
  2.7279257596919999  0.8901277403079999  4.2221029999999997
  4.5081740041989997  6.3459864958010002  0.0000000000000000
  6.3459867418240004  2.7279250057150000  0.0000000000000000
