Rb Cd F 
 1.0000000000000000
     4.4249809999999998    0.0000000000000000    0.0000000000000000
     0.0000000000000000    4.4249809999999998    0.0000000000000000
     0.0000000000000000    0.0000000000000000    4.4249809999999998
 Rb  Cd  F  
   1   1   3
Cartesian
  0.0000000000000000  0.0000000000000000  0.0000000000000000
  2.2124904999999999  2.2124904999999999  2.2124904999999999
  0.0000000000000000  2.2124904999999999  2.2124904999999999
  2.2124904999999999  0.0000000000000000  2.2124904999999999
  2.2124904999999999  2.2124904999999999  0.0000000000000000
