Rb Pd Br
 1.0000000000000000
     6.4181840000000001   -0.0000000000000000    3.7055400000000001
     2.1393939999999998    6.0511229999999996    3.7055400000000001
     0.0000000000000000    0.0000000000000000    7.4110800000000001
 Rb  Pd  Br 
   2   1   6
Cartesian
  2.1393944999999999  1.5127807499999999  3.7055400000000001
  6.4181834999999996  4.5383422499999995 11.1166200000000011
  0.0000000000000000  0.0000000000000000  0.0000000000000000
  5.4024163691600000  1.4365123957079999  5.4649007476799998
  6.5260432131119996  4.6146106042919994  7.4110799999999992
  2.0315347868879998  1.4365123957079999  7.4110799999999992
  5.4024163691600000  1.4365123957079999  9.3572592523199987
  3.1551616308399999  4.6146106042919994  5.4649007476799998
  3.1551616308399999  4.6146106042919994  9.3572592523199987
