Ca Sn O 
 1.0000000000000000
     4.8264860000000001    0.0000000000000000    0.0000000000000000
     0.0000000000000000    4.8264860000000001    0.0000000000000000
     0.0000000000000000    0.0000000000000000    4.8264860000000001
 Ca  Sn  O  
   3   1   1
Cartesian
  2.4132430000000000  0.0000000000000000  2.4132430000000000
  0.0000000000000000  2.4132430000000000  2.4132430000000000
  2.4132430000000000  2.4132430000000000  0.0000000000000000
  0.0000000000000000  0.0000000000000000  0.0000000000000000
  2.4132430000000000  2.4132430000000000  2.4132430000000000
