Ca Pd F 
 1.0000000000000000
     4.6121809999999996    0.0218530000000000    3.3862860000000001
     1.7268209999999999    4.2768090000000001    3.3862399999999999
     0.0322580000000000    0.0219380000000000    5.7217219999999998
 Ca  Pd  F  
   1   1   6
Cartesian
  3.1856299999999997  2.1602999999999999  6.2471239999999995
  0.0000000000000000  0.0000000000000000  0.0000000000000000
  1.9087408654850000  0.2984380812450000  5.9909349892580002
  1.6566058728199999  3.3531648764999997  5.0631616906580001
  2.0997466867249996  2.6577223779449999  8.1800073297319997
  4.7146541271799993  0.9674351235000000  7.4310863093419997
  4.4625191345149995  4.0221619187550006  6.5033130107419996
  4.2715133132750003  1.6628776220550001  4.3142406702680001
