Ti Be
 1.0000000000000000
     2.9321999999999999    0.0000000000000000    0.0000000000000000
     0.0000000000000000    2.9321999999999999    0.0000000000000000
     0.0000000000000000    0.0000000000000000    2.9321999999999999
 Ti  Be 
   1   1
Cartesian
  1.4661000000000000  1.4661000000000000  1.4661000000000000
  0.0000000000000000  0.0000000000000000  0.0000000000000000
