Ga Pd
 1.0000000000000000
     4.9032720000000003    0.0000000000000000    0.0000000000000000
     0.0000000000000000    4.9032720000000003    0.0000000000000000
     0.0000000000000000    0.0000000000000000    4.9032730000000004
 Ga  Pd 
   4   4
Cartesian
  3.2221950013440002  0.7705590013440000  1.6810773415040001
  0.7705590013440000  1.6810769986560001  3.2221956584960001
  1.6810769986560001  3.2221950013440002  0.7705591584960000
  4.1327129986560003  4.1327129986560003  4.1327138415040006
  1.7527824483840002  4.2044184483840006  3.1504901941440000
  4.2044184483840006  3.1504895516160003  1.7527828058560002
  3.1504895516160003  1.7527824483840002  4.2044193058560007
  0.6988535516159999  0.6988535516159999  0.6988536941440000
