Ba Hf N 
 1.0000000000000000
     4.1324139999999998    0.0000000000000000    0.0000000000000000
     0.0000000000000000    4.1324139999999998    0.0000000000000000
     0.0000000000000000    0.0000000000000000    8.4275920000000006
 Ba  Hf  N  
   2   2   4
Cartesian
  3.0993104999999996  3.0993104999999996  1.2833958477200000
  1.0331035000000000  1.0331035000000000  7.1441961522800002
  1.0331035000000000  1.0331035000000000  3.5007037305119999
  3.0993104999999996  3.0993104999999996  4.9268882694879998
  3.0993104999999996  3.0993104999999996  6.9024169653920007
  1.0331035000000000  1.0331035000000000  1.5251750346080002
  3.0993104999999996  1.0331035000000000  4.2137960000000003
  1.0331035000000000  3.0993104999999996  4.2137960000000003
