Sc Al Pd
 1.0000000000000000
     6.3941260000000000    0.0000000000000000    0.0000000000000000
     0.0000000000000000    6.3941260000000000    0.0000000000000000
     0.0000000000000000    0.0000000000000000    6.3941260000000000
 Sc  Al  Pd 
   4   4   8
Cartesian
  3.1970630000000000  0.0000000000000000  0.0000000000000000
  3.1970630000000000  3.1970630000000000  3.1970630000000000
  0.0000000000000000  0.0000000000000000  3.1970630000000000
  0.0000000000000000  3.1970630000000000  0.0000000000000000
  0.0000000000000000  0.0000000000000000  0.0000000000000000
  0.0000000000000000  3.1970630000000000  3.1970630000000000
  3.1970630000000000  0.0000000000000000  3.1970630000000000
  3.1970630000000000  3.1970630000000000  0.0000000000000000
  1.5985315000000000  4.7955945000000000  4.7955945000000000
  4.7955945000000000  4.7955945000000000  4.7955945000000000
  1.5985315000000000  1.5985315000000000  1.5985315000000000
  4.7955945000000000  1.5985315000000000  1.5985315000000000
  4.7955945000000000  4.7955945000000000  1.5985315000000000
  1.5985315000000000  4.7955945000000000  1.5985315000000000
  4.7955945000000000  1.5985315000000000  4.7955945000000000
  1.5985315000000000  1.5985315000000000  4.7955945000000000
