Sr H 
 1.0000000000000000
     3.8531849999999999    0.0000000000000000    0.0000000000000000
     0.0000000000000000    6.3485990000000001    0.0000000000000000
     0.0000000000000000    0.0000000000000000    7.3027379999999997
 Sr  H  
   4   8
Cartesian
  0.9632962500000000  4.8287190050040003  4.4653759939079993
  2.8898887499999999  1.5198799949960000  2.8373620060920000
  0.9632962500000000  1.6544195050040000  6.4887310060920003
  2.8898887499999999  4.6941794949959998  0.8140069939079999
  0.9632962500000000  3.3419406051940004  2.3471584151039999
  2.8898887499999999  3.0066583948060002  4.9555795848959994
  0.9632962500000000  0.1676411051940000  1.3042105848959999
  2.8898887499999999  6.1809578948060002  5.9985274151040002
  2.8898887499999999  2.2535367926340002  0.5283896079900000
  0.9632962500000000  4.0950622073660004  6.7743483920100003
  2.8898887499999999  5.4278362926339998  3.1229793920100000
  0.9632962500000000  0.9207627073660000  4.1797586079899993
