Li Sc As O 
 1.0000000000000000
     0.0000000000000000    1.1864129999999999    4.7751640000000002
     4.3423840000000000   -3.4487670000000001    0.0000000000000000
     4.3423840000000000    3.4487670000000001    0.0000000000000000
 Li  Sc  As  O  
   1   1   2   7
Cartesian
  2.1596152042560002  0.0000000000000000  0.0000000000000000
  5.4670180321600004  0.0000000000000001  0.0000000000000000
  4.0203093787200004  2.4385673194740001  1.9524786066480002
  4.0203093787199995 -1.2521543194739999  2.8226853933520002
  3.8673489023199998  1.6201852624709998  3.4426162844879999
  6.8571931883039996 -0.9171856976220001  1.1890206111640000
  0.3161776638080000  0.5932065000000000  2.3875820000000001
  5.2726355547840003 -0.7721173378290003  3.8846388904760003
  5.2726355547840003  1.9585303378290000  0.8905251095240000
  3.8673489023199998 -0.4337722624710000  1.3325477155120000
  6.8571931883039996  2.1035986976220000  3.5861433888360001
