Li Sb N 
 1.0000000000000000
     9.9357140000000008    0.0000000000000000    0.0000000000000000
     0.0000000000000000    9.9357140000000008    0.0000000000000000
     0.0000000000000000    0.0000000000000000    9.9357140000000008
 Li  Sb  N  
  56   8  32
Cartesian
  0.0000000000000000  0.0000000000000000  4.9678570000000004
  0.0000000000000000  4.9678570000000004  0.0000000000000000
  4.9678570000000004  0.0000000000000000  0.0000000000000000
  4.9678570000000004  0.0000000000000000  4.9678570000000004
  4.9678570000000004  4.9678570000000004  0.0000000000000000
  0.0000000000000000  4.9678570000000004  4.9678570000000004
  0.0000000000000000  4.9678570000000004  2.4839285000000002
  4.9678570000000004  7.4517855000000006  0.0000000000000000
  2.4839285000000002  0.0000000000000000  4.9678570000000004
  4.9678570000000004  2.4839285000000002  0.0000000000000000
  7.4517855000000006  0.0000000000000000  4.9678570000000004
  0.0000000000000000  4.9678570000000004  7.4517855000000006
  2.5845077328220003  7.3512062671780010  2.5845077328220003
  7.3512062671780010  2.5845077328220003  2.5845077328220003
  2.5845077328220003  2.5845077328220003  7.3512062671780010
  7.3512062671780010  7.3512062671780010  7.3512062671780010
  7.5523647328220003  7.5523647328220003  2.3833492671780001
  2.3833492671780001  7.5523647328220003  7.5523647328220003
  7.5523647328220003  2.3833492671780001  7.5523647328220003
  2.3833492671780001  2.3833492671780001  2.3833492671780001
  4.9678570000000004  4.9678570000000004  2.2908080269819999
  4.9678570000000004  7.6449059730180009  4.9678570000000004
  2.2908080269819999  4.9678570000000004  4.9678570000000004
  4.9678570000000004  2.2908080269819999  4.9678570000000004
  7.6449059730180009  4.9678570000000004  4.9678570000000004
  4.9678570000000004  4.9678570000000004  7.6449059730180009
  0.0000000000000000  7.2586650269820003  0.0000000000000000
  0.0000000000000000  0.0000000000000000  2.6770489730180000
  7.2586650269820003  0.0000000000000000  0.0000000000000000
  0.0000000000000000  0.0000000000000000  7.2586650269820003
  2.6770489730180000  0.0000000000000000  0.0000000000000000
  0.0000000000000000  2.6770489730180000  0.0000000000000000
  5.0755303326180004  7.2648152339480010  2.4896812784060001
  2.6708987660520003  7.4460327215940003  5.0755303326180004
  2.4896812784060001  4.8601836673820005  2.6708987660520003
  4.8601836673820005  2.6708987660520003  2.4896812784060001
  7.2648152339480010  2.4896812784060001  5.0755303326180004
  7.4460327215940003  5.0755303326180004  2.6708987660520003
  5.0755303326180004  2.6708987660520003  7.4460327215940003
  2.6708987660520003  2.4896812784060001  4.8601836673820005
  2.4896812784060001  5.0755303326180004  7.2648152339480010
  4.8601836673820005  7.2648152339480010  7.4460327215940003
  7.2648152339480010  7.4460327215940003  4.8601836673820005
  7.4460327215940003  4.8601836673820005  7.2648152339480010
  0.1076733326180000  7.4575382784060009  2.2969582339480001
  7.6387557660520002  0.1076733326180000  2.4781757215940003
  7.4575382784060009  7.6387557660520002  9.8280406673820018
  9.8280406673820018  7.4575382784060009  7.6387557660520002
  2.2969582339480001  0.1076733326180000  7.4575382784060009
  2.4781757215940003  7.6387557660520002  0.1076733326180000
  0.1076733326180000  2.4781757215940003  7.6387557660520002
  7.6387557660520002  9.8280406673820018  7.4575382784060009
  7.4575382784060009  2.2969582339480001  0.1076733326180000
  9.8280406673820018  2.4781757215940003  2.2969582339480001
  2.2969582339480001  9.8280406673820018  2.4781757215940003
  2.4781757215940003  2.2969582339480001  9.8280406673820018
  4.9678570000000004  4.9678570000000004  4.9678570000000004
  0.0000000000000000  0.0000000000000000  0.0000000000000000
  4.9678570000000004  0.0000000000000000  2.4839285000000002
  0.0000000000000000  7.4517855000000006  4.9678570000000004
  2.4839285000000002  4.9678570000000004  0.0000000000000000
  0.0000000000000000  2.4839285000000002  4.9678570000000004
  7.4517855000000006  4.9678570000000004  0.0000000000000000
  4.9678570000000004  0.0000000000000000  7.4517855000000006
  3.7943100766040003  6.1414039233960009  3.7943100766040003
  6.1414039233960009  3.7943100766040003  3.7943100766040003
  3.7943100766040003  3.7943100766040003  6.1414039233960009
  6.1414039233960009  6.1414039233960009  6.1414039233960009
  8.7621670766039994  8.7621670766039994  1.1735469233960001
  1.1735469233960001  8.7621670766039994  8.7621670766039994
  8.7621670766039994  1.1735469233960001  8.7621670766039994
  1.1735469233960001  1.1735469233960001  1.1735469233960001
  3.8029541477840003  8.7273722061760015  1.3248380404739999
  1.2083417938240002  8.6108759595260000  3.8029541477840003
  1.3248380404739999  6.1327598522160010  1.2083417938240002
  6.1327598522160010  1.2083417938240002  1.3248380404739999
  8.7273722061760015  1.3248380404739999  3.8029541477840003
  8.6108759595260000  3.8029541477840003  1.2083417938240002
  3.8029541477840003  1.2083417938240002  8.6108759595260000
  1.2083417938240002  1.3248380404739999  6.1327598522160010
  1.3248380404739999  3.8029541477840003  8.7273722061760015
  6.1327598522160010  8.7273722061760015  8.6108759595260000
  8.7273722061760015  8.6108759595260000  6.1327598522160010
  8.6108759595260000  6.1327598522160010  8.7273722061760015
  8.7708111477840003  6.2926950404740012  3.7595152061760002
  6.1761987938239997  8.7708111477840003  3.6430189595260005
  6.2926950404740012  6.1761987938239997  1.1649028522160001
  1.1649028522160001  6.2926950404740012  6.1761987938239997
  3.7595152061760002  8.7708111477840003  6.2926950404740012
  3.6430189595260005  6.1761987938239997  8.7708111477840003
  8.7708111477840003  3.6430189595260005  6.1761987938239997
  6.1761987938239997  1.1649028522160001  6.2926950404740012
  6.2926950404740012  3.7595152061760002  8.7708111477840003
  1.1649028522160001  3.6430189595260005  3.7595152061760002
  3.7595152061760002  1.1649028522160001  3.6430189595260005
  3.6430189595260005  3.7595152061760002  1.1649028522160001
