Rb Er O 
 1.0000000000000000
     6.5709239999999998   -1.7166930000000000    0.0036330000000000
     6.5709239999999998    1.7166930000000000    0.0036330000000000
     6.1208030000000004    0.0000000000000000    2.9427650000000001
 Rb  Er  O  
   1   1   2
Cartesian
  0.0000000000000000  0.0000000000000000  0.0000000000000000
  9.6313254999999991  0.0000000000000000  1.4750155000000000
 14.9343333202999986 -0.0000000000000001  2.2871590343000001
  4.3283176797000005 -0.0000000000000000  0.6628719657000001
