Zn Au
 1.0000000000000000
     3.1500530000000002    0.0000000000000000    0.0000000000000000
     0.0000000000000000    3.1500530000000002    0.0000000000000000
     0.0000000000000000    0.0000000000000000    3.1500530000000002
 Zn  Au 
   1   1
Cartesian
  1.5750265000000001  1.5750265000000001  1.5750265000000001
  0.0000000000000000  0.0000000000000000  0.0000000000000000
