Si P  Ru
 1.0000000000000000
     4.5975239999999999   -0.0000640000000000    1.8324009999999999
     1.8354910000000000    5.3212000000000002    0.4403920000000000
     0.0002350000000000   -0.0014940000000000    6.1758490000000004
 Si  P   Ru 
   4   4   1
Cartesian
  4.5036367572009999  4.1243521401360006  2.9684378553360000
  1.7201976652559998  1.8286129875060000  3.2562853055110001
  2.7457474467139997  3.1616097562740002  6.3575087968280002
  5.6647405611579993  5.1723786903880002  6.2303227410649997
  0.7679423302110001  0.0859289602020000  2.2733434999510003
  3.6051353916460003  2.1895138066039999  2.0783884979770000
  4.7073318020360002  3.4176875461100007  5.1683495883879997
  1.9909436533590001  1.2115152664780000  5.4081546820600011
  6.4267094688220006  5.3097723874499998  8.4417396855910010
