Zn Cu Ge S 
 1.0000000000000000
     4.7989680000000003   -0.0000000000000000   -2.1743850000000000
    -0.9852010000000000    4.6967509999999999   -2.1743850000000000
     0.0415210000000000    0.0511330000000000    6.4746020000000000
 Zn  Cu  Ge  S  
   1   2   1   4
Cartesian
  0.0000000000000000  0.0000000000000000  0.0000000000000000
  3.3736862500000004  1.1997542500000000  1.0629160000000000
  0.4816017500000001  3.5481297500000002  1.0629160000000000
  1.9068835000000002  2.3483754999999999 -2.1743850000000000
  3.3290142375490004  4.0997653542370003 -2.1348620225660002
  2.8563694841390004  0.6481186457629999  3.2049409552810002
  1.4772739946019999  1.8193001769459998 -0.0233558879960000
  0.0479182837100001  2.9285838230539998  3.2049409552810002
