La Si
 1.0000000000000000
     4.2064170000000001   -0.0000000000000000   -1.2504440000000001
    -0.3717210000000000    4.1899610000000003   -1.2504440000000001
    -0.0659220000000000   -0.0720300000000000    7.4785310000000003
 La  Si 
   2   4
Cartesian
  3.4318087499999996  2.6007181250000002 -0.0060332500000002
  0.3369652500000000  1.5172128750000000  4.9836762500000003
  2.5718956915620002  3.9591980940370002  4.8015684039890001
  1.8320431915620001  0.8527423440370001  2.3127469039889998
  1.9367308084379997  3.2651886559630001  2.6648960960110002
  1.1968783084379999  0.1587329059630000  0.1760745960109999
