Ca Tl
 1.0000000000000000
     7.3758390000000000   -0.0000010000000000    0.0000000000000000
    -3.6879209999999998    6.3876660000000003    0.0000000000000000
     0.0000000000000000    0.0000000000000000    5.5686980000000004
 Ca  Tl 
   6   2
Cartesian
  0.0000068468550001  2.2526485645670005  1.3921745000000001
  1.7370789194639999  5.2613345945410002  1.3921745000000001
 -1.7370666387989999  5.2613350655580007  1.3921745000000001
  3.6879111531450004  4.1350164354330001  4.1765179313020004
  1.9508390805360001  1.1263304054590002  4.1765179313020004
  5.4249883267199994  1.1263235467760002  4.1765179313020004
 -0.0000046879200000  4.2584457958890001  4.1765179313020004
  3.6879226879200000  2.1292192041110001  1.3921745000000001
