Tl V  Se
 1.0000000000000000
    -3.9193680000000000   -3.9193680000000000    3.9193680000000000
    -3.9193680000000000    3.9193680000000000   -3.9193680000000000
     3.9193680000000000   -3.9193680000000000   -3.9193680000000000
 Tl  V   Se 
   3   1   4
Cartesian
 -3.9193680000000000  0.0000000000000000  0.0000000000000000
  0.0000000000000000 -3.9193680000000000  0.0000000000000000
  0.0000000000000000  0.0000000000000000 -3.9193680000000000
  0.0000000000000000  0.0000000000000000  0.0000000000000000
 -2.6016216072480001 -2.6016216072480001 -2.6016216072479996
 -1.3177463927520001 -1.3177463927520001  1.3177463927520001
 -1.3177463927520001  1.3177463927520001 -1.3177463927520001
  1.3177463927520001 -1.3177463927520001 -1.3177463927520001
