Ce Si Os
 1.0000000000000000
     4.2184210000000002    0.0000000000000000    0.0000000000000000
     0.0000000000000000    4.2184210000000002    0.0000000000000000
     0.0000000000000000    0.0000000000000000    6.9292400000000001
 Ce  Si  Os 
   2   2   2
Cartesian
  1.0546052500000000  1.0546052500000000  4.7129017982799999
  3.1638157500000004  3.1638157500000004  2.2163382017200002
  1.0546052500000000  1.0546052500000000  1.2242026892800000
  3.1638157500000004  3.1638157500000004  5.7050373107199999
  3.1638157500000004  1.0546052500000000  0.0000000000000000
  1.0546052500000000  3.1638157500000004  0.0000000000000000
