Sn S 
 1.0000000000000000
     3.7634729999999998    0.0000000000000000    0.0000000000000000
     0.0000000000000000    9.1177940000000000    0.0000000000000000
     0.0000000000000000    0.0000000000000000   14.4736519999999995
 Sn  S  
   8  12
Cartesian
  2.8226047500000000  7.6664873756379999  0.7378812526120000
  0.9408682500000000  1.4513066243620001 13.7357707473879991
  2.8226047500000000  3.1075903756379999  6.4989447473880002
  0.9408682500000000  6.0102036243620001  7.9747072526120002
  2.8226047500000000  4.2850167038280000 12.0932717711239999
  0.9408682500000000  4.8327772961719999  2.3803802288760001
  2.8226047500000000  8.8439137038279991  9.6172062288760003
  0.9408682500000000  0.2738802961720000  4.8564457711239992
  2.8226047500000000  8.9280344712719995 12.9686237704320000
  0.9408682500000000  0.1897595287280000  1.5050282295679998
  2.8226047500000000  4.3691374712720004  8.7418542295679984
  0.9408682500000000  4.7486565287280005  5.7317977704319993
  2.8226047500000000  3.0344018431999999  0.0252709963920000
  0.9408682500000000  6.0833921568000004 14.4483810036079987
  2.8226047500000000  7.5932988431999995  7.2115550036079998
  0.9408682500000000  1.5244951567999998  7.2620969963919997
  2.8226047500000000  6.5620854595939999  3.0036446312999998
  0.9408682500000000  2.5557085404060000 11.4700073687000010
  2.8226047500000000  2.0031884595939999  4.2331813686999995
  0.9408682500000000  7.1146055404060000 10.2404706312999991
