Ca In Pd
 1.0000000000000000
     4.4203200000000002   -0.0002370000000000    0.0000190000000000
    -0.0002940000000000    7.3100420000000002    0.0000140000000000
     0.0000570000000000    0.0000130000000000    8.4303620000000006
 Ca  In  Pd 
   4   4   4
Cartesian
  3.3149431270860004  3.8961573633200004  1.4972540027080001
  1.1050111424669999  7.0686505127029999  5.7124400101120001
  3.3150806988180004  0.2411528667520000  2.7179634202600003
  1.1051310319229999  3.4136679471830003  6.9331325669060000
  1.1049872882279999  2.5965976376990003  3.6950205268570002
  1.1048365046549999  6.2515845008220001  0.5201784887630000
  3.3152464947570000  1.0582481192620001  7.9102165112650002
  3.3151001324430007  4.7132130520350000  4.7353829035099997
  1.1049662401170000  1.6911571851970000  1.0800300949240000
  3.3151034980980003  5.6186827456530004  7.3503733354230008
  3.3152719633680006  1.9637097449629999  5.2952464087609998
  1.1048154580710001  5.3460790146189998  3.1351401608400002
