Li Ca Tl
 1.0000000000000000
     0.0000000000000000    3.8426779999999998    3.8426779999999998
     3.8426779999999998    0.0000000000000000    3.8426779999999998
     3.8426779999999998    3.8426779999999998    0.0000000000000000
 Li  Ca  Tl 
   1   2   1
Cartesian
  1.9213313146439999  1.9213313146439999  1.9213313146439999
  3.8426779999999998  3.8426779999999998  3.8426779999999998
  0.0000000000000000  0.0000000000000000  0.0000000000000000
  5.7640093146439995  5.7640093146439995  5.7640093146439995
