Co S 
 1.0000000000000000
     5.8010279999999996    0.0000570000000000    3.3492020000000000
     1.9336190000000000    5.4692769999999999    3.3492000000000002
    -0.0000000000000000   -0.0000040000000000    6.6984069999999996
 Co  S  
   6   8
Cartesian
  4.8341426696340006  5.4691831763950001  8.3730011508600004
  6.7677330808120004  2.7347591300500000  8.3730054999910006
  3.8673080307059999  2.7346560612799999  3.3492746824870001
  3.8673118981150001  2.7346485921479999  6.6983308175350000
  0.9669642974469999  0.6837811058090000  1.6745910772919999
  6.7679998230800003  4.7857731370490004 11.7222179225029990
  5.7054468897429995  4.0344895590940002  9.8822633333449996
  2.0290589528209999  1.4347511288029999  6.5330454639459994
  2.9004037467779997  3.8995974654400003  5.0238023610239999
  4.6433057575509995  1.4347020489140001  5.0238032624150000
  4.8341040254719996  1.5700278731480000  8.3730066388499989
  3.0915578168400000  4.0343708980999997  8.3730057376700007
  2.0290589528209999  1.4347529313149998  3.5145557143499997
  5.7054468897429995  4.0344913616180005  6.8637534885280003
