Pm Dy Mg
 1.0000000000000000
     0.0000000000000000    3.8252109999999999    3.8252109999999999
     3.8252109999999999    0.0000000000000000    3.8252109999999999
     3.8252109999999999    3.8252109999999999    0.0000000000000000
 Pm  Dy  Mg 
   1   1   2
Cartesian
  5.7378241504220000  5.7378241504220000  5.7378241504220000
  1.9126055000000000  1.9126055000000000  1.9126055000000000
  0.0000000000000000  0.0000000000000000  0.0000000000000000
  3.8252109999999999  3.8252109999999999  3.8252109999999999
