Ce Pd Pb
 1.0000000000000000
     7.9730309999999998    0.0006410000000000    0.0000000000000000
     0.0006410000000000    7.9730309999999998    0.0000000000000000
     0.0000000000000000    0.0000000000000000    3.8244319999999998
 Ce  Pd  Pb 
   4   4   2
Cartesian
  5.4106771085759995  1.4244821085759998  1.9122159999999999
  1.4236711486499998  2.5631648513499998  1.9122159999999999
  6.5500008513500001  5.4105071486499998  1.9122159999999999
  2.5629948914240002  6.5491898914239997  1.9122159999999999
  3.0032168621799995  0.9836191378200000  0.0000000000000000
  0.9843433878479999  4.9705383878479994  0.0000000000000000
  4.9704551378199993  6.9900528621799998  0.0000000000000000
  6.9893286121519997  3.0031336121519998  0.0000000000000000
  0.0000000000000000  0.0000000000000000  0.0000000000000000
  3.9868359999999998  3.9868359999999998  0.0000000000000000
