Na Br O 
 1.0000000000000000
     4.5331299999999999    0.0000000000000000    0.0000000000000000
     0.0000000000000000    4.5331299999999999    0.0000000000000000
     0.0000000000000000    0.0000000000000000    4.5331299999999999
 Na  Br  O  
   3   1   1
Cartesian
  0.0000000000000000  2.2665649999999999  2.2665649999999999
  2.2665649999999999  0.0000000000000000  2.2665649999999999
  2.2665649999999999  2.2665649999999999  0.0000000000000000
  0.0000000000000000  0.0000000000000000  0.0000000000000000
  2.2665649999999999  2.2665649999999999  2.2665649999999999
