Li In
 1.0000000000000000
     0.0000000000000000    0.0000000000000000   -4.6795140000000002
    -4.6932720000000003    0.0000000000000000    0.0000000000000000
     2.3466360000000002    5.0298429999999996    0.0000000000000000
 Li  In 
   4   2
Cartesian
 -2.3466383466360003  2.5889054606869997 -3.5096354999999999
  0.0000023466359999  2.4409375393129995 -1.1698785000000000
  0.0000023466360000  4.1299789380849994 -3.5096354999999999
 -2.3466383466360003  0.8998640619150000 -1.1698785000000000
 -0.0000000000000000  0.8783111846599999 -3.5096354999999999
 -2.3466360000000006  4.1515318153399994 -1.1698785000000000
