Ti Mn Os
 1.0000000000000000
    -0.0000010000000000    3.0490610000000000    3.0490550000000001
     3.0490580000000000    0.0000000000000000    3.0490539999999999
     3.0490560000000002    3.0490560000000002    0.0000020000000000
 Ti  Mn  Os 
   2   1   1
Cartesian
  0.0000000000000000  0.0000000000000000  0.0000000000000000
  3.0490534509420000  3.0490585000000001  3.0490524509460002
  1.5245312990589999  1.5245262009389999  1.5245277499990000
  4.5735817009430004  4.5735877500050002  4.5735862990529998
