Zn Ag Au
 1.0000000000000000
     3.8504969999999998    0.0000000000000000    2.2230850000000002
     1.2834989999999999    3.6302819999999998    2.2230850000000002
     0.0000000000000000    0.0000000000000000    4.4461690000000003
 Zn  Ag  Au 
   2   1   1
Cartesian
  3.8504969999999998  2.7227115000000000  6.6692542500000007
  1.2834989999999999  0.9075704999999999  2.2230847499999999
  0.0000000000000000  0.0000000000000000  0.0000000000000000
  2.5669979999999999  1.8151409999999999  4.4461694999999999
