Li Er Tl
 1.0000000000000000
     0.0000000000000000    3.6172380000000000    3.6172380000000000
     3.6172380000000000    0.0000000000000000    3.6172380000000000
     3.6172380000000000    3.6172380000000000    0.0000000000000000
 Li  Er  Tl 
   1   1   2
Cartesian
  5.4258569999999997  5.4258569999999997  5.4258569999999997
  1.8086190000000000  1.8086190000000000  1.8086190000000000
  0.0000000000000000  0.0000000000000000  0.0000000000000000
  3.6172307655240004  3.6172307655240004  3.6172307655240004
