Na Zr Cu S 
 1.0000000000000000
     1.8702310000000000    6.8722779999999997    0.0000000000000000
    -1.8702310000000000    6.8722779999999997    0.0000000000000000
     0.0000000000000000    2.6931940000000001    6.5580020000000001
 Na  Zr  Cu  S  
   2   1   2   4
Cartesian
  0.0000000000000001 13.3476865833359994  3.6698185711880003
 -0.0000000000000000  3.0900634166640000  2.8881834288120003
  0.0000000000000000  0.0000000000000000  0.0000000000000000
 -0.0000000000000000  7.0719677504699998  6.4686885707619997
  0.0000000000000001  9.3657822495299996  0.0893134292380000
  0.0000000000000000 11.4797603439820008  1.3192011243180000
 -0.0000000000000000  4.9579896560179995  5.2388008756820001
 -0.0000000000000000  8.7596575970119996  4.9264891464360003
  0.0000000000000000  7.6780924029879998  1.6315128535640000
