Li Cd Au
 1.0000000000000000
     0.0000000000000000    3.3058860000000001    3.3058860000000001
     3.3058860000000001    0.0000000000000000    3.3058860000000001
     3.3058860000000001    3.3058860000000001    0.0000000000000000
 Li  Cd  Au 
   1   2   1
Cartesian
  0.0000000000000000  0.0000000000000000  0.0000000000000000
  4.9588289999999997  4.9588289999999997  4.9588289999999997
  1.6529430000000001  1.6529430000000001  1.6529430000000001
  3.3058860000000001  3.3058860000000001  3.3058860000000001
