Pr Ag
 1.0000000000000000
     3.7632059999999998    0.0000000000000000    0.0000000000000000
     0.0000000000000000    3.7632059999999998    0.0000000000000000
     0.0000000000000000    0.0000000000000000    3.7632059999999998
 Pr  Ag 
   1   1
Cartesian
  1.8816029999999999  1.8816029999999999  1.8816029999999999
  0.0000000000000000  0.0000000000000000  0.0000000000000000
