Zn Ni Sb
 1.0000000000000000
     3.6044230000000002    0.0000000000000000    2.0810149999999998
     1.2014750000000001    3.3982839999999999    2.0810149999999998
     0.0000000000000000    0.0000000000000000    4.1620309999999998
 Zn  Ni  Sb 
   1   1   1
Cartesian
  1.2014745000000000  0.8495710000000000  2.0810152500000001
  0.0000000000000000  0.0000000000000000  0.0000000000000000
  3.6044235000000002  2.5487129999999998  6.2430457499999994
