Mn Al Rh
 1.0000000000000000
     3.6826430000000001    0.0000000000000000    2.1261749999999999
     1.2275480000000001    3.4720290000000000    2.1261749999999999
     0.0000000000000000    0.0000000000000000    4.2523499999999999
 Mn  Al  Rh 
   1   1   2
Cartesian
  2.4550955000000001  1.7360145000000000  4.2523499999999999
  0.0000000000000000  0.0000000000000000  0.0000000000000000
  1.2275477500000000  0.8680072500000000  2.1261749999999999
  3.6826432499999999  2.6040217500000002  6.3785249999999998
