Sn P  Pd
 1.0000000000000000
     3.9599820000000001    0.0000000000000000    0.0000000000000000
     0.0000000000000000    3.9599820000000001    0.0000000000000000
     0.0000000000000000    0.0000000000000000    6.9889919999999996
 Sn  P   Pd 
   1   1   5
Cartesian
  1.9799910000000001  1.9799910000000001  0.0000000000000000
  0.0000000000000000  0.0000000000000000  3.4944959999999998
  0.0000000000000000  1.9799910000000001  2.0916795037439999
  0.0000000000000000  1.9799910000000001  4.8973124962559993
  1.9799910000000001  0.0000000000000000  2.0916795037439999
  1.9799910000000001  0.0000000000000000  4.8973124962559993
  0.0000000000000000  0.0000000000000000  0.0000000000000000
