Lu Si Ir
 1.0000000000000000
     4.1487540000000003    0.0000000000000000    0.0000000000000000
     0.0000000000000000    6.6696020000000003    0.0000000000000000
     0.0000000000000000    0.0000000000000000    7.3744920000000000
 Lu  Si  Ir 
   4   4   4
Cartesian
  3.1115655000000002  3.3699164545299998  1.3869944553600000
  1.0371885000000001  6.6344865454700006  5.0742404553600000
  3.1115655000000002  0.0351154545300000  2.3002515446400000
  1.0371885000000001  3.2996855454700000  5.9874975446400001
  1.0371885000000001  4.7022161412440004  2.8451306350440002
  1.0371885000000001  1.3674151412440001  0.8421153649560000
  3.1115655000000002  1.9673858587560002  4.5293613649560003
  3.1115655000000002  5.3021868587560004  6.5323766350439998
  1.0371885000000001  5.6114563034960003  0.4710383020080000
  1.0371885000000001  2.2766553034960002  3.2162076979920000
  3.1115655000000002  4.3929466965040005  4.1582843020080000
  3.1115655000000002  1.0581456965039999  6.9034536979920000
