Y  Co Ge
 1.0000000000000000
     3.6883590000000002    0.0000000000000000   -1.3590290000000000
    -0.5007520000000000    3.6542089999999998   -1.3590290000000000
     0.0214710000000000    0.0246130000000000    5.7428290000000004
 Y   Co  Ge 
   1   2   2
Cartesian
  0.0000000000000000  0.0000000000000000  0.0000000000000000
  0.5572612500000000  2.7529632500000001  1.5123855000000002
  2.6518167500000001  0.9258587500000000  1.5123855000000002
  2.0101598641980001  2.3044068816220000 -0.2290576872290000
  1.1989181358020000  1.3744151183779998  3.2538286872290003
