Na F 
 1.0000000000000000
     4.6906390000000000    0.0000000000000000    0.0000000000000000
     0.0000000000000000    4.6906390000000000    0.0000000000000000
     0.0000000000000000    0.0000000000000000    4.6906390000000000
 Na  F  
   4   4
Cartesian
  0.0000000000000000  0.0000000000000000  0.0000000000000000
  0.0000000000000000  2.3453195000000000  2.3453195000000000
  2.3453195000000000  0.0000000000000000  2.3453195000000000
  2.3453195000000000  2.3453195000000000  0.0000000000000000
  2.3453195000000000  0.0000000000000000  0.0000000000000000
  2.3453195000000000  2.3453195000000000  2.3453195000000000
  0.0000000000000000  0.0000000000000000  2.3453195000000000
  0.0000000000000000  2.3453195000000000  0.0000000000000000
