Nb Zn Ru
 1.0000000000000000
     0.0000000000000000    3.0838690000000000    3.0838690000000000
     3.0838690000000000    0.0000000000000000    3.0838690000000000
     3.0838690000000000    3.0838690000000000    0.0000000000000000
 Nb  Zn  Ru 
   1   1   2
Cartesian
  1.5419345000000000  1.5419345000000000  1.5419345000000000
  4.6258035000000000  4.6258035000000000  4.6258035000000000
  0.0000000000000000  0.0000000000000000  0.0000000000000000
  3.0838751677380003  3.0838751677380003  3.0838751677380003
