Nb Pt
 1.0000000000000000
     4.8548239999999998    0.0000000000000000   -0.9094030000000000
     0.0000000000000000    5.6192960000000003    0.0000000000000000
    -0.0038260000000000    0.0000000000000000    9.4184110000000008
 Nb  Pt 
   4  12
Cartesian
  3.0115553315599994  1.4048240000000001  2.9940703541600002
  1.8394426684400000  4.2144720000000007  5.5149376458399999
  3.8168449482900000  1.4048240000000001  7.5024492662090001
  1.0341530517099999  4.2144720000000007  1.0065587337910002
  1.0078712341539999  1.4048240000000001  1.0180177094640002
  3.8431267658459998  4.2144720000000007  7.4909902905360006
  1.8964636239039998  1.4048240000000001  5.5255781713030006
  2.9545343760959999  4.2144720000000007  2.9834298286970005
  0.5786618193399999  0.0051922295040000  3.4149720144780003
  4.2723361806599991  2.8148402295040005  5.0940359855220008
  4.2723361806599991  5.6141037704960004  5.0940359855220008
  0.5786618193399999  2.8044557704960003  3.4149720144780003
  3.4392459772080000  0.0088560104960000  0.5118031205270001
  1.4117520227920000  2.8185040104960004  7.9972048794730011
  1.4117520227920000  5.6104399895040000  7.9972048794730011
  3.4392459772080000  2.8007919895039999  0.5118031205270001
