Np H 
 1.0000000000000000
    -1.7163580000000001    1.7163580000000001    3.1149610000000001
     1.7163580000000001   -1.7163580000000001    3.1149610000000001
     1.7163580000000001    1.7163580000000001   -3.1149610000000001
 Np  H  
   1   3
Cartesian
  0.0000000000000000  0.0000000000000000  0.0000000000000000
 -0.0000000000000000  1.7163614327160002  1.5574867299219999
  1.7163614327159999  0.0000000000000001  1.5574867299219999
  0.0000000000000000  0.0000000000000000  3.1149610000000001
