Hf Re
 1.0000000000000000
     5.2837660000000000    0.0000000000000000    0.0000000000000000
    -2.6418830000000000    4.5758760000000001    0.0000000000000000
     0.0000000000000000    0.0000000000000000    8.6494499999999999
 Hf  Re 
   4   8
Cartesian
 -0.0000026418830000  3.0505855252920000  0.5383850152500000
  2.6418856418829999  1.5252904747080001  4.8631100152500002
  2.6418856418829999  1.5252904747080001  8.1110649847499996
 -0.0000026418830000  3.0505855252920000  3.7863399847500001
  0.0000000000000000  0.0000000000000000  0.0000000000000000
  0.0000000000000000  0.0000000000000000  4.3247249999999999
  2.6418803581170005  3.0014314653000000  2.1623625000000000
 -1.2783701973379999  3.7886514447119999  6.4870874999999995
  1.2783754811040000  3.7886514447119999  6.4870874999999995
  1.3635075188960000  0.7872245552879999  2.1623625000000000
  3.9202531973380004  0.7872245552879999  2.1623625000000000
  0.0000026418829999  1.5744445347000000  6.4870874999999995
