Ba Pd F 
 1.0000000000000000
     5.5774809999999997   -0.0000000000000000   -2.7152539999999998
    -1.3218529999999999    5.4185790000000003   -2.7152539999999998
    -0.0460580000000000   -0.0586420000000000    6.9914509999999996
 Ba  Pd  F  
   2   2   8
Cartesian
  3.1686920000000001  4.0346132499999996 -0.5771554999999999
  1.0408780000000000  1.3253237500000001  2.1380984999999999
  2.7887404999999998  0.0000000000000000 -1.3576269999999999
 -0.6609265000000000  2.7092895000000001 -1.3576269999999999
  4.7649849622740001  2.5163006248900004 -2.1062333278870002
  3.6539922820539994  1.1017041096640001  2.6976894566790004
 -0.5554149622740000  2.8436363751100000  3.6671763278869998
  1.1012369107319999  0.1343468751100000  4.5400598922829998
  0.5555777179459997  4.2582328903360009 -1.1367464566790000
  2.2122295909520000  1.5489433903359999 -0.2638628922830004
  3.1083330892679997  5.2255901248900001 -2.9791168922830003
  1.9973404090479998  3.8109936096640000  1.8248058922830004
