Sc B 
 1.0000000000000000
     3.1454100000000000    0.0000000000000000    0.0000000000000000
    -1.5727059999999999    2.7240050000000000    0.0000000000000000
     0.0000000000000000    0.0000000000000000    3.5353970000000001
 Sc  B  
   1   2
Cartesian
  0.0000000000000000  0.0000000000000000  0.0000000000000000
  1.5727062393720002  0.9080007586650000  1.7676985000000001
 -0.0000022393719999  1.8160042413349999  1.7676985000000001
