Dy Mn Si
 1.0000000000000000
     3.6563599999999998   -0.0000000000000000   -1.2838339999999999
    -0.4507850000000000    3.6284660000000000   -1.2838339999999999
     0.0225360000000000    0.0255100000000000    5.9127609999999997
 Dy  Mn  Si 
   1   2   2
Cartesian
  0.0000000000000000  0.0000000000000000  0.0000000000000000
  0.5872692500000001  2.7341044999999999  1.6725464999999999
  2.6408417499999999  0.9198715000000000  1.6725464999999999
  1.9841046237990001  2.2458550797199996 -0.1978473492909998
  1.2440063762010001  1.4081209202800000  3.5429403492910003
