Na Nb Se
 1.0000000000000000
     3.5745049999999998    0.0000000000000000    0.0000000000000000
    -1.7872520000000001    3.0956120000000000    0.0000000000000000
     0.0000000000000000    0.0000000000000000   14.8099589999999992
 Na  Nb  Se 
   2   2   4
Cartesian
  0.0000000000000000  0.0000000000000000  0.0000000000000000
  0.0000000000000000  0.0000000000000000  7.4049794999999996
  0.0000000000000000  0.0000000000000000  3.7024897499999998
  0.0000000000000000  0.0000000000000000 11.1074692499999994
 -0.0000014539190000  2.0637423652039999  2.0560369880520000
 -0.0000014539190000  2.0637423652039999  5.3489425119479996
  1.7872544539190001  1.0318696347959999  9.4610164880519996
  1.7872544539190001  1.0318696347959999 12.7539220119479992
