Ba Nb O 
 1.0000000000000000
     4.2116140000000000    0.0000000000000000    0.0000000000000000
     0.0000000000000000    4.2116140000000000    0.0000000000000000
     0.0000000000000000    0.0000000000000000   12.3366530000000001
 Ba  Nb  O  
   2   5   9
Cartesian
  0.0000000000000000  0.0000000000000000 10.2537941907450012
  0.0000000000000000  0.0000000000000000  2.0828588092550002
  2.1058070000000000  2.1058070000000000  0.0000000000000000
  2.1058070000000000  2.1058070000000000  8.1706639751240004
  2.1058070000000000  2.1058070000000000  4.1659890248759996
  2.1058070000000000  0.0000000000000000  6.1683265000000000
  0.0000000000000000  2.1058070000000000  6.1683265000000000
  0.0000000000000000  2.1058070000000000  0.0000000000000000
  2.1058070000000000  0.0000000000000000  0.0000000000000000
  2.1058070000000000  2.1058070000000000 10.3494896080659995
  2.1058070000000000  2.1058070000000000  1.9871633919339999
  0.0000000000000000  2.1058070000000000  8.3034063614040008
  2.1058070000000000  0.0000000000000000  8.3034063614040008
  0.0000000000000000  2.1058070000000000  4.0332466385960002
  0.0000000000000000  0.0000000000000000  6.1683265000000000
  2.1058070000000000  0.0000000000000000  4.0332466385960002
