Cu Pt
 1.0000000000000000
     3.7332139999999998    0.0000000000000000    0.0000000000000000
     0.0000000000000000    3.7332139999999998    0.0000000000000000
     0.0000000000000000    0.0000000000000000    3.7332139999999998
 Cu  Pt 
   3   1
Cartesian
  0.0000000000000000  1.8666069999999999  1.8666069999999999
  1.8666069999999999  1.8666069999999999  0.0000000000000000
  1.8666069999999999  0.0000000000000000  1.8666069999999999
  0.0000000000000000  0.0000000000000000  0.0000000000000000
