Ca La Mg
 1.0000000000000000
     0.0000000000000000    3.9711560000000001    3.9711560000000001
     3.9711560000000001    0.0000000000000000    3.9711560000000001
     3.9711560000000001    3.9711560000000001    0.0000000000000000
 Ca  La  Mg 
   1   1   2
Cartesian
  1.9855859423119999  1.9855859423119999  1.9855859423119999
  5.9567419423120000  5.9567419423120000  5.9567419423120000
  0.0000000000000000  0.0000000000000000  0.0000000000000000
  3.9711560000000001  3.9711560000000001  3.9711560000000001
