Mg Pt O 
 1.0000000000000000
     3.1941600000000001    0.0000000000000000    0.0000000000000000
     0.0000000000000000    5.7783420000000003   -1.9653769999999999
     0.0000000000000000   -0.0029540000000000    6.1034360000000003
 Mg  Pt  O  
   1   3   6
Cartesian
  0.0000000000000000  2.8876940000000002  2.0690295000000001
  1.5970800000000001  2.8891710000000002 -0.9826885000000000
  0.0000000000000000  0.0000000000000000  0.0000000000000000
  1.5970800000000001 -0.0014770000000000  3.0517180000000002
  0.0000000000000000  5.2801894679920007  2.2302780991490003
  0.0000000000000000  0.4951985320080001  1.9077809008510000
  0.0000000000000000  3.8096937052080007  4.2826129609510000
  0.0000000000000000  1.9656942947920000 -0.1445539609510000
  1.5970800000000001  2.0332357950879998  3.2615758549609999
  1.5970800000000001  3.7421522049120002  0.8764831450390003
