Ca In Sb
 1.0000000000000000
     4.5940719999999997    0.0000000000000000    0.0000000000000000
     0.0000000000000000   12.1839949999999995    0.0000000000000000
     0.0000000000000000    0.0000000000000000   14.3310399999999998
 Ca  In  Sb 
  10   4  12
Cartesian
  0.0000000000000000  8.2556435160949988 14.1315232611199999
  0.0000000000000000 10.0203489839050004  6.9660032611200000
  0.0000000000000000  4.9857760419649999 10.7197182372800004
  0.0000000000000000 11.0777735419649996 10.7768417627200002
  0.0000000000000000  7.1982189580349996  3.6113217627200003
  0.0000000000000000  2.1636460160950000  7.3650367388799998
  0.0000000000000000  1.1062214580349998  3.5541982372800001
  0.0000000000000000  0.0000000000000000  0.0000000000000000
  0.0000000000000000  3.9283514839049998  0.1995167388800000
  0.0000000000000000  6.0919974999999997  7.1655199999999999
  2.2970359999999999  8.0840806824999998 11.2736702574400010
  2.2970359999999999  1.9920831825000000 10.2228897425599996
  2.2970359999999999 10.1919118174999994  4.1081502574400002
  2.2970359999999999  4.0999143174999997  3.0573697425600002
  2.2970359999999999 11.7403026380799993  8.5333747748799986
  2.2970359999999999 10.3462708501549994 12.9909157875199988
  0.0000000000000000  8.0647081304499988  9.6191230273599988
  2.2970359999999999  5.6483051380799996 12.9631852251200002
  2.2970359999999999  7.9297216498449998  5.8253957875199998
  2.2970359999999999  1.8377241498449999  1.3401242124799999
  2.2970359999999999  0.4436923619199999  5.7976652251200003
  0.0000000000000000  1.9727106304499999 11.8774369726400000
  0.0000000000000000 10.2112843695500004  2.4536030273599998
  2.2970359999999999  6.5356898619199999  1.3678547748800001
  2.2970359999999999  4.2542733501549996  8.5056442124800000
  0.0000000000000000  4.1192868695499998  4.7119169726400001
