Mg Zn
 1.0000000000000000
     8.5476770000000002    0.0000000000000000    0.0000000000000000
     0.0000000000000000    8.5476770000000002    0.0000000000000000
     0.0000000000000000    0.0000000000000000    8.5476770000000002
 Mg  Zn 
   6  33
Cartesian
  2.5740901901650002  0.0000000000000000  4.2738385000000001
  4.2738385000000001  2.5740901901650002  0.0000000000000000
  0.0000000000000000  4.2738385000000001  2.5740901901650002
  4.2738385000000001  5.9735868098350000  0.0000000000000000
  0.0000000000000000  4.2738385000000001  5.9735868098350000
  5.9735868098350000  0.0000000000000000  4.2738385000000001
  4.2738385000000001  4.2738385000000001  4.2738385000000001
  1.9667520962839999  0.0000000000000000  0.0000000000000000
  0.0000000000000000  1.9667520962839999  0.0000000000000000
  0.0000000000000000  0.0000000000000000  1.9667520962839999
  0.0000000000000000  6.5809249037160003  0.0000000000000000
  0.0000000000000000  0.0000000000000000  6.5809249037160003
  6.5809249037160003  0.0000000000000000  0.0000000000000000
  1.3689190192270000  4.2738385000000001  0.0000000000000000
  0.0000000000000000  1.3689190192270000  4.2738385000000001
  4.2738385000000001  0.0000000000000000  1.3689190192270000
  0.0000000000000000  7.1787579807729998  4.2738385000000001
  4.2738385000000001  0.0000000000000000  7.1787579807729998
  7.1787579807729998  4.2738385000000001  0.0000000000000000
  1.8659749844540001  1.8659749844540001  1.8659749844540001
  6.6817020155460005  6.6817020155460005  1.8659749844540001
  1.8659749844540001  6.6817020155460005  6.6817020155460005
  6.6817020155460005  1.8659749844540001  6.6817020155460005
  6.6817020155460005  6.6817020155460005  6.6817020155460005
  1.8659749844540001  1.8659749844540001  6.6817020155460005
  6.6817020155460005  1.8659749844540001  1.8659749844540001
  1.8659749844540001  6.6817020155460005  1.8659749844540001
  4.2738385000000001  2.0087382857080001  2.9264681744900001
  2.9264681744900001  4.2738385000000001  2.0087382857080001
  2.0087382857080001  2.9264681744900001  4.2738385000000001
  6.5389387142920006  5.6212088255100001  4.2738385000000001
  2.9264681744900001  4.2738385000000001  6.5389387142920006
  6.5389387142920006  2.9264681744900001  4.2738385000000001
  5.6212088255100001  4.2738385000000001  2.0087382857080001
  5.6212088255100001  4.2738385000000001  6.5389387142920006
  2.0087382857080001  5.6212088255100001  4.2738385000000001
  4.2738385000000001  6.5389387142920006  5.6212088255100001
  4.2738385000000001  2.0087382857080001  5.6212088255100001
  4.2738385000000001  6.5389387142920006  2.9264681744900001
