Sc B 
 1.0000000000000000
     4.5340740000000004    0.0000000000000000    2.6177489999999999
     1.5113589999999999    4.2747669999999998    2.6177489999999999
     0.0000000000000000    0.0000000000000000    5.2354989999999999
 Sc  B  
   1  12
Cartesian
  0.0000000000000000  0.0000000000000000  0.0000000000000000
  1.4873203510100002  2.1373834999999999  4.3490370673849998
  4.5581126489900008  2.1373834999999999  6.1219599326149998
  3.0227165000000000  2.1373834999999999  7.0084217038650003
  4.0463135940250003  0.6897977769550000  5.2354985000000003
  3.5345155549650000  3.5849692230449999  4.3490367287499998
  2.5109174450350000  0.6897977769550000  6.1219602712499999
  3.5345155549650000  3.5849692230449999  6.1219599326149998
  4.5581126489900008  2.1373834999999999  4.3490367287499998
  1.9991194059749999  3.5849692230449999  5.2354985000000003
  2.5109174450350000  0.6897977769550000  4.3490370673849998
  1.4873203510100002  2.1373834999999999  6.1219602712499999
  3.0227165000000000  2.1373834999999999  3.4625752961349998
