Co Mo P 
 1.0000000000000000
    -1.6470710000000000   -2.8528120000000001    0.0000000000000000
    -1.6470710000000000    2.8528120000000001    0.0000000000000000
     0.0000000000000000    0.0000000000000000  -11.1063550000000006
 Co  Mo  P  
   2   2   4
Cartesian
  0.0000000000000000  0.0000000000000000  0.0000000000000000
  0.0000000000000000  0.0000000000000000 -5.5531775000000003
  0.0000000000000000  0.0000000000000000 -8.3297662500000005
  0.0000000000000000  0.0000000000000000 -2.7765887500000002
 -1.6470710000000000 -0.9509392352080002 -9.8979058315150006
 -1.6470710000000000  0.9509392352080002 -1.2084491684850001
 -1.6470710000000000  0.9509392352080002 -4.3447283315150003
 -1.6470710000000000 -0.9509392352080002 -6.7616266684850004
