Ba Si
 1.0000000000000000
     6.7872659999999998    0.0000000000000000    0.0000000000000000
     0.0000000000000000    9.0269180000000002    0.0000000000000000
     0.0000000000000000    0.0000000000000000   11.6451539999999998
 Ba  Si 
   8  16
Cartesian
  1.6968164999999999  3.0757869047300002  4.7160428217660000
  5.0904495000000001  5.9511310952700001  6.9291111782339998
  1.6968164999999999  7.5892459047300003  1.1065341782339999
  5.0904495000000001  1.4376720952700000 10.5386198217659999
  1.6968164999999999  4.6444486070980009  9.4000032442620007
  5.0904495000000001  4.3824693929020002  2.2451507557379999
  1.6968164999999999  0.1309896070980000  8.0677277557379998
  5.0904495000000001  8.8959283929020003  3.5774262442620000
  6.2848182725520001  2.7528398863620001  7.4995839823860004
  2.8911852725520002  6.2740781136380006  4.1455700176140002
  3.8960807274479996  7.2662988863619997  9.9681470176139992
  0.5024477274479999  1.7606191136380001  1.6770069823859999
  0.5024477274479999  6.2740781136380006  4.1455700176140002
  3.8960807274479996  2.7528398863620001  7.4995839823860004
  2.8911852725520002  1.7606191136380001  1.6770069823859999
  6.2848182725520001  7.2662988863619997  9.9681470176139992
  5.0904495000000001  7.2296766800360004  0.3859669841760000
  1.6968164999999999  1.7972413199640001 11.2591870158240006
  5.0904495000000001  2.7162176800360003  5.4366100158239998
  1.6968164999999999  6.3107003199639999  6.2085439841759991
  5.0904495000000001  5.2867950650600006 10.6019228789099991
  1.6968164999999999  3.7401229349400000  1.0432311210900000
  5.0904495000000001  0.7733360650600000  6.8658081210900006
  1.6968164999999999  8.2535819349399997  4.7793458789099992
