Li Zn Ge
 1.0000000000000000
     4.2261150000000001    0.0000000000000000    0.0000000000000000
    -2.1130580000000001    3.6599230000000000    0.0000000000000000
     0.0000000000000000    0.0000000000000000    9.3355940000000004
 Li  Zn  Ge 
   3   3   3
Cartesian
 -0.0000024463910002  2.4399498866410001  1.5527426720500002
 -0.0000024463910002  2.4399498866410001  4.6677970000000002
 -0.0000024463910002  2.4399498866410001  7.7828513279500005
  0.0000000000000000  0.0000000000000000  6.5933846252219999
  0.0000000000000000  0.0000000000000000  2.7422093747780005
  2.1130594463910000  1.2199731133589999  0.0000000000000000
  2.1130594463910000  1.2199731133589999  3.4043737216040002
  2.1130594463910000  1.2199731133589999  5.9312202783960002
  0.0000000000000000  0.0000000000000000  0.0000000000000000
