Zr I  N 
 1.0000000000000000
     3.7551450000000002    0.0000000000000000    0.0000000000000000
     0.0000000000000000    4.1184900000000004    0.0000000000000000
     0.0000000000000000    0.0000000000000000    9.7043090000000003
 Zr  I   N  
   2   2   2
Cartesian
  0.9387862500000000  3.0888675000000001  8.8498737054770000
  2.8163587500000000  1.0296225000000001  0.8544352945230000
  2.8163587500000000  3.0888675000000001  6.5401511203869998
  0.9387862500000000  1.0296225000000001  3.1641578796130001
  0.9387862500000000  1.0296225000000001  9.4716190787979997
  2.8163587500000000  3.0888675000000001  0.2326899212020000
