Sm B  C 
 1.0000000000000000
     3.7355079999999998    0.0000000000000000    0.0000000000000000
     0.0000000000000000    5.3620859999999997    0.0000000000000000
     0.0000000000000000    0.0000000000000000    5.3620859999999997
 Sm  B   C  
   2   4   4
Cartesian
  0.0000000000000000  2.6810429999999998  2.6810429999999998
  0.0000000000000000  0.0000000000000000  0.0000000000000000
  1.8677539999999999  3.4164799053300001  0.7354369053299999
  1.8677539999999999  4.6266490946699994  3.4164799053300001
  1.8677539999999999  0.7354369053299999  1.9456060946699998
  1.8677539999999999  1.9456060946699998  4.6266490946699994
  1.8677539999999999  3.5470627856879999  4.4960662143120000
  1.8677539999999999  4.4960662143120000  1.8150232143120000
  1.8677539999999999  1.8150232143120000  0.8660197856880000
  1.8677539999999999  0.8660197856880000  3.5470627856879999
