Ag Bi O 
 1.0000000000000000
     6.0633330000000001    0.0000000000000000    0.0000000000000000
     0.0000000000000000    6.2857070000000004    0.0000000000000000
     0.0000000000000000    0.0000000000000000    9.6181929999999998
 Ag  Bi  O  
   8   4  12
Cartesian
  5.8828639565880003  4.7284482335779998  2.4259679658109996
  4.5240103979579995  0.0047897087340000  4.7650163214810002
  1.4923438979580002  3.1380637912660001  9.5741128214810001
  4.5709891020420006  3.1476432087340003  9.5741128214810001
  3.2121355434120002  1.5855947335779998  7.2350644658109999
  2.8511974565879998  4.7001122664220008  7.2350644658109999
  0.1804690434120000  1.5572587664220001  2.4259679658109996
  1.5393226020419999  6.2809172912660003  4.7650163214810002
  0.0000000000000000  0.0000000000000000  8.6330207273959996
  3.0316665000000000  3.1428535000000002  3.8239242273959997
  0.0000000000000000  3.1428535000000002  5.8243448621149998
  3.0316665000000000  0.0000000000000000  1.0152483621149999
  5.4070560260790002  1.3750172633710001  7.1695549532879994
  0.6562769739210000  4.9106897366290001  7.1695549532879994
  3.6879434739210004  4.5178707633710005  2.3604584532880000
  2.3753895260789997  1.7678362366290004  2.3604584532880000
  4.2193642947059997  5.1549837391839999  8.9734278140520001
  1.8439687052939999  1.1307232608160001  8.9734278140520001
  4.8756352052940004  2.0121302391840001  4.1643313140520002
  1.1876977947060001  4.2735767608160007  4.1643313140520002
  1.9751852947470001  1.9812234178650001  5.3606229230059999
  5.0068517947469999  1.1616300821350001  0.5515264230060000
  1.0564812052530002  5.1240769178650005  0.5515264230060000
  4.0881477052530002  4.3044835821350000  5.3606229230059999
