Sm N 
 1.0000000000000000
     3.0987000000000000    0.0000000000000000    1.7890360000000001
     1.0328999999999999    2.9214810000000000    1.7890360000000001
     0.0000000000000000    0.0000000000000000    3.5780699999999999
 Sm  N  
   1   1
Cartesian
  2.0657999999999999  1.4607405000000000  3.5780710000000000
  0.0000000000000000  0.0000000000000000  0.0000000000000000
