Tb Cr C 
 1.0000000000000000
     0.0000000000000000   -3.4009580000000001    0.0000000000000000
    -5.0037690000000001    1.7004790000000001    1.4080509999999999
    -0.0243040000000000    0.0000000000000000   -5.5645420000000003
 Tb  Cr  C  
   2   2   3
Cartesian
 -3.9744079964590000  0.0000017004789998 -2.6896649075130004
 -1.0536650035410000 -1.7004807004790001 -1.4668260924870000
 -1.5910905578430001 -0.0000051014369999 -4.5068603801970006
 -3.4369774383879999 -1.7004755990420000  0.3503679721459998
 -2.1401584444590003 -1.7004841014370000 -3.7041123963170004
 -2.8879145555410002  0.0000051014369999 -0.4523786036830002
  0.0000000000000000  0.0000000000000000  0.0000000000000000
