Pr Pt
 1.0000000000000000
     5.4038860000000000    0.0000000000000000    0.0000000000000000
    -2.7019430000000000    4.6799020000000002    0.0000000000000000
     0.0000000000000000    0.0000000000000000    4.4008089999999997
 Pr  Pt 
   1   5
Cartesian
  0.0000000000000000  0.0000000000000000  0.0000000000000000
 -0.0000027019430001  3.1199362266340001  0.0000000000000000
  2.7019457019430000  1.5599657733660000  0.0000000000000000
  2.7019430000000000  0.0000000000000000  2.2004044999999999
  1.3509715000000000  2.3399510000000001  2.2004044999999999
 -1.3509715000000000  2.3399510000000001  2.2004044999999999
