Ho Rh
 1.0000000000000000
     4.5753589999999997    0.0000000000000000    2.6415850000000001
     1.5251200000000000    4.3136900000000002    2.6415850000000001
     0.0000000000000000    0.0000000000000000    5.2831700000000001
 Ho  Rh 
   2   4
Cartesian
  0.7625598750000000  0.5392112500000000  1.3207925000000000
  5.3379191250000000  3.7744787500000001  9.2455475000000007
  2.2876794999999999  0.0000000000000000  3.9623775000000001
  0.7625600000000000  2.1568450000000001  3.9623775000000001
  3.0502395000000000  2.1568450000000001  5.2831700000000001
  3.0502395000000000  2.1568450000000001  2.6415850000000001
