Hf As
 1.0000000000000000
     3.7867020000000000    0.0000000000000000    0.0000000000000000
    -1.8933510000000000    3.2793800000000002    0.0000000000000000
     0.0000000000000000    0.0000000000000000   12.6822780000000002
 Hf  As 
   4   4
Cartesian
 -0.0000018933510002  2.1862544264600001  4.8582002334600007
  1.8933528933510002  1.0931255735400001 11.1993392334599999
  1.8933528933510002  1.0931255735400001  7.8240777665399994
 -0.0000018933510002  2.1862544264600001  1.4829387665400000
  1.8933528933510002  1.0931255735400001  3.1705695000000000
 -0.0000018933510002  2.1862544264600001  9.5117085000000010
  0.0000000000000000  0.0000000000000000  6.3411390000000001
  0.0000000000000000  0.0000000000000000  0.0000000000000000
