Na Se
 1.0000000000000000
     4.6485300000000001    0.0000000000000000    0.0000000000000000
    -2.3242650000000000    4.0257449999999997    0.0000000000000000
     0.0000000000000000    0.0000000000000000   10.7614490000000007
 Na  Se 
   4   4
Cartesian
  0.0000000000000000  0.0000000000000000  0.0000000000000000
  0.0000000000000000  0.0000000000000000  5.3807245000000004
 -0.0000023242650000  2.6838313419149999  2.6903622500000002
  2.3242673242650000  1.3419136580850000  8.0710867500000010
 -0.0000023242650000  2.6838313419149999  6.8481772085379999
  2.3242673242650000  1.3419136580850000  1.4674527085380003
  2.3242673242650000  1.3419136580850000  3.9132717914620003
 -0.0000023242650000  2.6838313419149999  9.2939962914620011
