Li Fe Rh
 1.0000000000000000
     0.0004220000000000    2.9433509999999998    2.9437289999999998
     2.9425750000000002    0.0014440000000000    2.9427059999999998
     2.9425640000000000    2.9423159999999999    0.0014550000000000
 Li  Fe  Rh 
   1   1   2
Cartesian
  4.4141707500000003  4.4153332499999998  4.4159174999999999
  1.4713873074250001  1.4717777485560000  1.4719695572939999
  0.0009457460990000  2.9434069501539999  2.9437614293789998
  2.9422596960540002  2.9434966079389997  2.9439125695980000
