Sc Ir
 1.0000000000000000
     7.4136850000000001    0.0000000000000000    0.0000000000000000
     0.0000000000000000    7.4136850000000001    0.0000000000000000
     0.0000000000000000    0.0000000000000000    7.4136850000000001
 Sc  Ir 
   8  16
Cartesian
  6.4869743750000000  2.7801318749999999  6.4869743750000000
  4.6335531249999997  0.9267106250000000  0.9267106250000000
  6.4869743750000000  6.4869743750000000  2.7801318749999999
  4.6335531249999997  4.6335531249999997  4.6335531249999997
  2.7801318749999999  2.7801318749999999  2.7801318749999999
  0.9267106250000000  0.9267106250000000  4.6335531249999997
  2.7801318749999999  6.4869743750000000  6.4869743750000000
  0.9267106250000000  4.6335531249999997  0.9267106250000000
  0.0000000000000000  5.5602637499999998  5.5602637499999998
  5.5602637499999998  0.0000000000000000  5.5602637499999998
  0.0000000000000000  0.0000000000000000  0.0000000000000000
  5.5602637499999998  5.5602637499999998  0.0000000000000000
  0.0000000000000000  1.8534212500000000  1.8534212500000000
  5.5602637499999998  3.7068425000000000  1.8534212500000000
  0.0000000000000000  3.7068425000000000  3.7068425000000000
  5.5602637499999998  1.8534212500000000  3.7068425000000000
  3.7068425000000000  5.5602637499999998  1.8534212500000000
  1.8534212500000000  0.0000000000000000  1.8534212500000000
  3.7068425000000000  0.0000000000000000  3.7068425000000000
  1.8534212500000000  5.5602637499999998  3.7068425000000000
  3.7068425000000000  1.8534212500000000  5.5602637499999998
  1.8534212500000000  3.7068425000000000  5.5602637499999998
  3.7068425000000000  3.7068425000000000  0.0000000000000000
  1.8534212500000000  1.8534212500000000  0.0000000000000000
