Hf S 
 1.0000000000000000
     3.5988840000000000    0.0000000000000000    0.0000000000000000
     0.0000000000000000    5.0901880000000004   -0.6693770000000000
     0.0000000000000000   -0.0104980000000000    9.1690900000000006
 Hf  S  
   2   6
Cartesian
  0.8997210000000000  1.4468433626999999  5.7812144318550009
  2.6991630000000000  3.6328466373000001  2.7184985681450002
  0.8997210000000000  4.4557546609220005  1.0476014508170002
  2.6991630000000000  0.6239353495760002  7.4521023800930006
  2.6991630000000000  1.2052437246740000  3.9495478082560007
  0.8997210000000000  3.8744462753260005  4.5501651917440000
  2.6991630000000000  2.6746993939179999  7.1836759234010001
  0.8997210000000000  2.4049906060820003  1.3160370765990002
