Ho B 
 1.0000000000000000
     3.2832550000000000    0.0000000000000000    0.0000000000000000
    -1.6416280000000001    2.8433830000000002    0.0000000000000000
     0.0000000000000000    0.0000000000000000    3.8249870000000001
 Ho  B  
   1   2
Cartesian
  0.0000000000000000  0.0000000000000000  0.0000000000000000
 -0.0000019749610001  1.8955896144610003  1.9124935000000001
  1.6416289749609998  0.9477933855390001  1.9124935000000001
