Cs Al O 
 1.0000000000000000
     4.9748749999999999    0.0000000000000000    2.8722460000000001
     1.6582920000000001    4.6903560000000004    2.8722460000000001
     0.0000000000000000    0.0000000000000000    5.7444899999999999
 Cs  Al  O  
   2   2   4
Cartesian
  4.1457293750000002  2.9314725000000004  7.1806137500000000
  2.4874376250000001  1.7588835000000000  4.3083682500000000
  5.8040211250000002  4.1040615000000003 10.0528592499999991
  0.8291458750000000  0.5862945000000001  1.4361227500000000
  0.8291460000000000  2.3451780000000002  1.4361230000000000
  2.4874375000000000  0.0000000000000000  1.4361230000000000
  0.0000000000000000  0.0000000000000000  0.0000000000000000
  0.0000000000000000  0.0000000000000000  2.8722449999999999
