Cs Na S 
 1.0000000000000000
     4.7993709999999998    0.0000000000000000    0.0000000000000000
     0.0000000000000000    4.7993709999999998    0.0000000000000000
     0.0000000000000000    0.0000000000000000    7.8770470000000001
 Cs  Na  S  
   2   2   2
Cartesian
  1.1998427500000000  1.1998427500000000  5.1157402971030006
  3.5995282499999997  3.5995282499999997  2.7613067028970000
  1.1998427500000000  3.5995282499999997  0.0000000000000000
  3.5995282499999997  1.1998427500000000  0.0000000000000000
  3.5995282499999997  3.5995282499999997  6.3780449559000001
  1.1998427500000000  1.1998427500000000  1.4990020441000000
