Pr Ir
 1.0000000000000000
     4.7066999999999997    0.0000000000000000    2.7174149999999999
     1.5688990000000000    4.4375190000000000    2.7174149999999999
     0.0000000000000000    0.0000000000000000    5.4348280000000004
 Pr  Ir 
   2   4
Cartesian
  0.7844498750000000  0.5546898750000000  1.3587072500000001
  5.4911491249999997  3.8828291249999998  9.5109507500000010
  0.7844495000000000  2.2187595000000000  4.0761215000000002
  2.3533499999999998  0.0000000000000000  4.0761215000000002
  3.1377994999999999  2.2187595000000000  2.7174149999999999
  3.1377994999999999  2.2187595000000000  5.4348290000000006
