Dy Cu
 1.0000000000000000
     3.4360780000000002    0.0000000000000000    0.0000000000000000
     0.0000000000000000    3.4360780000000002    0.0000000000000000
     0.0000000000000000    0.0000000000000000    3.4360780000000002
 Dy  Cu 
   1   1
Cartesian
  0.0000000000000000  0.0000000000000000  0.0000000000000000
  1.7180390000000001  1.7180390000000001  1.7180390000000001
