Sr
 1.0000000000000000
     4.7576570000000000    0.0000000000000000    0.0000000000000000
     0.0000000000000000    4.7576570000000000    0.0000000000000000
     0.0000000000000000    0.0000000000000000    4.7576570000000000
 Sr 
   2
Cartesian
  0.0000000000000000  0.0000000000000000  0.0000000000000000
  2.3788285000000000  2.3788285000000000  2.3788285000000000
