Ti Os
 1.0000000000000000
     3.0972270000000002    0.0000000000000000    0.0000000000000000
     0.0000000000000000    3.0972270000000002    0.0000000000000000
     0.0000000000000000    0.0000000000000000    3.0972270000000002
 Ti  Os 
   1   1
Cartesian
  1.5486135000000001  1.5486135000000001  1.5486135000000001
  0.0000000000000000  0.0000000000000000  0.0000000000000000
