Pr Co B 
 1.0000000000000000
     3.3821610000000000   -0.0000000000000000   -1.1522559999999999
    -0.3925590000000000    3.3593000000000002   -1.1522559999999999
     0.0318250000000000    0.0357620000000000    5.6332890000000004
 Pr  Co  B  
   1   2   2
Cartesian
  0.0000000000000000  0.0000000000000000  0.0000000000000000
  0.5670335000000000  2.5373559999999999  1.6643885000000003
  2.4543935000000001  0.8577060000000001  1.6643885000000003
  2.0031430638089995  2.2508547851700000  0.3398619257610002
  1.0182839361910001  1.1442072148300002  2.9889150742390003
