Ce Si H  Ru
 1.0000000000000000
     4.1747459999999998    0.0000000000000000    0.0000000000000000
     0.0000000000000000    4.1747459999999998    0.0000000000000000
     0.0000000000000000    0.0000000000000000    7.2304089999999999
 Ce  Si  H   Ru 
   2   2   2   2
Cartesian
  2.0873729999999999  0.0000000000000000  4.8416337049890004
  0.0000000000000000  2.0873729999999999  2.3887752950109999
  2.0873729999999999  0.0000000000000000  1.1784265196379999
  0.0000000000000000  2.0873729999999999  6.0519824803620006
  0.0000000000000000  0.0000000000000000  3.6152044999999999
  2.0873729999999999  2.0873729999999999  3.6152044999999999
  0.0000000000000000  0.0000000000000000  0.0000000000000000
  2.0873729999999999  2.0873729999999999  0.0000000000000000
