Pd F 
 1.0000000000000000
     5.1988009999999996   -0.0282840000000000   -1.5150859999999999
    -2.9079269999999999    4.3095569999999999   -1.5150859999999999
     0.0304920000000000    0.0569840000000000    5.5090899999999996
 Pd  F  
   2   8
Cartesian
  3.1637644160519991  1.0405625755540000  1.2706758319439999
  2.2672734160519994  4.2371673255540001 -2.9989551680559998
  2.8775926199110002  3.2093735527120000 -1.5854491676620002
  0.6685250197170000  3.4177461810939995  2.4443705526780000
 -0.7511950706360000  1.2920497935669999  1.2431072585599998
  3.0786977050289992  3.0576853276299998  1.2276883653940001
 -0.5197102079640000  1.2048342227330000  3.9976522585599996
  1.7017839490849997  1.0042600606229999 -0.0117706346060000
  0.4306277351969993  3.5083929841589998 -0.3101744473220001
  1.9700529044310000  0.9780902496470000  2.6841818323379996
