Al V 
 1.0000000000000000
     3.7672119999999998    0.0000000000000000    0.0000000000000000
     0.0000000000000000    3.7672119999999998    0.0000000000000000
     0.0000000000000000    0.0000000000000000    8.3124629999999993
 Al  V  
   6   2
Cartesian
  1.8836059999999999  1.8836059999999999  0.0000000000000000
  1.8836059999999999  0.0000000000000000  6.2343472499999990
  0.0000000000000000  1.8836059999999999  6.2343472499999990
  0.0000000000000000  0.0000000000000000  4.1562314999999996
  0.0000000000000000  1.8836059999999999  2.0781157499999998
  1.8836059999999999  0.0000000000000000  2.0781157499999998
  0.0000000000000000  0.0000000000000000  0.0000000000000000
  1.8836059999999999  1.8836059999999999  4.1562314999999996
