Cr Sn Rh
 1.0000000000000000
    -2.0539770000000002    2.0539770000000002    3.6532480000000001
     2.0539770000000002   -2.0539770000000002    3.6532480000000001
     2.0539770000000002    2.0539770000000002   -3.6532480000000001
 Cr  Sn  Rh 
   1   1   2
Cartesian
  0.0000000000000000  0.0000000000000000  0.0000000000000000
  0.0000000000000000  0.0000000000000000  3.6532480000000001
 -0.0000000000000002  2.0539770000000006  1.8266240000000000
  2.0539770000000002  0.0000000000000000  1.8266240000000000
