Ti Ga Fe Co
 1.0000000000000000
     0.0000000000000000    2.8796200000000001    2.8796200000000001
     2.8796200000000001    0.0000000000000000    2.8796200000000001
     2.8796200000000001    2.8796200000000001    0.0000000000000000
 Ti  Ga  Fe  Co 
   1   1   1   1
Cartesian
  2.8796200000000001  2.8796200000000001  2.8796200000000001
  0.0000000000000000  0.0000000000000000  0.0000000000000000
  1.4398100000000000  1.4398100000000000  1.4398100000000000
  4.3194300000000005  4.3194300000000005  4.3194300000000005
