Sm Ag Hg
 1.0000000000000000
     0.0000000000000000    3.7304490000000001    3.7304490000000001
     3.7304490000000001    0.0000000000000000    3.7304490000000001
     3.7304490000000001    3.7304490000000001    0.0000000000000000
 Sm  Ag  Hg 
   2   1   1
Cartesian
  0.0000000000000000  0.0000000000000000  0.0000000000000000
  3.7304490000000001  3.7304490000000001  3.7304490000000001
  1.8652319608979999  1.8652319608979999  1.8652319608979999
  5.5956809608980000  5.5956809608980000  5.5956809608980000
