Si
 1.0000000000000000
     3.8507579999999999    0.0000000000000000    0.0000000000000000
    -1.9253790000000000    3.3348550000000001    0.0000000000000000
     0.0000000000000000    0.0000000000000000    6.3631250000000001
 Si 
   4
Cartesian
 -0.0000019253790000  2.2232377782850001  0.4005014506250000
  1.9253809253790000  1.1116172217150000  3.5820639506250003
 -0.0000019253790000  2.2232377782850001  2.7810610493749999
  1.9253809253790000  1.1116172217150000  5.9626235493750004
