Pm Cd Ge
 1.0000000000000000
     0.0000000000000000    3.7157550000000001    3.7157550000000001
     3.7157550000000001    0.0000000000000000    3.7157550000000001
     3.7157550000000001    3.7157550000000001    0.0000000000000000
 Pm  Cd  Ge 
   2   1   1
Cartesian
  0.0000000000000000  0.0000000000000000  0.0000000000000000
  3.7157624315100004  3.7157624315100004  3.7157624315100004
  1.8578775000000001  1.8578775000000001  1.8578775000000001
  5.5736250684900002  5.5736250684900002  5.5736250684900002
