Ag P  S  Cl
 1.0000000000000000
     6.3335080000000001    0.0000000000000000    0.0000000000000000
    -3.1667540000000001    5.6219890000000001    0.0000000000000000
     0.0000000000000000    0.0000000000000000    7.4875360000000004
 Ag  P   S   Cl 
   5   1   4   2
Cartesian
  3.9846568896120007  3.4746927894060002  5.8498246884000009
  3.7704639825599999  0.0000000000000000  3.7437680000000002
  3.9846568896120007  3.4746927894060002  1.6377187991360000
  0.8179028896120001  2.1472962105939999  1.6377187991360000
  0.8179028896120001  2.1472962105939999  5.8498172008640008
  3.4130197915639999  0.0000000000000000  0.0000000000000000
  2.2165884628240002  0.0000000000000000  5.7817929363040008
  2.2165884628240002  0.0000000000000000  1.7057430636960003
  1.5028496125339998  3.9580995135709998  0.0000000000000000
  4.6696036125339999  1.6638894864289999  0.0000000000000000
 -0.7330243821500001  1.9368482963570002  3.7437680000000002
  2.4337296178499996  3.6851407036430004  3.7437680000000002
