Ca Zn N 
 1.0000000000000000
     3.4537930000000001    0.0000000000000000   -0.9407790000000000
    -0.2562590000000000    3.4442740000000001   -0.9407790000000000
    -0.0116300000000000   -0.0125280000000000    6.7674859999999999
 Ca  Zn  N  
   2   1   2
Cartesian
  2.1157197291880001  2.2789805732980000  0.9570678112839996
  1.0701842708120002  1.1527654267020000  3.9288601887160000
  0.0000000000000000  0.0000000000000000  0.0000000000000000
  2.7235043321460002  2.9336650947220000  3.1883635292059997
  0.4623996678539999  0.4980809052780000  1.6975644707939999
