Mg As O 
 1.0000000000000000
     4.7351599999999996    0.0327580000000000   -0.6719780000000000
    -0.9764140000000000    5.1026189999999998   -1.3944200000000000
     0.0202570000000000   -0.0196530000000000    5.3790069999999996
 Mg  As  O  
   2   2   7
Cartesian
  1.7012353314549997  3.5254335694400001  0.3768380068350000
  2.0777676685449999  1.5902904305600001  2.9357709931649998
 -0.2594242285250001  3.8853471266419999  2.9763909378630000
  4.0384272285249994  1.2303768733579998  0.3362180621370000
  0.4831854875769998  4.7444838586159994  1.7382291404369996
  2.9673478891609992  2.0593463134900003 -0.6578836174329999
  3.2958127772629995  0.3712401086259999  1.5743805315410000
  0.8116551108389997  3.0563776865099999  3.9704926174329995
  0.0000000000000000  0.0000000000000000  0.0000000000000000
  3.0966080334369996  3.0523644660500002  1.8526438343169997
  0.6823949665629998  2.0633595339499999  1.4599651656829997
