Ni Se
 1.0000000000000000
     6.0259729999999996    0.0000140000000000    0.0000440000000000
     0.0000120000000000    6.0478639999999997   -0.0001290000000000
     0.0000470000000000   -0.0001300000000000    6.0046559999999998
 Ni  Se 
   4   8
Cartesian
  0.0000000000000000  0.0000000000000000  0.0000000000000000
  3.0130100000000000 -0.0000580000000000  3.0023499999999999
  3.0129924999999997  3.0239389999999999 -0.0000425000000000
  0.0000295000000000  3.0238669999999996  3.0022634999999998
  2.3227039573119996  2.3270280378439998  2.3222380081959999
  0.6904146568430001  3.7205685453539998  5.3246024245340005
  5.3356255578059999  0.6968280395520000  3.6825054841579998
  3.7033258561940001  5.3509867006679999  0.6800963177620000
  3.7033280426879998  3.7207199621560001  3.6823329918040000
  5.3356173431569998  2.3271794546460001  0.6799685754660000
  0.6904064421939999  5.3509199604479987  2.3220655158420000
  2.3227061438060002  0.6967612993319999  5.3244746822379998
