Ba Cd O 
 1.0000000000000000
     3.6919729999999999    0.0000000000000000    0.0000000000000000
     0.0000000000000000    6.1997059999999999    0.0000000000000000
     0.0000000000000000    0.0000000000000000   12.0217480000000005
 Ba  Cd  O  
   4   4   8
Cartesian
  0.9229932500000000  2.4560755289600000  4.2989650630520000
  2.7689797499999997  3.7436304710400004  7.7227829369480006
  0.9229932500000000  5.5559285289600000  1.7119089369480001
  2.7689797499999997  0.6437774710400000 10.3098390630520012
  2.7689797499999997  5.6165182556979998  4.7259174432720004
  2.7689797499999997  2.5166652556979998  1.2849565567279999
  0.9229932500000000  0.5831877443019999  7.2958305567280011
  0.9229932500000000  3.6830407443020001 10.7367914432720006
  0.9229932500000000  1.7401644786100001  0.2175816170520000
  2.7689797499999997  4.4595415213900003 11.8041663829480008
  0.9229932500000000  4.8400174786100001  5.7932923829480005
  2.7689797499999997  1.3596885213900001  6.2284556170520000
  0.9229932500000000  5.3065143565800001  9.0025460985400017
  2.7689797499999997  3.9930446434200002  2.9916720985400000
  0.9229932500000000  2.2066613565800002  9.0300759014600001
  2.7689797499999997  0.8931916434200000  3.0192019014600002
