Ba Cd
 1.0000000000000000
     4.8657700000000004   -0.0000000000000000    2.0874000000000001
     2.3561820000000000    6.0211040000000002    1.2224950000000001
     0.0578290000000000    0.0001710000000000    6.5800039999999997
 Ba  Cd 
   2   4
Cartesian
  4.3338058605299992  4.2228152957500003  3.3274183816699998
  2.9459751394700002  1.7984597042499999  6.5624806183299995
  5.8140828458740001  4.3745854582260000  6.5916737852989993
  1.4656981541259999  1.6466895417740002  3.2982252147010001
  4.3199693874669993  0.6118190287990001  3.3596789520699999
  2.9598116125330001  5.4094559712010000  6.5302200479300003
