Li Zn As
 1.0000000000000000
     3.6160120000000000    0.0000000000000000    2.0877050000000001
     1.2053370000000001    3.4092099999999999    2.0877050000000001
     0.0000000000000000    0.0000000000000000    4.1754119999999997
 Li  Zn  As 
   1   1   1
Cartesian
  1.2053372499999999  0.8523025000000000  2.0877055000000002
  3.6160117500000002  2.5569074999999999  6.2631165000000006
  0.0000000000000000  0.0000000000000000  0.0000000000000000
