Mn Al Te
 1.0000000000000000
     5.9576310000000001    0.0014030000000000   -0.0000570000000000
     0.0014020000000000    5.9576050000000000   -0.0000980000000000
    -2.9795509999999998   -2.9795799999999999    6.3035399999999999
 Mn  Al  Te 
   1   2   4
Cartesian
 -0.0000298073310000 -0.0000357763570000  0.0019666811730000
  0.0006987897020001  2.9793811167649999  3.1515876877769999
  2.9794148688309998  0.0006785403630000  3.1516081919180001
  1.5899091638110001  1.5898982080289998  1.5555901550369999
  4.3678941539039995  4.3678655970760003  1.5540491903950000
 -1.3891733066670000  1.3896916012260003  4.7476701342630001
  1.3897291581990003 -1.3891982666820000  4.7476892629770004
