Sc H 
 1.0000000000000000
     2.9198979999999999    0.0000000000000000    1.6858050000000000
     0.9732990000000000    2.7529070000000000    1.6858050000000000
     0.0000000000000000    0.0000000000000000    3.3716089999999999
 Sc  H  
   1   2
Cartesian
  0.0000000000000000  0.0000000000000000  0.0000000000000000
  2.9198977500000001  2.0646802499999999  5.0574142499999999
  0.9732992499999999  0.6882267500000000  1.6858047500000000
