Li Sc O 
 1.0000000000000000
    -2.0948880000000001    2.0948880000000001    4.6264900000000004
     2.0948880000000001   -2.0948880000000001    4.6264900000000004
     2.0948880000000001    2.0948880000000001   -4.6264900000000004
 Li  Sc  O  
   2   2   4
Cartesian
  0.0000000000000000  0.0000000000000000  0.0000000000000000
  0.0000000000000000  2.0948880000000001  2.3132450000000002
  2.0948880000000001  0.0000000000000000  2.3132450000000002
  0.0000000000000000  0.0000000000000000  4.6264900000000004
 -0.0000000000000000  0.0000000000000000  2.4981195404000003
  2.0948880000000001  0.0000000000000000  0.1848745404000001
  0.0000000000000000 -0.0000000000000000  6.7548604596000006
  2.0948880000000001  0.0000000000000000  4.4416154596000004
