Sb Pd
 1.0000000000000000
    17.7780239999999985    0.0000000000000000    0.0000000000000000
     0.0000000000000000    3.4526490000000001    0.0000000000000000
     0.0000000000000000    0.0000000000000000    7.0446090000000003
 Sb  Pd 
   8  16
Cartesian
 16.7577965367120001  1.7263245000000000  1.3939238274390000
  1.0202274632880000  1.7263245000000000  4.9162283274390006
 14.1332090755679989  0.0000000000000000  5.1255659284829997
  3.6448149244319996  0.0000000000000000  1.6032614284830002
  7.8687845367119991  0.0000000000000000  1.3939238274390000
  9.9092394632879994  0.0000000000000000  4.9162283274390006
  5.2441970755679996  1.7263245000000000  5.1255659284829997
 12.5338269244319989  1.7263245000000000  1.6032614284830002
  0.6859650560399999  0.0000000000000000  0.0297423391980000
 17.0920589439599979  0.0000000000000000  3.5520468391979998
 14.6619452873519993  0.0000000000000000  0.7407335917410001
  3.1160787126479996  0.0000000000000000  4.2630380917410005
  3.0269574783359996  1.7263245000000000  6.7090742733300006
 14.7510665216639989  1.7263245000000000  3.1867697733300000
 16.2447583201199990  1.7263245000000000  5.8266031485090002
  1.5332656798800000  1.7263245000000000  2.3042986485090000
  9.5749770560399980  1.7263245000000000  0.0297423391980000
  8.2030469439600004  1.7263245000000000  3.5520468391979998
  5.7729332873519992  1.7263245000000000  0.7407335917410001
 12.0050907126479984  1.7263245000000000  4.2630380917410005
 11.9159694783359988  0.0000000000000000  6.7090742733300006
  5.8620545216639988  0.0000000000000000  3.1867697733300000
  7.3557463201199988  0.0000000000000000  5.8266031485090002
 10.4222776798799988  0.0000000000000000  2.3042986485090000
