Ca Pr Cd
 1.0000000000000000
     0.0000000000000000    3.8441470000000000    3.8441470000000000
     3.8441470000000000    0.0000000000000000    3.8441470000000000
     3.8441470000000000    3.8441470000000000    0.0000000000000000
 Ca  Pr  Cd 
   1   1   2
Cartesian
  1.9220735000000000  1.9220735000000000  1.9220735000000000
  5.7662205000000002  5.7662205000000002  5.7662205000000002
  3.8441470000000000  3.8441470000000000  3.8441470000000000
  0.0000000000000000  0.0000000000000000  0.0000000000000000
