Hf Be Si
 1.0000000000000000
     3.7065260000000002    0.0000000000000000    0.0000000000000000
    -1.8532630000000001    3.2099449999999998    0.0000000000000000
     0.0000000000000000    0.0000000000000000    7.1447010000000004
 Hf  Be  Si 
   2   2   2
Cartesian
  0.0000000000000000  0.0000000000000000  0.0000000000000000
  0.0000000000000000  0.0000000000000000  3.5723505000000002
 -0.0000018532630000  2.1399644033150000  1.7861752500000001
  1.8532648532630001  1.0699805966850000  5.3585257500000001
 -0.0000018532630000  2.1399644033150000  5.3585257500000001
  1.8532648532630001  1.0699805966850000  1.7861752500000001
