Sc Ag
 1.0000000000000000
     3.4211030000000000    0.0000000000000000    0.0000000000000000
     0.0000000000000000    3.4211030000000000    0.0000000000000000
     0.0000000000000000    0.0000000000000000    3.4211030000000000
 Sc  Ag 
   1   1
Cartesian
  1.7105515000000000  1.7105515000000000  1.7105515000000000
  0.0000000000000000  0.0000000000000000  0.0000000000000000
