Bi F 
 1.0000000000000000
     4.6748230000000000    0.0000000000000000    0.0000000000000000
     0.0000000000000000    6.5476479999999997    0.0000000000000000
     0.0000000000000000    0.0000000000000000    7.0683400000000001
 Bi  F  
   4  12
Cartesian
  4.4702948189270000  4.1599630373760004  5.3012550000000003
  2.1328833189270000  5.6615089626239996  1.7670850000000000
  2.5419396810729999  0.8861390373760001  5.3012550000000003
  0.2045281810730000  2.3876849626240002  1.7670850000000000
  1.7228218698360001  1.0839107452159999  3.1009019630200001
  4.0602333698360003  2.1899132547839999  3.9674380369800004
  0.6145896301640000  4.3577347452159998  0.4332680369800000
  2.9520011301640001  5.4637372547840002  6.6350719630199997
  2.8430076319190003  3.4697427234559997  1.7670850000000000
  0.5055961319190000  6.3517292765439999  5.3012550000000003
  4.1692268680810001  0.1959187234560000  1.7670850000000000
  1.8318153680810001  3.0779052765440000  5.3012550000000003
  1.7228218698360001  1.0839107452159999  0.4332680369800000
  4.0602333698360003  2.1899132547839999  6.6350719630199997
  0.6145896301640000  4.3577347452159998  3.1009019630200001
  2.9520011301640001  5.4637372547840002  3.9674380369800004
