Be Si N 
 1.0000000000000000
     4.6766930000000002    0.0000000000000000    0.0000000000000000
     0.0000000000000000    4.9758979999999999    0.0000000000000000
     0.0000000000000000    0.0000000000000000    5.7486129999999998
 Be  Si  N  
   4   4   8
Cartesian
  4.6724325326770000  0.4117008246220000  3.5937339197239999
  2.3340860326770003  4.5641971753780002  2.1548790802759998
  2.3340860326770003  2.0762481753779998  0.7194274197240000
  4.6724325326770000  2.8996498246220002  5.0291855802759997
  4.6747989393350000  0.4239266060080000  0.7187203403250000
  4.6747989393350000  2.9118805819059999  2.1555861596749999
  2.3364524393350004  2.0640223939919999  3.5930268403250003
  2.3364524393350004  4.5519664180940005  5.0298926596749993
  1.7755252042220000  2.9098454396239997  5.0104393532830001
  1.7475024597660000  0.3927575809360000  0.7000028563970000
  4.1138717042220003  2.0660525603760003  0.7381736467169999
  4.1138717042220003  4.5540015603760002  2.1361328532829997
  4.0858489597660004  2.0951914190639997  3.5743093563969999
  4.0858489597660004  4.5831404190639997  5.0486101436029998
  1.7475024597660000  2.8807065809360002  2.1743036436029999
  1.7755252042220000  0.4218964396240000  3.6124801467170000
