Ca Ga
 1.0000000000000000
     4.0526049999999998    0.0000000000000000   -1.5183610000000001
    -0.5688740000000000    4.0124789999999999   -1.5183610000000001
    -0.0133910000000000   -0.0154230000000000    6.1317740000000001
 Ca  Ga 
   1   4
Cartesian
  0.0000000000000000  0.0000000000000000  0.0000000000000000
  2.8905397499999999  0.9954082500000000  1.5475260000000000
  0.5798002500000000  3.0016477500000001  1.5475260000000000
  1.3299920155520002  1.5318536949360002  3.5498245034319997
  2.1403479844479998  2.4652023050640000 -0.4547725034320000
