Ca Zn
 1.0000000000000000
     4.5964900000000002    0.0000000000000000    0.0000000000000000
     0.0000000000000000    7.5873629999999999    0.0000000000000000
     0.0000000000000000    0.0000000000000000    7.3731210000000003
 Ca  Zn 
   4   8
Cartesian
  1.1491225000000000  1.5187321022580000  3.6865605000000001
  1.1491225000000000  2.2749493977419997  0.0000000000000000
  3.4473675000000004  5.3124136022579993  0.0000000000000000
  3.4473675000000004  6.0686308977420005  3.6865605000000001
  1.1491225000000000  4.4450035020089995  2.2923917963520002
  1.1491225000000000  6.9360409979910003  1.3941687036480002
  3.4473675000000004  0.6513220020090000  1.3941687036480002
  3.4473675000000004  3.1423594979909999  2.2923917963520002
  3.4473675000000004  0.6513220020090000  5.9789522963520003
  3.4473675000000004  3.1423594979909999  5.0807292036480005
  1.1491225000000000  4.4450035020089995  5.0807292036480005
  1.1491225000000000  6.9360409979910003  5.9789522963520003
