Y  Al Si
 1.0000000000000000
     4.2095089999999997    0.0000000000000000    0.0000000000000000
    -2.1047539999999998    3.6455419999999998    0.0000000000000000
     0.0000000000000000    0.0000000000000000    6.5753490000000001
 Y   Al  Si 
   1   2   2
Cartesian
  0.0000000000000000  0.0000000000000000  0.0000000000000000
  2.1047567714210000  1.2151794514859999  2.3350510875780000
 -0.0000017714209999  2.4303625485140001  4.2402979124220002
  2.1047567714210000  1.2151794514859999  4.8640486692599998
 -0.0000017714209999  2.4303625485140001  1.7113003307399999
