Ca Ge N 
 1.0000000000000000
    11.1796419999999994    0.0000000000000000    0.0000000000000000
     0.0000000000000000   11.1796419999999994    0.0000000000000000
     0.0000000000000000    0.0000000000000000    5.0295850000000000
 Ca  Ge  N  
  16   8  16
Cartesian
  5.8230954099720007  9.5014771190219989  2.5147925000000000
  9.5014771190219989  5.3565465900279996  0.0000000000000000
  1.6781648809779999  5.8230954099720007  0.0000000000000000
  7.2679858809780002 10.9463675900279984  0.0000000000000000
  4.7476473884979997  4.1058912191300001  0.0000000000000000
  0.2332744099720000  7.2679858809780002  2.5147925000000000
  3.9116561190220001  0.2332744099720000  0.0000000000000000
  1.4839297808699998  0.8421736115019999  2.5147925000000000
  9.6957122191299998 10.3374683884979994  2.5147925000000000
 10.3374683884979994  1.4839297808699998  0.0000000000000000
  0.8421736115019999  9.6957122191299998  0.0000000000000000
  6.4319946115019997  7.0737507808700002  0.0000000000000000
  7.0737507808700002  4.7476473884979997  2.5147925000000000
  4.1058912191300001  6.4319946115019997  2.5147925000000000
  5.3565465900279996  1.6781648809779999  2.5147925000000000
 10.9463675900279984  3.9116561190220001  2.5147925000000000
  2.7439089731959996  3.8454279198140000  2.5147925000000000
  8.4357330268039998  7.3342140801859994  2.5147925000000000
  7.3342140801859994  2.7439089731959996  0.0000000000000000
  9.4352489198140006  8.3337299731960002  0.0000000000000000
  8.3337299731960002  1.7443930801859999  2.5147925000000000
  2.8459120268040001  9.4352489198140006  2.5147925000000000
  1.7443930801859999  2.8459120268040001  0.0000000000000000
  3.8454279198140000  8.4357330268039998  0.0000000000000000
  1.8283186526799997  5.4841622034580002  2.5147925000000000
  7.1099504616660001  4.5868394179700003  0.0000000000000000
  4.0696915383339993  6.5928025820299991  0.0000000000000000
  9.6595125383339990 10.1766604179700000  0.0000000000000000
 10.1766604179700000  1.5201294616659999  2.5147925000000000
  1.0029815820299999  9.6595125383339990  2.5147925000000000
  1.5201294616659999  1.0029815820299999  0.0000000000000000
  0.1056587965420000  3.7615023473199996  0.0000000000000000
  3.7615023473199996 11.0739832034579990  2.5147925000000000
  7.4181396526799999  0.1056587965420000  2.5147925000000000
  4.5868394179700003  4.0696915383339993  2.5147925000000000
 11.0739832034579990  7.4181396526799999  0.0000000000000000
  5.4841622034580002  9.3513233473199993  0.0000000000000000
  5.6954797965419992  1.8283186526799997  0.0000000000000000
  9.3513233473199993  5.6954797965419992  2.5147925000000000
  6.5928025820299991  7.1099504616660001  2.5147925000000000
