Pr Mg Zn
 1.0000000000000000
     0.0000000000000000    3.4876230000000001    3.4876230000000001
     3.4876230000000001    0.0000000000000000    3.4876230000000001
     3.4876230000000001    3.4876230000000001    0.0000000000000000
 Pr  Mg  Zn 
   1   1   2
Cartesian
  5.2314275247540003  5.2314275247540003  5.2314275247540003
  1.7438115000000001  1.7438115000000001  1.7438115000000001
  3.4876230000000001  3.4876230000000001  3.4876230000000001
  0.0000000000000000  0.0000000000000000  0.0000000000000000
