Cu Hg S  F 
 1.0000000000000000
     0.0988410000000000    5.5234839999999998    5.4407209999999999
     5.3452640000000002    0.2105520000000000    5.3290490000000004
     5.7867670000000002    5.8575090000000003   -0.2343830000000000
 Cu  Hg  S   F  
   4   4   2  12
Cartesian
  1.4038590000000002  1.4489431250000000  1.3169233750000002
  1.4532795000000001  4.2106851249999995  4.0372838750000000
  4.2972425000000003  4.3776976249999997  1.1997318750000001
  4.0764909999999999  1.5542191249999999  3.9814478749999997
  7.0192950000000005  7.2447156249999995  6.5846168750000000
  6.9698745000000004  4.4829736250000005  3.8642563750000001
  4.1259115000000000  4.3159611249999994  6.7018083749999997
  4.3466630000000004  7.1394396249999996  3.9200923750000003
  8.4503773296180000  8.7632736201280004  7.7834750984480010
  5.5882126703820001  5.7261576298720005  5.3857586515520000
  2.6793964348450006  2.7597612315439997  4.6266571248800004
  3.1231321184930003  5.2099058011099997  2.5028478988529996
  5.5724265651550002  5.8721610184560005  8.7769596251199999
  2.5611573342270000  2.6248488503020000  0.3550327718720000
  5.2278407647369995  2.2256751594610003  5.4099386644420004
  8.8547597693530005  5.7391463519480004  5.1837290016830000
  2.9251412352630002  0.8827630905390000  2.5529570855580004
  5.5701938815070005  9.0689734488900005  5.3373368511469996
  6.0333276657730002  6.1305463996979999  2.0444309781280001
  0.6774809288410001  3.0913191813369996  2.7073636097159999
  5.0849892306470004  3.2268008980520002  2.5447837483170006
  2.2290780711589999  5.3300510686629998  5.3672041402839996
