Dy P  O 
 1.0000000000000000
     5.4952459999999999    0.0031780000000000   -1.5833969999999999
    -3.1113650000000002    4.5295860000000001   -1.5833969999999999
    -0.0016710000000000   -0.0031780000000000    5.7188169999999996
 Dy  P   O  
   2   2   8
Cartesian
 -2.0359563750000000  3.9629905000000001 -0.1536927500000000
  4.4181663749999993  0.5665955000000000  2.7057157499999995
  0.1148608749999996  2.8297995000000000  2.7057157499999995
  2.2673491250000000  1.6997865000000001 -0.1536927500000000
  3.1911585856729996  1.6289634634940000 -1.3808939319910001
  1.4551156022609995  3.5508353318300001  2.9254235884489996
 -0.4669874058890001  3.5508353318300001  1.4785145680089997
  2.1019633239209998  3.2126721473500002  0.0660150884489999
  0.9270943977389999  0.9787506681700001 -0.3734005884490000
 -0.8089485856730001  2.9006225365060003  3.9329169319909996
  0.2802466760789999  1.3169138526500002  2.4860079115509999
  2.8491974058890004  0.9787506681700001  1.0735084319909998
