As Cl
 1.0000000000000000
     4.2979859999999999    0.0000000000000000    0.0000000000000000
     0.0000000000000000    9.6515869999999993    0.0000000000000000
     0.0000000000000000    0.0000000000000000   11.6565980000000007
 As  Cl 
   4  12
Cartesian
  0.0579368512800000  6.7406780123869998  9.1634615065639995
  2.2069298512800000  7.7367024876129991  2.4931364934359999
  4.2400491487199998  1.9148845123869997  8.3214354934360006
  2.0910561487199999  2.9109089876129999  3.3351625065640000
  1.0712171366819998  5.0335246070009996 10.0874916866220001
  3.2202101366820002  9.4438558929990002  1.5691063133780001
  3.2267688633179996  0.2077311070010000  7.3974053133780009
  1.0777758633180001  4.6180623929989997  4.2591926866220007
  0.9823261902300000  2.8638285462269999  1.4472482378860001
  3.1313191902299997  1.9619649537729997 10.2093497621140017
  3.3156598097700001  7.6896220462270000  4.3810507621140005
  1.1666668097699999  6.7877584537729989  7.2755472378860002
  1.0180854337500000  1.3203467531869999  4.4025921552180005
  3.1670784337499995  3.5054467468129995  7.2540058447820002
  3.2799005662500003  6.1461402531869993  1.4257068447820000
  1.1309075662499999  8.3312402468129996 10.2308911552180000
