Zr Te
 1.0000000000000000
     4.0486250000000004   -0.0000000000000000    0.0000000000000000
    -2.0243129999999998    7.6613350000000002    0.0000000000000000
     0.0000000000000000    0.0000000000000000   13.8187470000000001
 Zr  Te 
   2  10
Cartesian
 -0.0000003162319998  4.8455185794400002 10.3640602499999996
  2.0243123162320007  2.8158164205600000  3.4546867500000000
  2.0243123282959998  2.6309637296799999 10.3640602499999996
 -0.0000003282959998  5.0303712703199999  3.4546867500000000
  2.0243161215290004  6.5442510663200002 11.7370909519200008
 -0.0000041215289999  1.1170839336800000  2.0816560480800002
 -0.0000041215289999  1.1170839336800000  4.8277174519199999
  2.0243161215290004  6.5442510663200002  8.9910295480800002
 -0.0000022379969998  3.2742170776149999  7.8104248981349995
  2.0243142379970007  4.3871179223850003  6.0083221018649997
  2.0243142379970007  4.3871179223850003  0.9010513981350000
 -0.0000022379969998  3.2742170776149999 12.9176956018650007
