Ti Be
 1.0000000000000000
     6.4301950000000003    0.0000000000000000    0.0000000000000000
     0.0000000000000000    6.4301950000000003    0.0000000000000000
     0.0000000000000000    0.0000000000000000    6.4301950000000003
 Ti  Be 
   8  16
Cartesian
  5.6264206250000006  5.6264206250000006  5.6264206250000006
  0.8037743750000000  0.8037743750000000  0.8037743750000000
  5.6264206250000006  2.4113231250000000  2.4113231250000000
  0.8037743750000000  4.0188718750000003  4.0188718750000003
  2.4113231250000000  5.6264206250000006  2.4113231250000000
  4.0188718750000003  0.8037743750000000  4.0188718750000003
  2.4113231250000000  2.4113231250000000  5.6264206250000006
  4.0188718750000003  4.0188718750000003  0.8037743750000000
  3.2150975000000002  0.0000000000000000  0.0000000000000000
  4.8226462500000000  4.8226462500000000  3.2150975000000002
  3.2150975000000002  4.8226462500000000  4.8226462500000000
  4.8226462500000000  0.0000000000000000  1.6075487500000001
  3.2150975000000002  3.2150975000000002  3.2150975000000002
  4.8226462500000000  1.6075487500000001  0.0000000000000000
  3.2150975000000002  1.6075487500000001  1.6075487500000001
  4.8226462500000000  3.2150975000000002  4.8226462500000000
  0.0000000000000000  0.0000000000000000  3.2150975000000002
  1.6075487500000001  4.8226462500000000  0.0000000000000000
  0.0000000000000000  4.8226462500000000  1.6075487500000001
  1.6075487500000001  0.0000000000000000  4.8226462500000000
  0.0000000000000000  3.2150975000000002  0.0000000000000000
  1.6075487500000001  1.6075487500000001  3.2150975000000002
  0.0000000000000000  1.6075487500000001  4.8226462500000000
  1.6075487500000001  3.2150975000000002  1.6075487500000001
