Li Pm Ir
 1.0000000000000000
     0.0000000000000000    3.5574349999999999    3.5574349999999999
     3.5574349999999999    0.0000000000000000    3.5574349999999999
     3.5574349999999999    3.5574349999999999    0.0000000000000000
 Li  Pm  Ir 
   1   2   1
Cartesian
  5.3361524999999999  5.3361524999999999  5.3361524999999999
  0.0000000000000000  0.0000000000000000  0.0000000000000000
  3.5574349999999999  3.5574349999999999  3.5574349999999999
  1.7787175000000000  1.7787175000000000  1.7787175000000000
