Sm Zr O 
 1.0000000000000000
     0.0000000000000000    5.3116040000000000    5.3116040000000000
     5.3116040000000000    0.0000000000000000    5.3116040000000000
     5.3116040000000000    5.3116040000000000    0.0000000000000000
 Sm  Zr  O  
   4   4  14
Cartesian
  3.9837029999999998  3.9837029999999998  6.6395049999999998
  3.9837030000000002  6.6395049999999998  3.9837029999999998
  6.6395049999999998  3.9837030000000002  3.9837030000000002
  6.6395049999999998  6.6395049999999998  6.6395049999999998
  3.9837030000000002  3.9837030000000002  1.3279010000000000
  3.9837029999999998  1.3279010000000000  3.9837030000000002
  1.3279010000000000  3.9837029999999998  3.9837029999999998
  1.3279010000000000  1.3279010000000000  1.3279010000000000
  7.9674060000000004  7.9674060000000004  7.9674060000000004
  5.3116040000000000  5.3116040000000000  5.3116040000000000
  2.6558020000000000  0.4065501701600000  2.6558020000000000
  5.3116040000000000  8.3739561701599996  5.3116040000000000
  2.6558020000000000  2.6558020000000000  0.4065501701600000
  0.4065501701600000  2.6558020000000000  2.6558020000000000
  4.9050538298399999  2.6558020000000000  2.6558020000000000
  2.6558020000000000  2.6558020000000000  4.9050538298399999
  2.6558020000000000  4.9050538298399999  2.6558020000000000
  8.3739561701599996  5.3116040000000000  5.3116040000000000
  2.2492518298399999  5.3116040000000000  5.3116040000000000
  5.3116040000000000  2.2492518298399999  5.3116040000000000
  5.3116040000000000  5.3116040000000000  8.3739561701599996
  5.3116040000000000  5.3116040000000000  2.2492518298399999
