Pm Ag Hg
 1.0000000000000000
     0.0000000000000000    3.5744769999999999    3.5744769999999999
     3.5744769999999999    0.0000000000000000    3.5744769999999999
     3.5744769999999999    3.5744769999999999    0.0000000000000000
 Pm  Ag  Hg 
   1   1   2
Cartesian
  5.3617226489540002  5.3617226489540002  5.3617226489540002
  1.7872456489539998  1.7872456489539998  1.7872456489539998
  0.0000000000000000  0.0000000000000000  0.0000000000000000
  3.5744769999999999  3.5744769999999999  3.5744769999999999
