Hf Au
 1.0000000000000000
     3.2516949999999998    0.0000000000000000    0.0000000000000000
     0.0000000000000000    3.2516949999999998    0.0000000000000000
     0.0000000000000000    0.0000000000000000   11.7180490000000006
 Hf  Au 
   4   2
Cartesian
  1.6258474999999999  1.6258474999999999  1.9046868386069999
  1.6258474999999999  1.6258474999999999  9.8133621613930000
  0.0000000000000000  0.0000000000000000  7.7637113386070000
  0.0000000000000000  0.0000000000000000  3.9543376613930001
  0.0000000000000000  0.0000000000000000  0.0000000000000000
  1.6258474999999999  1.6258474999999999  5.8590245000000003
