Na Re S 
 1.0000000000000000
     4.8407910000000003    7.9498980000000001    0.0403590000000000
    -4.8407910000000003    7.9498980000000001    0.0403590000000000
     0.0000000000000000    0.6033520000000000   11.5476259999999993
 Na  Re  S  
   8  12  24
Cartesian
  0.8190715187820002  8.1007360000000013  2.9272654999999999
 -0.8190715187820000  8.4024120000000000  8.7010784999999995
 -2.7490464825720005  8.1007359999999995  2.9272654999999999
  2.7490464825720005  8.4024120000000000  8.7010784999999995
 -2.5834914303720002 10.5624361947480008 11.5180310723039980
 -2.5834914303720002  6.2423878052520010  5.8841259276960001
  2.5834914303720002  5.9407118052520005  0.1103129276960000
  2.5834914303719998 10.2607601947480003  5.7442180723040002
 -1.0309384184790003 11.5163105422300003  6.8464020039349993
 -1.0309384184790000  5.2885134577699997 10.5557549960649997
  1.0309384184790000  4.9868374577700001  4.7819419960649991
  1.0309384184790005 11.2146345422299998  1.0725890039349999
 -1.7467945915590000 11.3861120802020004  4.3207488477909992
 -1.7467945915590002  4.8153599197980004  1.5337821522089998
  1.7467945915590002  5.1170359197980009  7.3075951522089992
  1.7467945915589995 11.6877880802020009 10.0945618477910006
 -1.3905123739590000 13.7001521672340001  5.4663457163969991
 -1.3905123739590000  2.5013198327659998  0.3881852836030000
  1.3905123739590000  2.8029958327659998  6.1619982836030003
  1.3905123739590000 14.0018281672340006 11.2401587163969996
 -0.8325240769710003 13.7107121682219990  7.7934830644909994
 -0.8325240769710001  3.0941118317780001  9.6086739355089996
  0.8325240769710002  2.7924358317780000  3.8348609355089995
  0.8325240769710001 13.4090361682220003  2.0196700644909997
  1.5045759322920000  7.1076514204999999  5.9061009540099993
  1.5045759322920003  9.6971725795000001 11.4960560459899988
 -1.5045759322920005  9.3954965794999996  5.7222430459900000
 -1.5045759322920000  6.8059754204999994  0.1322879540100000
  2.6980632717600002  5.5404073288720008  3.1323905320160002
  2.6980632717600006 10.6610646711280008  2.7221404679840000
 -2.6980632717600002 10.9627406711280013  8.4959534679840001
 -2.6980632717600002  5.8420833288719995  8.9062035320159989
  0.4301381658869999 12.1480484694540021  5.0292508927170001
  0.4301381658870002  4.0534235305459996  0.8252801072829999
 -0.4301381658870002  4.3550995305460001  6.5990931072829992
 -0.4301381658869999 12.4497244694540008 10.8030638927169989
  0.8897035002629998 10.5125722200459997  8.0913747255829982
  0.8897035002630003  6.2922517799540003  9.3107822744169990
 -0.8897035002630003  5.9905757799539998  3.5369692744169994
 -0.8897035002630000 10.2108962200459992  2.3175617255829999
 -0.0159649287179999 15.6432983087479993  4.9673953571440004
 -0.0159649287180000  0.5581736912520000  0.8871356428560000
  0.0159649287180000  0.8598496912520001  6.6609486428559990
  0.0159649287179999 15.9449743087480016 10.7412083571440000
