Sn Rh
 1.0000000000000000
     4.2858250000000000    0.0000000000000000    0.0000000000000000
     0.0000000000000000    5.6085940000000001    0.0000000000000000
     0.0000000000000000    0.0000000000000000    8.1301609999999993
 Sn  Rh 
   4   8
Cartesian
  3.2143687500000002  4.5354512326340002  0.8236340902659999
  3.2143687500000002  1.7311542326340001  3.2414464097339994
  1.0714562500000000  1.0731427673660001  7.3065269097339991
  1.0714562500000000  3.8774397673660004  4.8887145902659999
  1.0714562500000000  0.9494284009139999  4.6280860190889994
  3.2143687500000002  2.5524991723700001  5.8923504450719992
  3.2143687500000002  5.3567961723700002  6.3028910549279997
  3.2143687500000002  4.6591655990860001  3.5020749809109994
  3.2143687500000002  1.8548685990859999  0.5630055190890000
  1.0714562500000000  3.7537254009140000  7.5671554809109995
  1.0714562500000000  0.2517978276300000  1.8272699450719998
  1.0714562500000000  3.0560948276300000  2.2378105549279996
