Li Er Ge
 1.0000000000000000
     6.9721539999999997   -0.0000000000000000    0.0000000000000000
    -3.4860769999999999    6.0380609999999999    0.0000000000000000
     0.0000000000000000    0.0000000000000000    4.1952189999999998
 Li  Er  Ge 
   3   3   3
Cartesian
  1.6249371833939998  0.0000000000000000  2.0976094999999999
  2.6736084083030001  4.6308244652789998  2.0976094999999999
 -0.8124685916969999  1.4072365347209999  2.0976094999999999
 -2.0065092275060001  3.4753750742580003  0.0000000000000000
  4.0130184550120003  0.0000000000000000  0.0000000000000000
  1.4795677724940000  2.5626859257420000  0.0000000000000000
 -0.0000034860770003  4.0253760126870004  2.0976094999999999
  3.4860804860770003  2.0126849873129999  2.0976094999999999
  0.0000000000000000  0.0000000000000000  0.0000000000000000
