Ho Cl O 
 1.0000000000000000
     3.8510219999999999    0.0000000000000000    0.0000000000000000
     0.0000000000000000    3.8510219999999999    0.0000000000000000
     0.0000000000000000    0.0000000000000000    6.6922050000000004
 Ho  Cl  O  
   2   2   2
Cartesian
  2.8882664999999998  2.8882664999999998  5.5812521245650002
  0.9627555000000000  0.9627555000000000  1.1109528754350000
  0.9627555000000000  0.9627555000000000  4.2197631705450007
  2.8882664999999998  2.8882664999999998  2.4724418294550001
  2.8882664999999998  0.9627555000000000  0.0000000000000000
  0.9627555000000000  2.8882664999999998  0.0000000000000000
