Pr Ga
 1.0000000000000000
     6.5151019999999997   -0.0000000000000000    0.0000000000000000
    -3.2575509999999999    5.6422450000000000    0.0000000000000000
     0.0000000000000000    0.0000000000000000    4.5345700000000004
 Pr  Ga 
   2   6
Cartesian
  0.0000032575510000  3.7614985474150000  3.4009365691400002
  3.2575575151020000  1.8807520948300001  1.1336470345700000
  0.0000065151020000  1.5694017312400002  1.1336470345700000
  1.8984062538209996  4.8575497766250004  1.1336470345700000
 -1.8983867085150001  4.8575497766250004  1.1336470345700000
  3.2575444848979997  4.0728319842699996  3.4009365691400002
  1.3591349735259999  0.7847008656200001  3.4009365691400002
  5.1559474811679999  0.7847008656200001  3.4009365691400002
