Tm Sb
 1.0000000000000000
     3.7473420000000002    0.0000000000000000    2.1635279999999999
     1.2491140000000001    3.5330290000000000    2.1635279999999999
     0.0000000000000000    0.0000000000000000    4.3270559999999998
 Tm  Sb 
   1   1
Cartesian
  2.4982280000000001  1.7665145000000000  4.3270559999999998
  0.0000000000000000  0.0000000000000000  0.0000000000000000
