Sc Al C 
 1.0000000000000000
     3.3607010000000002    0.0000000000000000    0.0000000000000000
    -1.6803509999999999    2.9104530000000000    0.0000000000000000
     0.0000000000000000    0.0000000000000000   16.7873570000000001
 Sc  Al  C  
   2   6   6
Cartesian
  0.0000000000000000  0.0000000000000000  0.0000000000000000
  0.0000000000000000  0.0000000000000000  8.3936785000000000
 -0.0000020136839999  1.9403029701510000  2.1666434438480002
  1.6803520136840004  0.9701500298490000 14.6207135561520012
 -0.0000020136839999  1.9403029701510000 12.5905177500000001
 -0.0000020136839999  1.9403029701510000  6.2270350561520003
  1.6803520136840004  0.9701500298490000 10.5603219438479989
  1.6803520136840004  0.9701500298490000  4.1968392500000000
  1.6803520136840004  0.9701500298490000  1.4534157943460000
  1.6803520136840004  0.9701500298490000 12.5905177500000001
 -0.0000020136839999  1.9403029701510000  4.1968392500000000
 -0.0000020136839999  1.9403029701510000 15.3339412056539999
  1.6803520136840004  0.9701500298490000  6.9402627056539998
 -0.0000020136839999  1.9403029701510000  9.8470942943460003
