Mg Tl Rh
 1.0000000000000000
     0.0000000000000000    3.1864270000000001    3.1864270000000001
     3.1864270000000001    0.0000000000000000    3.1864270000000001
     3.1864270000000001    3.1864270000000001    0.0000000000000000
 Mg  Tl  Rh 
   1   1   2
Cartesian
  1.5932135000000001  1.5932135000000001  1.5932135000000001
  4.7796405000000002  4.7796405000000002  4.7796405000000002
  0.0000000000000000  0.0000000000000000  0.0000000000000000
  3.1864270000000001  3.1864270000000001  3.1864270000000001
