Be Ni Rh
 1.0000000000000000
     0.0000000000000000    2.6820919999999999    2.6820919999999999
     2.6820919999999999    0.0000000000000000    2.6820919999999999
     2.6820919999999999    2.6820919999999999    0.0000000000000000
 Be  Ni  Rh 
   2   1   1
Cartesian
  2.6820866358160003  2.6820866358160003  2.6820866358160003
  0.0000000000000000  0.0000000000000000  0.0000000000000000
  1.3410406358159999  1.3410406358159999  1.3410406358159999
  4.0231379999999994  4.0231379999999994  4.0231379999999994
