Ti Rh
 1.0000000000000000
     2.9735520000000002    0.0000000000000000    0.0000000000000000
     0.0000000000000000    2.9735520000000002    0.0000000000000000
     0.0000000000000000    0.0000000000000000    3.4090099999999999
 Ti  Rh 
   1   1
Cartesian
  1.4867760000000001  1.4867760000000001  1.7045049999999999
  0.0000000000000000  0.0000000000000000  0.0000000000000000
