Ba Ho Cu O 
 1.0000000000000000
     1.9471740000000000  -13.7366620000000008    0.0000000000000000
     1.9471740000000000   13.7366620000000008    0.0000000000000000
     0.0000000000000000    0.0000000000000000    3.8794599999999999
 Ba  Ho  Cu  O  
   2   1   4   8
Cartesian
  1.9471740000000000 -3.7239266482279998  1.9397300000000000
  1.9471740000000000  3.7239266482279998  1.9397300000000000
  1.9471740000000000  0.0000000000000000  1.9397300000000000
  1.9471740000000000 12.0630695218920003  0.0000000000000000
  1.9471740000000000 -12.0630695218920021  0.0000000000000000
  1.9471740000000000  7.8957508976280009  0.0000000000000000
  1.9471740000000000 -7.8957508976280000  0.0000000000000000
  1.9471739999999997 -6.0016849944199997  0.0000000000000000
  1.9471740000000000  6.0016849944199997  0.0000000000000000
  1.9471740000000000 -1.4146563994079993  0.0000000000000000
  1.9471740000000000  1.4146563994079993  0.0000000000000000
  1.9471740000000000 12.3187637483600003  1.9397300000000000
  1.9471740000000000 -12.3187637483600003  1.9397300000000000
  1.9471740000000000  9.7461891623240007  0.0000000000000000
  1.9471740000000002 -9.7461891623240025  0.0000000000000000
