Sc Sn B 
 1.0000000000000000
     4.6539679999999999    0.0000000000000000    0.0000000000000000
     0.0000000000000000    4.6539679999999999    0.0000000000000000
     0.0000000000000000    0.0000000000000000    4.6539679999999999
 Sc  Sn  B  
   3   1   1
Cartesian
  2.3269839999999999  0.0000000000000000  2.3269839999999999
  0.0000000000000000  2.3269839999999999  2.3269839999999999
  2.3269839999999999  2.3269839999999999  0.0000000000000000
  0.0000000000000000  0.0000000000000000  0.0000000000000000
  2.3269839999999999  2.3269839999999999  2.3269839999999999
