Mg Sc
 1.0000000000000000
     3.5987040000000001    0.0000000000000000    0.0000000000000000
     0.0000000000000000    3.5987040000000001    0.0000000000000000
     0.0000000000000000    0.0000000000000000    3.5987040000000001
 Mg  Sc 
   1   1
Cartesian
  0.0000000000000000  0.0000000000000000  0.0000000000000000
  1.7993520000000001  1.7993520000000001  1.7993520000000001
