Sc Cd Pd
 1.0000000000000000
     0.0000000000000000    3.2619039999999999    3.2619039999999999
     3.2619039999999999    0.0000000000000000    3.2619039999999999
     3.2619039999999999    3.2619039999999999    0.0000000000000000
 Sc  Cd  Pd 
   1   1   2
Cartesian
  4.8928494761919996  4.8928494761919996  4.8928494761919996
  1.6309520000000000  1.6309520000000000  1.6309520000000000
  0.0000000000000000  0.0000000000000000  0.0000000000000000
  3.2619039999999999  3.2619039999999999  3.2619039999999999
