Dy Tl Cd
 1.0000000000000000
     0.0000000000000000    3.7405629999999999    3.7405629999999999
     3.7405629999999999    0.0000000000000000    3.7405629999999999
     3.7405629999999999    3.7405629999999999    0.0000000000000000
 Dy  Tl  Cd 
   2   1   1
Cartesian
  3.7405629999999999  3.7405629999999999  3.7405629999999999
  0.0000000000000000  0.0000000000000000  0.0000000000000000
  5.6108444999999998  5.6108444999999998  5.6108444999999998
  1.8702814999999999  1.8702814999999999  1.8702814999999999
