Tb Ni
 1.0000000000000000
     4.3531610000000001    0.0000020000000000    2.5133019999999999
     1.4510550000000000    4.1042009999999998    2.5133019999999999
     0.0000000000000000    0.0000000000000000    5.0266029999999997
 Tb  Ni 
   2   4
Cartesian
  5.0786933531610003  3.5911776250020000  8.7965536116989984
  0.7255226468390000  0.5130253749979999  1.2566533883010000
  2.1765805000000000  0.0000010000000000  3.7699524999999996
  0.7255275000000000  2.0521004999999999  3.7699524999999996
  2.9021080000000001  2.0521015000000000  5.0266035000000002
  2.9021080000000001  2.0521015000000000  2.5133019999999999
