Nb B 
 1.0000000000000000
     3.3114669999999999    0.0000000000000000    0.0000000000000000
     0.0000000000000000    6.2327870000000001    0.0000000000000000
     0.0000000000000000    0.0000000000000000    6.2327870000000001
 Nb  B  
   6   4
Cartesian
  0.0000000000000000  0.0000000000000000  0.0000000000000000
  0.0000000000000000  3.1163935000000000  3.1163935000000000
  1.6557335000000000  5.1216867598710003  2.0052932598709998
  1.6557335000000000  4.2274937401289998  5.1216867598710003
  1.6557335000000000  2.0052932598709998  1.1111002401290000
  1.6557335000000000  1.1111002401290000  4.2274937401289998
  0.0000000000000000  3.7716526300969999  0.6552591300970000
  0.0000000000000000  5.5775278699030002  3.7716526300969999
  0.0000000000000000  0.6552591300970000  2.4611343699030002
  0.0000000000000000  2.4611343699030002  5.5775278699030002
