Cd Cu O 
 1.0000000000000000
    -0.1160370000000000    0.0000000000000000    5.6641810000000001
     2.7668640000000000   -4.6854959999999997    2.8831709999999999
     2.7668640000000000    4.6854959999999997    2.8831709999999999
 Cd  Cu  O  
   2   4   8
Cartesian
  1.2964042499999999  1.1715707908319999  5.6897212500000007
  4.1212867500000003 -1.1715707908320008  5.7408017500000001
 -0.0580185000000000  0.0000000000000000  2.8320905000000001
  1.3254135000000000 -2.3427479999999998  4.2736760000000000
  1.3834320000000000 -2.3427479999999998  1.4415855000000000
  2.7668640000000000  0.0000000000000000  2.8831709999999999
  0.5230025674709999 -0.7009033466400000  4.4212617783490007
  2.0698059325289999 -0.7009033466400001  6.9581807216509999
  2.5066688602920002  1.6424303403600002  7.7464033713470011
  2.5646901271560001  3.0430703451359999  4.9143157545180003
  2.8530036397079996 -3.0430656596399994  6.5162101286530003
  2.9110193728440001 -1.6424256548639997  3.6841167454819996
  3.3478850674710001  0.7009033466400001  4.4723422783490001
  4.8946884325290005  0.7009033466400000  7.0092612216510002
