Ca Os O 
 1.0000000000000000
    -3.6056020000000002    3.7160419999999998    5.0841289999999999
     3.6056729999999999   -3.7167309999999998    5.0846900000000002
     3.6052059999999999    3.7163490000000001   -5.0846390000000001
 Ca  Os  O  
   4   4  14
Cartesian
  0.0000354999999999 -0.0003445000000000  5.0844094999999996
  0.0000000000000000  0.0000000000000000  0.0000000000000000
  1.8026384999999998  1.8578300000000001  2.5420899999999995
 -1.8028010000000001  1.8580209999999999  2.5420644999999999
  1.8028365000000000 -1.8583654999999999  2.5423450000000001
  1.8026030000000000  1.8581745000000001 -2.5423195000000001
  3.6054395000000001 -0.0001909999999998  0.0000255000000000
 -0.0001980000000001  3.7161955000000000 -0.0002550000000001
  1.4601177850139999  4.2055790018920005  3.8827106813329997
  5.0654174042059994 -0.4903672990079994  1.2017187911939995
  2.1463539077479998  0.4901505452190001  6.2860759419190000
  2.1462956530659998 -0.4907101740809999  3.8825090041990000
  2.1451592149860002 -0.4899190018919999  1.2014693186670002
 -1.4601404042060002  4.2060272990079994  3.8824612088060002
  1.4589230922520000  3.2255094547809997 -1.2018959419190003
  1.4589813469339998  4.2063701740810000  1.2016709958009997
  3.6052291878769998  2.5992629499490003 -2.5409288902980003
  0.0000478121229992  1.1163970500510003  7.6251088902979998
 -0.0001683667160000  2.0018373953529998  0.9735829795349997
  3.6054453667159998  1.7138226046470004  4.1105970204650006
 -0.0001248084220003  2.0011863383509998  4.1104908013549997
  3.6054018084219996  1.7144736616490002  0.9736891986450001
