Sb Ir
 1.0000000000000000
     6.5921630000000002    0.0000000000000000    0.0000000000000000
     0.0000000000000000    6.0313610000000004   -2.8067470000000001
     0.0000000000000000    0.0211350000000000    6.7472859999999999
 Sb  Ir 
   8   4
Cartesian
  0.8835014617490000  5.1345317637630004 -1.5647402485680002
  4.1795895539120007  0.9073967362370001  2.1316362485679998
  5.7086549460880001  0.9179642362370001  5.5052792485679998
  2.4125800382509999  5.1450992637630009  1.8089027514319997
  4.1995110704980005  3.9672440139890006  3.7078644753329999
  0.9034295704980000  2.0958194860110000  3.6063175246669998
  2.3926519295020001  2.0852519860109999  0.2326745246670000
  5.6887334295020002  3.9566765139890006  0.3342214753329998
  3.2915856448340000  4.4000587428400006 -0.6303201832230002
  6.5876671448340005  1.6418697571599998  1.1972161832229999
  3.3005773551659998  1.6524372571599999  4.5708591832229999
  0.0044958551660000  4.4106262428400003  2.7433228167769999
