Ti Pt
 1.0000000000000000
     3.9523709999999999    0.0000000000000000    0.0000000000000000
     0.0000000000000000    3.9523709999999999    0.0000000000000000
     0.0000000000000000    0.0000000000000000    3.9523709999999999
 Ti  Pt 
   1   3
Cartesian
  0.0000000000000000  0.0000000000000000  0.0000000000000000
  1.9761854999999999  1.9761854999999999  0.0000000000000000
  1.9761854999999999  0.0000000000000000  1.9761854999999999
  0.0000000000000000  1.9761854999999999  1.9761854999999999
