Al Cr
 1.0000000000000000
     2.9585379999999999    0.0000000000000000    0.0000000000000000
     0.0000000000000000    2.9585379999999999    0.0000000000000000
     0.0000000000000000    0.0000000000000000    8.6433479999999996
 Al  Cr 
   2   4
Cartesian
  0.0000000000000000  0.0000000000000000  0.0000000000000000
  1.4792689999999999  1.4792689999999999  4.3216739999999998
  1.4792689999999999  1.4792689999999999  7.0495319154959999
  1.4792689999999999  1.4792689999999999  1.5938160845039999
  0.0000000000000000  0.0000000000000000  2.7278579154959997
  0.0000000000000000  0.0000000000000000  5.9154900845039995
