Pd Pb
 1.0000000000000000
     4.0792590000000004    0.0000000000000000    0.0000000000000000
     0.0000000000000000    4.0792590000000004    0.0000000000000000
     0.0000000000000000    0.0000000000000000    4.0792590000000004
 Pd  Pb 
   3   1
Cartesian
  2.0396295000000002  0.0000000000000000  2.0396295000000002
  0.0000000000000000  2.0396295000000002  2.0396295000000002
  2.0396295000000002  2.0396295000000002  0.0000000000000000
  0.0000000000000000  0.0000000000000000  0.0000000000000000
