Ca Cr N 
 1.0000000000000000
     5.0286580000000001    0.0000000000000000    0.0000000000000000
     0.0000000000000000    6.5181709999999997   -1.2536160000000001
     0.0000000000000000   -0.0059480000000000    6.6374599999999999
 Ca  Cr  N  
   6   2   6
Cartesian
  1.2571645000000000  2.6198954799580001  0.6072700202000000
  3.7714935000000001  0.6925176679170000  5.7926360195960003
  3.7714935000000001  1.0888023275520000  2.4590042189919998
  1.2571645000000000  5.8196857597259992 -0.4087683463680000
  3.7714935000000001  3.8923731234469998  4.7765917543279999
  1.2571645000000000  5.4233946354519995  2.9248049707120001
  3.7714935000000001  4.5245372163069995  1.1577576628440001
  1.2571645000000000  1.9876988319310001  4.2260705550040001
  3.7714935000000001  2.8371557323709999  0.6493018217120000
  1.2571645000000000  0.8150862439860000  5.6444394744639999
  3.7714935000000001  5.6971693766089997 -0.2606349298440001
  1.2571645000000000  1.1709089426570001  2.6644942759999997
  1.2571645000000000  3.6749890733689998  4.7345306718400000
  3.7714935000000001  5.3413465827700000  2.7194164679800004
