Al Rh
 1.0000000000000000
     3.0069189999999999    0.0000000000000000    0.0000000000000000
     0.0000000000000000    3.0069189999999999    0.0000000000000000
     0.0000000000000000    0.0000000000000000    3.0069189999999999
 Al  Rh 
   1   1
Cartesian
  0.0000000000000000  0.0000000000000000  0.0000000000000000
  1.5034594999999999  1.5034594999999999  1.5034594999999999
