Al Cr Ru
 1.0000000000000000
     0.0000000000000000    2.9700069999999998    2.9700069999999998
     2.9700069999999998    0.0000000000000000    2.9700069999999998
     2.9700069999999998    2.9700069999999998    0.0000000000000000
 Al  Cr  Ru 
   1   1   2
Cartesian
  1.4850034999999999  1.4850034999999999  1.4850034999999999
  4.4550164400140000  4.4550164400140000  4.4550164400140000
  0.0000000000000000  0.0000000000000000  0.0000000000000000
  2.9700129400140001  2.9700129400140001  2.9700129400140001
