Mn Se
 1.0000000000000000
     4.1978730000000004    0.0000000000000000    0.0000000000000000
    -2.0989350000000000    3.6356690000000000    0.0000000000000000
     0.0000000000000000    0.0000000000000000    6.8045989999999996
 Mn  Se 
   2   2
Cartesian
  2.0989349010180001  1.2117793847070000  3.3978356830559999
  0.0000030989820002  2.4238896152930001  6.8001351830559997
  2.0989390989660004  1.2119611681569999  5.9652925409439996
 -0.0000010989660000  2.4237078318430001  2.5629930409439998
