In Te O 
 1.0000000000000000
     4.4619960000000001   -7.7284300000000004   -0.0000220000000000
     4.4619879999999998    7.7284259999999998    0.0000230000000000
     0.0000010000000000    0.0000140000000000    4.8462319999999997
 In  Te  O  
   6   3  18
Cartesian
  2.8097555771600002 -4.8666247415840003  4.8462181464690000
  2.8097316915530000  4.8666207659180003  0.0000193294240000
  3.3045210412559998  0.0000047903299999  4.8462129853459999
  5.7700270894000001  5.4628205601579998  2.4231131657049998
  5.7700193581970005 -5.4628040044260002  2.4230862038429999
  6.3079185904060004 -0.0000112842840008  2.4231070143409998
  4.4619880000009999  7.7284260000140002  0.0000278462320000
  4.4619867142549996  2.5761452246319996  2.4695460563200000
  4.4619715137949996 -2.5761043106560004  2.3767741759429999
  4.3143958315240001  6.1403687004999998  3.7847510877189996
  1.4491081920239999  0.6662085059899999  3.7847348295539995
  7.6224837053309997  0.9218544086939991  3.7847314193729997
  1.4491217056890000 -0.6662189903900001  1.0614829564510000
  7.6224796356609996 -0.9218704272880005  1.0614829039450000
  4.3143971637309999 -6.1403662966840002  1.0614576480200000
  4.6846411556870002  0.9970912997679997  3.5519958636349998
  5.7181665749550001  3.5584850864099993  3.5520034365119999
  2.9831887781470003  3.1728532119660002  3.5520020073319998
  5.7181251726619999 -3.5584452987760007  1.2942346913330001
  2.9832094445719997 -3.1728418863000005  1.2942258150160000
  4.6846283359600003 -0.9971046847120008  1.2942129550349999
  4.3740754995649995  4.1701304127519991  1.3873580041019999
  3.1255310990209999  1.7030003588040001  1.3873506815629999
  5.8863796462219993  1.8552800666339999  1.3873562805089998
  3.1255199033409999 -1.7029814322020003  3.4589110963289995
  5.8863819941580005 -1.8552868003420002  3.4588964236009998
  4.3740623957080000 -4.1701048770619993  3.4588798224699997
