Al Pt
 1.0000000000000000
     3.9602670000000000    0.0000000000000000    0.0000000000000000
     0.0000000000000000    5.5110690000000000    0.0000000000000000
     0.0000000000000000    0.0000000000000000   16.5001250000000006
 Al  Pt 
   8  16
Cartesian
  0.0000000000000000  1.1199814864560000 12.3750937500000013
  0.0000000000000000  4.3910875135440000  4.1250312500000001
  0.0000000000000000  3.7883749634280002  9.7608469452500017
  0.0000000000000000  1.7226940365719998  6.7392780547500006
  0.0000000000000000  3.7883749634280002 14.9893405547499992
  0.0000000000000000  1.7226940365719998  1.5107844452500001
  1.9801335000000000  0.0000000000000000  8.2500625000000003
  1.9801335000000000  0.0000000000000000  0.0000000000000000
  1.9801335000000000  0.2982535432110000  5.6691954481249995
  1.9801335000000000  5.2128154567889995 10.8309295518750002
  1.9801335000000000  3.0774139960139997  2.7648269454999999
  1.9801335000000000  2.4336550039859999 13.7352980544999994
  1.9801335000000000  3.0774139960139997  5.4852355545000000
  1.9801335000000000  2.4336550039859999 11.0148894455000015
  0.0000000000000000  1.5197489206469998  4.1250312500000001
  0.0000000000000000  3.9913200793530001 12.3750937500000013
  1.9801335000000000  5.2128154567889995 13.9192579481250007
  1.9801335000000000  0.2982535432110000  2.5808670518749999
  1.9801335000000000  2.7555345000000000  8.2500625000000003
  1.9801335000000000  2.7555345000000000  0.0000000000000000
  0.0000000000000000  1.1062203471629999  9.3885051245000000
  0.0000000000000000  4.4048486528369999  7.1116198755000006
  0.0000000000000000  1.1062203471629999 15.3616823755000009
  0.0000000000000000  4.4048486528369999  1.1384426245000001
