Na Ge O 
 1.0000000000000000
     4.8638360000000000    0.0000000000000000    0.0000000000000000
     0.0000000000000000    5.3831759999999997   -3.0894320000000000
     0.0000000000000000    0.0081770000000000    6.2489200000000000
 Na  Ge  O  
   4   2   6
Cartesian
  2.4161737628680000  2.7289470204740001  0.5333188724800000
  2.4161737628680000  0.9243722434619999  3.6236355007680001
  4.8480917628680000  2.6624059795260000  2.6261691275200003
  4.8480917628680000  4.4669807565379998 -0.4641475007679996
  2.6092680520680003  4.4941713994799999 -2.5792277523600000
  0.1773500520680000  0.8890046005199999 -0.5102042476399999
  1.9642553047640001  0.5729045058000000 -0.3287928006000000
  4.3961733047639999  4.8102714942000002 -2.7606391993999999
  2.3121800853520003  3.0518690939489996  2.7863697006399999
  4.7440980853520003  2.3394839060510000  0.3731182993600003
  2.3121800853520003  4.5251179601629996 -0.8812281658239999
  4.7440980853520003  0.8662350398370000  4.0407161658239996
