Nd Bi Cl O 
 1.0000000000000000
     3.9602830000000000    0.0000000000000000    0.0000000000000000
     0.0000000000000000    3.9602830000000000    0.0000000000000000
     0.0000000000000000    0.0000000000000000    9.1685189999999999
 Nd  Bi  Cl  O  
   1   2   1   4
Cartesian
  0.0000000000000000  0.0000000000000000  0.0000000000000000
  1.9801415000000000  1.9801415000000000  6.5958325686000006
  1.9801415000000000  1.9801415000000000  2.5726864314000002
  0.0000000000000000  0.0000000000000000  4.5842594999999999
  0.0000000000000000  1.9801415000000000  7.6951013226240006
  0.0000000000000000  1.9801415000000000  1.4734176773760002
  1.9801415000000000  0.0000000000000000  1.4734176773760002
  1.9801415000000000  0.0000000000000000  7.6951013226240006
