Hf Sn
 1.0000000000000000
     8.4484630000000003    0.0000000000000000    0.0000000000000000
    -4.2242309999999996    7.3165839999999998    0.0000000000000000
     0.0000000000000000    0.0000000000000000    5.7301940000000000
 Hf  Sn 
  10   6
Cartesian
 -0.0000038908979996  4.8777251055279995  0.0000000000000000
  4.2242358908980009  2.4388588944719998  2.8650970000000000
  4.2242358908980009  2.4388588944719998  0.0000000000000000
 -0.0000038908979996  4.8777251055279995  2.8650970000000000
  6.3793076843550001  0.0000000000000000  4.2976454999999998
  3.1896542197200004  5.5246428296399994  1.4325485000000000
 -1.0345775353650000  1.7919411703599999  1.4325485000000000
 -3.1896534646349997  5.5246428296399994  4.2976454999999998
  1.0345777802800002  1.7919411703599999  4.2976454999999998
  2.0691553156450002  0.0000000000000000  1.4325485000000000
  3.3192997311440005  0.0000000000000000  4.2976454999999998
  1.6596500620160006  2.8745980545920000  1.4325485000000000
 -2.5645813308719996  4.4419859454079997  1.4325485000000000
 -1.6596496691279998  2.8745980545920000  4.2976454999999998
  2.5645819379840002  4.4419859454079997  4.2976454999999998
  5.1291632688559998  0.0000000000000000  1.4325485000000000
