La Si Pd
 1.0000000000000000
     3.9926919999999999   -0.0013580000000000   -1.5790800000000000
    -0.6298280000000001    3.9427029999999998   -1.5790800000000000
     0.0012410000000000    0.0014540000000000    5.8084530000000001
 La  Si  Pd 
   1   2   2
Cartesian
 -0.6298233774800001  3.9426990559389998 -1.5790800000000000
  2.0893410610969996  2.4487547808140002 -0.5562972615030001
  1.2747593163830000  1.4940481632470000  3.2065902615030000
  2.8384036131200001  0.9847689764840001  1.3251465000000000
  0.5256967643600000  2.9580339675769998  1.3251465000000000
