Zr In
 1.0000000000000000
     4.3564579999999999    0.0000000000000000   -0.6927310000000000
    -0.1101530000000000    4.3550639999999996   -0.6927310000000000
    -0.0016060000000000   -0.0016470000000000   14.0347449999999991
 Zr  In 
   4   8
Cartesian
  2.9522597249270000  4.1448845317229992 11.5438078470129994
  1.9465629749270001  0.8794100317229999  5.2191663470129992
  1.2924392750729998  0.2085324682770000  1.1054751529869999
  2.2981360250730005  3.4740069682770001  7.4301166529869986
  3.7998601544740001  0.5461558352460000  2.8293787015459997
  2.6824044044739996  1.6340983352459999  9.8467512015459988
  0.4448388455260000  3.8072611647539993  9.8199042984540004
  1.5622945955259997  2.7193186647539997  2.8025317984539999
  0.1287422959530000  1.2490493771700000  7.8320591505880000
  3.3693505459529995  2.3386388771699993  0.1219556505880000
  4.1159567040470009  3.1043676228299999  4.8172238494119997
  0.8753484540470000  2.0147781228299997 12.5273273494119977
