Pr Rh O 
 1.0000000000000000
     5.4054019999999996    0.0000000000000000    0.0000000000000000
     0.0000000000000000    5.8273640000000002    0.0000000000000000
     0.0000000000000000    0.0000000000000000    7.8437340000000004
 Pr  Rh  O  
   4   4  12
Cartesian
  2.5824091838920000  3.3376984867320001  5.8828005000000001
  5.2851101838919998  5.4033475132679998  1.9609335000000001
  0.1202918161080000  0.4240164867320000  5.8828005000000001
  2.8229928161079996  2.4896655132680001  1.9609335000000001
  2.7027009999999998  0.0000000000000000  3.9218670000000002
  0.0000000000000000  2.9136820000000001  3.9218670000000002
  0.0000000000000000  2.9136820000000001  0.0000000000000000
  2.7027009999999998  0.0000000000000000  0.0000000000000000
  4.3888999376939992  1.1517843219640000  3.5230288135680001
  1.6861989376939996  1.7618976780359998  4.3207051864319999
  3.7192030623059997  4.0654663219640002  0.3988381864320000
  1.0165020623059999  4.6755796780359997  7.4448958135680003
  1.0165020623059999  4.6755796780359997  4.3207051864319999
  3.7192030623059997  4.0654663219640002  3.5230288135680001
  1.6861989376939996  1.7618976780359998  7.4448958135680003
  4.3888999376939992  1.1517843219640000  0.3988381864320000
  2.1421608125999998  0.1750656692880000  1.9609335000000001
  4.8448618125999996  2.7386163307119999  5.8828005000000001
  0.5605401874000000  3.0887476692880003  1.9609335000000001
  3.2632411873999998  5.6522983307120001  5.8828005000000001
