Ti Zn
 1.0000000000000000
     3.1237480000000000    0.0000000000000000    0.0000000000000000
     0.0000000000000000    3.1237480000000000    0.0000000000000000
     0.0000000000000000    0.0000000000000000    3.1237480000000000
 Ti  Zn 
   1   1
Cartesian
  1.5618740000000000  1.5618740000000000  1.5618740000000000
  0.0000000000000000  0.0000000000000000  0.0000000000000000
