Cd As
 1.0000000000000000
     4.3633540000000002    0.0000000000000000    1.8145970000000000
     2.1816779999999998    5.6838080000000000    0.9072990000000000
    -0.0008470000000000    0.0000000000000000    6.1553690000000003
 Cd  As 
   2   4
Cartesian
  2.1812540000000000  2.8419040000000000  3.9849832500000000
  0.0000000000000000  0.0000000000000000  0.0000000000000000
  3.4065574467610000  1.0702212597440000  5.6536319078030006
  4.4973965701749998  4.6135867402559994  6.1072814695100002
  4.2284660532389999  4.6135867402559994  3.6772823421970005
  0.9559499298249999  1.0702212597440000  2.3163342804900000
