Fe H 
 1.0000000000000000
     1.8965719999999999    1.8965719999999999    0.0000000000000000
     1.8965719999999999    0.0000000000000000   -1.8965719999999999
     0.0000000000000000    1.8965719999999999   -1.8965719999999999
 Fe  H  
   1   1
Cartesian
  0.0000000000000000  0.0000000000000000  0.0000000000000000
  1.8965719999999999  1.8965719999999999 -1.8965719999999999
