Zn Cd Pt
 1.0000000000000000
     2.9628580000000002    0.0000000000000000    0.0000000000000000
     0.0000000000000000    2.9628580000000002    0.0000000000000000
     0.0000000000000000    0.0000000000000000    7.3453679999999997
 Zn  Cd  Pt 
   1   1   2
Cartesian
  0.0000000000000000  0.0000000000000000  0.0000000000000000
  0.0000000000000000  0.0000000000000000  3.6726839999999998
  1.4814290000000001  1.4814290000000001  1.6490791882080000
  1.4814290000000001  1.4814290000000001  5.6962888117919999
