Na Mg Tl
 1.0000000000000000
     0.0000000000000000    3.6896510000000000    3.6896510000000000
     3.6896510000000000    0.0000000000000000    3.6896510000000000
     3.6896510000000000    3.6896510000000000    0.0000000000000000
 Na  Mg  Tl 
   1   1   2
Cartesian
  5.5344765000000002  5.5344765000000002  5.5344765000000002
  1.8448255000000000  1.8448255000000000  1.8448255000000000
  0.0000000000000000  0.0000000000000000  0.0000000000000000
  3.6896510000000000  3.6896510000000000  3.6896510000000000
