Cs C  O 
 1.0000000000000000
    10.3993389999999994    0.0000000000000000    0.0000000000000000
     0.0000000000000000    6.1661609999999998    0.0430590000000000
     0.0000000000000000    0.9208499999999999    7.9355479999999998
 Cs  C   O  
   8   4  12
Cartesian
  9.5318261406199998  2.2441970950440000  6.5038226118980003
  4.3321566406200001  5.3032389049559994  5.4425583881019994
  0.8675128593799999  4.8428139049559995  1.4747843881020000
  6.0671823593800003  1.7837720950439999  2.5360486118980003
  2.9500324908250000  2.5125820334459998  7.7663471815560001
  8.1497019908249992  5.0348539665540004  4.1800338184439996
  7.4493065091749999  4.5744289665540006  0.2122598184440000
  2.2496370091749998  2.0521570334460000  3.7985731815559998
  6.0350795998869993  2.1941054435759999  5.8564806074000000
  9.5639289001129999  1.7336804435759998  1.8887066073999998
  4.3642594001130002  4.8929055564240000  2.1221263925999998
  0.8354100998870000  5.3533305564239999  6.0899003925999997
  8.8349872329079986  0.6709431651900000  1.7127678563719999
  3.6353177329079998  5.9556428348099990  2.2980651436279995
  1.5643517670920000  6.4160678348099989  6.2658391436279999
  6.7640212670919997  1.1313681651900001  5.6805418563719998
  9.0871712036579986  2.7666021153089999  2.5097760426909996
  6.5118372963419997  3.2270271153089998  6.4775500426910000
  1.3121677963420000  4.3204088846909992  5.4688309573089997
  3.8875017036579997  3.8599838846909993  1.5010569573089998
  4.8213311478409997  2.2175492206979999  5.3867568798400001
 10.0210006478409994  5.3298867793019999  6.5596241201599996
  5.5780078521589997  4.8694617793020001  2.5918501201600002
  0.3783383521590000  1.7571242206979998  1.4189828798400002
