Mn Ga Pt
 1.0000000000000000
     2.1623910000000000   -3.7453129999999999    0.0000010000000000
     2.1623910000000000    3.7453140000000000    0.0000000000000000
     0.0000010000000000   -0.0000000000000000    5.5855829999999997
 Mn  Ga  Pt 
   2   2   2
Cartesian
  0.0000010000000000  0.0000000000000000  5.5855829999999997
  4.3247824999999995  0.0000010000000001  2.7927925000000000
  2.1623917500020000  1.2484408302090000  4.1891987544989995
  2.1623912499980000 -1.2484398302090001  1.3963852455010000
  2.1623917499789997 -1.2484398302090001  4.1890706194239993
  2.1623890876309999  1.2484370848949999  1.3965189661590001
