Ti Tc Ir
 1.0000000000000000
     0.0000000000000000    3.0888969999999998    3.0888969999999998
     3.0888969999999998    0.0000000000000000    3.0888969999999998
     3.0888969999999998    3.0888969999999998    0.0000000000000000
 Ti  Tc  Ir 
   2   1   1
Cartesian
  0.0000000000000000  0.0000000000000000  0.0000000000000000
  3.0888908222059999  3.0888908222059999  3.0888908222059999
  4.6333454999999999  4.6333454999999999  4.6333454999999999
  1.5444484999999999  1.5444484999999999  1.5444484999999999
