Gd Sb
 1.0000000000000000
     3.8405010000000002    0.0000000000000000    2.2173129999999999
     1.2801670000000001    3.6208580000000001    2.2173129999999999
    -0.0000000000000000   -0.0000000000000000    4.4346280000000000
 Gd  Sb 
   1   1
Cartesian
  0.0000000000000000  0.0000000000000000  0.0000000000000000
  2.5603340000000001  1.8104290000000001  4.4346269999999999
