Hf Al Cu
 1.0000000000000000
     6.2148770000000004    0.0000000000000000    0.0000000000000000
     0.0000000000000000    6.2148770000000004    0.0000000000000000
     0.0000000000000000    0.0000000000000000    6.2148770000000004
 Hf  Al  Cu 
   4   4   8
Cartesian
  3.1074385000000002  0.0000000000000000  0.0000000000000000
  3.1074385000000002  3.1074385000000002  3.1074385000000002
  0.0000000000000000  0.0000000000000000  3.1074385000000002
  0.0000000000000000  3.1074385000000002  0.0000000000000000
  0.0000000000000000  0.0000000000000000  0.0000000000000000
  0.0000000000000000  3.1074385000000002  3.1074385000000002
  3.1074385000000002  0.0000000000000000  3.1074385000000002
  3.1074385000000002  3.1074385000000002  0.0000000000000000
  4.6611577500000001  1.5537192500000001  4.6611577500000001
  1.5537192500000001  1.5537192500000001  4.6611577500000001
  4.6611577500000001  4.6611577500000001  1.5537192500000001
  1.5537192500000001  4.6611577500000001  1.5537192500000001
  1.5537192500000001  1.5537192500000001  1.5537192500000001
  4.6611577500000001  1.5537192500000001  1.5537192500000001
  1.5537192500000001  4.6611577500000001  4.6611577500000001
  4.6611577500000001  4.6611577500000001  4.6611577500000001
