Cd Se
 1.0000000000000000
     4.3460859999999997    0.0000000000000000    0.0000000000000000
    -2.1730420000000001    3.7638199999999999    0.0000000000000000
     0.0000000000000000    0.0000000000000000    7.0898399999999997
 Cd  Se 
   2   2
Cartesian
  2.1730455063759999  1.2546054120599999  3.5445867775199997
 -0.0000015063760004  2.5092145879399999  7.0895067775199996
  2.1730455063759999  1.2546054120599999  6.2100404848799995
 -0.0000015063760004  2.5092145879399999  2.6651204848799996
