Ca
 1.0000000000000000
     5.5262460000000004    0.0000000000000000    0.0000000000000000
     0.0000000000000000    5.5262460000000004    0.0000000000000000
     0.0000000000000000    0.0000000000000000    5.5262460000000004
 Ca 
   4
Cartesian
  0.0000000000000000  0.0000000000000000  0.0000000000000000
  0.0000000000000000  2.7631230000000002  2.7631230000000002
  2.7631230000000002  0.0000000000000000  2.7631230000000002
  2.7631230000000002  2.7631230000000002  0.0000000000000000
