Zn Pt Rh
 1.0000000000000000
     0.0000000000000000    3.0145350000000000    3.0145350000000000
     3.0145350000000000    0.0000000000000000    3.0145350000000000
     3.0145350000000000    3.0145350000000000    0.0000000000000000
 Zn  Pt  Rh 
   2   1   1
Cartesian
  0.0000000000000000  0.0000000000000000  0.0000000000000000
  3.0145350000000000  3.0145350000000000  3.0145350000000000
  1.5072675000000000  1.5072675000000000  1.5072675000000000
  4.5218024999999997  4.5218024999999997  4.5218024999999997
