Dy N 
 1.0000000000000000
     2.9939110000000002    0.0000000000000000    1.7285360000000001
     0.9979700000000000    2.8226849999999999    1.7285360000000001
     0.0000000000000000    0.0000000000000000    3.4570680000000000
 Dy  N  
   1   1
Cartesian
  0.0000000000000000  0.0000000000000000  0.0000000000000000
  1.9959405000000001  1.4113424999999999  3.4570699999999999
