Tm Rh
 1.0000000000000000
     3.3528229999999999    0.0000000000000000    0.0000000000000000
     0.0000000000000000    3.3528229999999999    0.0000000000000000
     0.0000000000000000    0.0000000000000000    3.3528229999999999
 Tm  Rh 
   1   1
Cartesian
  1.6764114999999999  1.6764114999999999  1.6764114999999999
  0.0000000000000000  0.0000000000000000  0.0000000000000000
