Pm Mg Al
 1.0000000000000000
     0.0000000000000000    3.7659910000000001    3.7659910000000001
     3.7659910000000001    0.0000000000000000    3.7659910000000001
     3.7659910000000001    3.7659910000000001    0.0000000000000000
 Pm  Mg  Al 
   2   1   1
Cartesian
  0.0000000000000000  0.0000000000000000  0.0000000000000000
  3.7659910000000001  3.7659910000000001  3.7659910000000001
  5.6489865000000004  5.6489865000000004  5.6489865000000004
  1.8830030319819999  1.8830030319819999  1.8830030319819999
