Sc Cd Rh
 1.0000000000000000
     0.0000000000000000    3.2020940000000002    3.2020940000000002
     3.2020940000000002    0.0000000000000000    3.2020940000000002
     3.2020940000000002    3.2020940000000002    0.0000000000000000
 Sc  Cd  Rh 
   1   1   2
Cartesian
  4.8031345958119998  4.8031345958119998  4.8031345958119998
  1.6010405958120002  1.6010405958120002  1.6010405958120002
  0.0000000000000000  0.0000000000000000  0.0000000000000000
  3.2020940000000002  3.2020940000000002  3.2020940000000002
