Ta N 
 1.0000000000000000
     3.8811450000000001    0.0000000000000000    0.0000000000000000
    -1.9405720000000000    5.1385180000000004    0.0000000000000000
     0.0000000000000000    0.0000000000000000   10.3094479999999997
 Ta  N  
   6  10
Cartesian
  1.9405689218430000  3.1138185835679999  7.7320859999999998
  0.0000001332680000  1.3696000336480001  9.6902110058800002
  1.9405728667319999  3.7689179663520003  0.6192369941200000
  1.9405728667319999  3.7689179663520003  4.5354870058800003
  0.0000040781570000  2.0246994164320000  2.5773619999999999
  0.0000001332680000  1.3696000336480001  5.7739609941200003
  1.9405690717400002  4.6543154488600003  9.0842216524400001
  0.0000022486670000  3.1662982679020000  0.7637857645280000
  1.9405707513330002  1.9722197320980002  9.5456622354719993
  0.0000022486670000  3.1662982679020000  4.3909382354720004
  1.9405747037899999  2.7050957233299999  2.5773619999999999
  1.9405707513330002  1.9722197320980002  5.9185097645279994
  1.9405690717400002  4.6543154488600003  6.3799503475599995
  0.0000000471150000  0.4842025511400000  3.9294976524400003
 -0.0000017037900000  2.4334222766700004  7.7320859999999998
  0.0000000471150000  0.4842025511400000  1.2252263475600000
