Ti Al Tc
 1.0000000000000000
     0.0000070000000000    3.1318139999999999    3.1318139999999999
     3.1318139999999999    0.0000070000000000    3.1318139999999999
     3.1318139999999999    3.1318139999999999    0.0000070000000000
 Ti  Al  Tc 
   2   1   1
Cartesian
  3.1318112363649999  3.1318112363649999  3.1318112363649999
  0.0000000000000000  0.0000000000000000  0.0000000000000000
  1.5659150136349997  1.5659150136349997  1.5659150136349997
  4.6977325136350006  4.6977325136349997  4.6977325136349997
