Co As S 
 1.0000000000000000
     3.4673630000000002    0.0010480000000000    0.0000000000000000
    -0.0013870000000000    4.5789790000000004    0.0000000000000000
     0.0000000000000000    0.0000000000000000    5.5454670000000004
 Co  As  S  
   2   2   2
Cartesian
  2.5995046008910001  3.3833006842910001  2.7583762859370000
  0.8664713991090001  1.1967263157090000  5.5311097859370006
  0.8667977302600001  0.1880734068560000  2.0690026467660001
  2.5991782697400003  4.3919535931439997  4.8417416922329997
  2.5997542446580004  2.5247970663950001  0.6839778997800001
  0.8662217553420000  2.0552299336050002  3.4567113997800001
