La Te
 1.0000000000000000
     7.9246650000000001   -0.0000000000000000   -2.8017919999999998
    -3.9623330000000001    6.8629600000000002   -2.8017919999999998
     0.0000000000000000    0.0000000000000000    8.4053769999999997
 La  Te 
   6   8
Cartesian
  2.4764573749999998  6.0050900000000000 -3.5022398749999999
  3.4670407500000002  2.5736100000000000 -0.7004477499999999
  6.4387902500000003  0.8578700000000000  3.5022407499999999
 -1.9811666250000002  5.1472199999999999  4.9031368749999995
  1.9811661249999999  1.7157400000000000  3.5022406249999998
 -0.4952918750000000  4.2893499999999998  0.7004483749999999
  2.5755910843079999  4.4610543962399998  1.8212186840669999
  0.7923156813649999  3.4314800000000001 -2.3814699659519998
  3.9623325000000000  0.0000000000000000  1.5408262478369998
 -1.3867412656730000  2.4019056037600000  3.2221145340480000
  3.9623325000000000  0.0000000000000000  5.7435147478369997
 -3.3679077656729999  5.8333856037600000  1.8212185340480000
  0.5944250843080000  1.0295743962400001  0.4203221840670001
  4.7546481813650008  3.4314800000000001 -3.7823659659519997
