Pa Cd Pt
 1.0000000000000000
     0.0000000000000000    3.4083770000000002    3.4083770000000002
     3.4083770000000002    0.0000000000000000    3.4083770000000002
     3.4083770000000002    3.4083770000000002    0.0000000000000000
 Pa  Cd  Pt 
   1   1   2
Cartesian
  5.1125655000000005  5.1125655000000005  5.1125655000000005
  1.7041885000000001  1.7041885000000001  1.7041885000000001
  0.0000000000000000  0.0000000000000000  0.0000000000000000
  3.4083770000000002  3.4083770000000002  3.4083770000000002
