Er In Ag
 1.0000000000000000
     0.0000000000000000    3.6546460000000001    3.6546460000000001
     3.6546460000000001    0.0000000000000000    3.6546460000000001
     3.6546460000000001    3.6546460000000001    0.0000000000000000
 Er  In  Ag 
   2   1   1
Cartesian
  3.6546460000000001  3.6546460000000001  3.6546460000000001
  0.0000000000000000  0.0000000000000000  0.0000000000000000
  5.4819763092920004  5.4819763092920004  5.4819763092920004
  1.8273230000000000  1.8273230000000000  1.8273230000000000
