Ga Te S 
 1.0000000000000000
     6.2059569999999997    0.0000000000000000   -3.5397580000000000
    -2.0190100000000002    5.8683480000000001   -3.5397580000000000
    -0.0191980000000000   -0.0269070000000000    7.1764099999999997
 Ga  Te  S  
   4   2   4
Cartesian
  5.1470953154779995  0.9340932580320002 -1.3872281374279998
  2.1517982389679999  1.0850004488159999  3.7725656989279996
  2.3917621147039996  0.9340932580320002  0.1843606989280004
  1.2553941411479996  3.6904413305520003  2.2009768625719999
  0.0336523166989997  4.3962444157410001  0.0589933876940003
  0.0060195666990000  0.0084369157410000  0.0105463876940000
  3.1774380067390000  2.1861255353430002 -1.6393278279539998
  0.1095184834409999  2.2352638351110001  3.6432460543899996
  3.0801115087169997  2.2352638351110001  1.9488771720459992
  2.1248634854189996  5.2454831348790005 -3.4847169456100002
