Ca Pm Hg
 1.0000000000000000
     0.0000000000000000    3.7676040000000000    3.7676040000000000
     3.7676040000000000    0.0000000000000000    3.7676040000000000
     3.7676040000000000    3.7676040000000000    0.0000000000000000
 Ca  Pm  Hg 
   1   1   2
Cartesian
  1.8838020000000000  1.8838020000000000  1.8838020000000000
  5.6514059999999997  5.6514059999999997  5.6514059999999997
  0.0000000000000000  0.0000000000000000  0.0000000000000000
  3.7676040000000000  3.7676040000000000  3.7676040000000000
