Sm Ag Hg
 1.0000000000000000
     0.0000000000000000    3.5625689999999999    3.5625689999999999
     3.5625689999999999    0.0000000000000000    3.5625689999999999
     3.5625689999999999    3.5625689999999999    0.0000000000000000
 Sm  Ag  Hg 
   1   1   2
Cartesian
  5.3438534999999998  5.3438534999999998  5.3438534999999998
  1.7812916251379998  1.7812916251379998  1.7812916251379998
  0.0000000000000000  0.0000000000000000  0.0000000000000000
  3.5625761251379999  3.5625761251379999  3.5625761251379999
