Li Al O 
 1.0000000000000000
     7.8982559999999999    0.0000000000000000    0.0000000000000000
     0.0000000000000000    7.8982559999999999    0.0000000000000000
     0.0000000000000000    0.0000000000000000    7.8982559999999999
 Li  Al  O  
   4  20  32
Cartesian
  0.9872820000000000  6.9109739999999995  2.9618460000000000
  2.9618460000000000  0.9872820000000000  6.9109739999999995
  4.9364100000000004  4.9364100000000004  4.9364100000000004
  6.9109739999999995  2.9618460000000000  0.9872820000000000
  7.8809588193600000  7.8809588193600000  7.8809588193600000
  0.0172971806400000  3.9318308193599996  3.9664251806400004
  0.9386445395520000  4.9364100000000004  1.0359194604480000
  0.9872820000000000  2.9132085395520000  6.9596114604479995
  1.0359194604480000  0.9386445395520000  4.9364100000000004
  1.9572668193600000  5.9063948193600000  5.9409891806399999
  1.9918611806400002  1.9918611806400002  1.9918611806400002
  2.9132085395520000  6.9596114604479995  0.9872820000000000
  2.9618460000000000  4.9850474604479995  3.0104834604480000
  3.0104834604480000  2.9618460000000000  4.9850474604479995
  3.9318308193599996  3.9664251806400004  0.0172971806400000
  3.9664251806400004  0.0172971806400000  3.9318308193599996
  4.8877725395520004  6.9109739999999995  6.8623365395520004
  4.9364100000000004  1.0359194604480000  0.9386445395520000
  4.9850474604479995  3.0104834604480000  2.9618460000000000
  5.9063948193600000  5.9409891806399999  1.9572668193600000
  5.9409891806399999  1.9572668193600000  5.9063948193600000
  6.8623365395520004  4.8877725395520004  6.9109739999999995
  6.9109739999999995  6.8623365395520004  4.8877725395520004
  6.9596114604479995  0.9872820000000000  2.9132085395520000
  4.8544892887679998  6.9928947112320001  0.9053612887679999
  4.8592835301599999  4.8569298498719995  2.9020088125439996
  6.8290532887679998  6.8290532887679998  6.8290532887679998
  6.8338475301599999  0.9274448125440000  1.0667621501279998
  6.8511368125439995  6.9881004698400000  3.0413261501280000
  6.9904541501280004  4.9962471874560004  0.9101555301600001
  0.9053612887679999  4.8544892887679998  6.9928947112320001
  0.9078018498720000  1.0471191874560000  3.0389724698400000
  0.9101555301600001  6.9904541501280004  4.9962471874560004
  0.9274448125440000  1.0667621501279998  6.8338475301599999
  1.0471191874560000  3.0389724698400000  0.9078018498720000
  1.0667621501279998  6.8338475301599999  0.9274448125440000
  2.8799252887680002  5.0183307112320001  1.0692027112319999
  2.8823658498720000  1.0644084698400000  4.8765728125439995
  2.8847195301599999  3.0216831874560004  6.8314938498719995
  2.9020088125439996  4.8592835301599999  4.8569298498719995
  3.0216831874560004  6.8314938498719995  2.8847195301599999
  3.0389724698400000  0.9078018498720000  1.0471191874560000
  3.0413261501280000  6.8511368125439995  6.9881004698400000
  3.0437667112319997  3.0437667112319997  3.0437667112319997
  4.8569298498719995  2.9020088125439996  4.8592835301599999
  4.8765728125439995  2.8823658498720000  1.0644084698400000
  4.9962471874560004  0.9101555301600001  6.9904541501280004
  5.0135364698400000  6.9708111874560004  5.0158901501280004
  5.0158901501280004  5.0135364698400000  6.9708111874560004
  5.0183307112320001  1.0692027112319999  2.8799252887680002
  6.8314938498719995  2.8847195301599999  3.0216831874560004
  6.9708111874560004  5.0158901501280004  5.0135364698400000
  6.9881004698400000  3.0413261501280000  6.8511368125439995
  6.9928947112320001  0.9053612887679999  4.8544892887679998
  1.0644084698400000  4.8765728125439995  2.8823658498720000
  1.0692027112319999  2.8799252887680002  5.0183307112320001
