Ca Sm Hg
 1.0000000000000000
     0.0000000000000000    3.7561619999999998    3.7561619999999998
     3.7561619999999998    0.0000000000000000    3.7561619999999998
     3.7561619999999998    3.7561619999999998    0.0000000000000000
 Ca  Sm  Hg 
   1   1   2
Cartesian
  1.8780809999999999  1.8780809999999999  1.8780809999999999
  5.6342505123239999  5.6342505123239999  5.6342505123239999
  0.0000000000000000  0.0000000000000000  0.0000000000000000
  3.7561544876760000  3.7561544876760000  3.7561544876760000
