Li Lu O 
 1.0000000000000000
     0.0000000000000000    4.3096150000000000    0.0000000000000000
     2.1548069999999999   -2.1548069999999999    4.9780160000000002
     4.3096150000000000    0.0000000000000000    0.0000000000000000
 Li  Lu  O  
   2   2   4
Cartesian
  2.1548072500000002  0.0000002500000000  2.4890080000000001
  2.1548075000000000  2.1548075000000000  0.0000000000000000
  0.0000000000000000  0.0000000000000000  0.0000000000000000
  4.3096147499999997  2.1548077499999998  2.4890080000000001
  2.1548050690739999  2.1548099309260000  2.7490446217920002
  4.3096169309259995 -0.0000019309260000  2.2289713782080001
  4.3096128190740002  2.1548096809259998  0.2600366217920000
  4.3096166809260001  2.1548058190740003  4.7179793782080006
