Sr Sb O 
 1.0000000000000000
     3.5274120000000000   -3.5275370000000001   -0.0002960000000000
    -0.0006410000000000    3.5276120000000000    8.6564770000000006
     0.0003720000000000   -7.0547019999999998   -0.0002150000000000
 Sr  Sb  O  
   4   2   1
Cartesian
  3.5170849735470004 -7.0545098141630005  5.7393673199380011
  1.7591950226720001 -1.7643610699940002  8.6507508652360006
  1.7590053931890000  1.7649723001489999  8.6508151439920020
  3.5172806672320003 -3.5276639796250002  2.9071366634130000
  3.5228711698760002 -3.5268540557680002  6.2645612256150010
  3.5223795873419999 -7.0557189462659995  2.3804965501710003
  3.5216815736400005  0.0002055694969998  8.6491869294269996
