Mg Ga Pd
 1.0000000000000000
     0.0000000000000000    3.0994649999999999    3.0994649999999999
     3.0994649999999999    0.0000000000000000    3.0994649999999999
     3.0994649999999999    3.0994649999999999    0.0000000000000000
 Mg  Ga  Pd 
   1   1   2
Cartesian
  4.6491913010700001  4.6491913010700001  4.6491913010700001
  1.5497325000000000  1.5497325000000000  1.5497325000000000
  0.0000000000000000  0.0000000000000000  0.0000000000000000
  3.0994649999999999  3.0994649999999999  3.0994649999999999
