Na Cr S 
 1.0000000000000000
     3.4026390000000002   -0.0306260000000000    5.8453309999999998
     1.5539600000000000    3.0272250000000001    5.8453309999999998
    -0.0506590000000000   -0.0306260000000000    6.7633789999999996
 Na  Cr  S  
   1   1   2
Cartesian
  2.4529700000000005  1.4829865000000002  9.2270205000000001
  0.0000000000000000  0.0000000000000000  0.0000000000000000
  3.5996647918400004  2.1762411651280003 13.5403942271760016
  1.3062752081600000  0.7897318348719999  4.9136467728239994
