Sr Si Pd
 1.0000000000000000
     3.9965160000000002    0.0000000000000000   -1.5985320000000001
    -0.6393830000000000    3.9450370000000001   -1.5985320000000001
     0.0233670000000000    0.0274580000000000    5.8535620000000002
 Sr  Si  Pd 
   1   2   2
Cartesian
  0.0000000000000000  0.0000000000000000  0.0000000000000000
  1.2717051344020001  1.4944064405180000  3.1794094763600000
  2.1087948655980004  2.4780885594820004 -0.5229114763599999
  2.8492247500000003  0.9999882500000000  1.3282490000000000
  0.5312752500000000  2.9725067500000004  1.3282490000000000
