Rb Hg O 
 1.0000000000000000
     3.9944910000000000    0.0000000000000000   -1.1149709999999999
    -0.3112180000000000    3.9823480000000000   -1.1149709999999999
     0.0008040000000000    0.0008690000000000    7.7156900000000004
 Rb  Hg  O  
   2   1   2
Cartesian
  2.4557477136210002  2.6551498213710003  1.0851487684559997
  1.2283292863790001  1.3280671786289999  4.4005992315439997
  0.0000000000000000  0.0000000000000000  0.0000000000000000
  3.1713552870939998  3.4288633049190000  3.6488657981140005
  0.5127217129060000  0.5543536950810000  1.8368822018860003
