Li Ag
 1.0000000000000000
    -2.0219179999999999    2.0219179999999999    4.0503070000000001
     2.0219179999999999   -2.0219179999999999    4.0503070000000001
     2.0219179999999999    2.0219179999999999   -4.0503070000000001
 Li  Ag 
   1   3
Cartesian
  0.0000000000000000  0.0000000000000000  0.0000000000000000
 -0.0000000000000000  2.0219139561640000  2.0251535000000001
  2.0219139561639996  0.0000000000000002  2.0251535000000001
  0.0000000000000000  0.0000000000000000  4.0503070000000001
