Na S 
 1.0000000000000000
     3.9793850000000002    0.0000000000000000    2.2974990000000002
     1.3264620000000000    3.7518009999999999    2.2974990000000002
     0.0000000000000000    0.0000000000000000    4.5949980000000004
 Na  S  
   2   1
Cartesian
  1.3264617500000000  0.9379502500000000  2.2974990000000002
  3.9793852500000000  2.8138507499999998  6.8924970000000005
  0.0000000000000000  0.0000000000000000  0.0000000000000000
