Na Si Pd
 1.0000000000000000
     5.1622789999999998    0.0000000000000000    2.4372150000000001
     1.7718570000000000    5.7177939999999996    2.9327529999999999
     0.0093850000000000   -0.0021010000000000    6.6658530000000003
 Na  Si  Pd 
   2   4   6
Cartesian
  4.9292279145449998  0.0000000000000000  2.3271869288250002
  0.9858082624810000  2.8578465000000000  4.8442428073850001
  3.2053423441460005  3.9444568962299997  7.5570452653700002
  1.7386742214280000  0.8922425400719999  2.1879664031240003
  4.4908699077280003  1.7712361037699997  4.8341363049200003
  4.5755030211239998  4.8234504599279999  9.5507288417959995
  2.6502390071509998  0.2840495764520000  4.3619081780390001
  3.3577657668310001  2.5802442252519997  2.8632925140390002
  6.8333349142879998  5.4316434235479996  8.8731225277760011
  3.0987994157980001  1.6161831331900001  6.8328322249899998
  3.8639872094300003  4.0995098668100001  5.2120844613900008
  6.1258081546080003  3.1354487747479998 10.3717381917760001
