Ga Ir
 1.0000000000000000
     3.0285009999999999    0.0000000000000000    0.0000000000000000
     0.0000000000000000    3.0285009999999999    0.0000000000000000
     0.0000000000000000    0.0000000000000000    3.0285009999999999
 Ga  Ir 
   1   1
Cartesian
  0.0000000000000000  0.0000000000000000  0.0000000000000000
  1.5142504999999999  1.5142504999999999  1.5142504999999999
