Dy O 
 1.0000000000000000
     8.6502599999999994    0.0000000000000000   -3.0583290000000001
    -4.3251299999999997    7.4913460000000001   -3.0583290000000001
     0.0000000000000000    0.0000000000000000    9.1749869999999998
 Dy  O  
  16  24
Cartesian
 -0.9416500030800000  5.3766588857360000  1.3316943131279999
 -2.9645825061599997  5.6185095000000000  4.7849636868719996
  6.6273274969199996  0.2418506142640000  4.3900233131280002
  2.9645825061599997  1.8728365000000000  4.3900233131280002
  4.1854975030799997  3.5038223857360000 -1.3316943131280001
  3.1042150030799998  5.8603601142640001 -4.3900233131279993
  5.2667800030800000  2.1146871142640000  1.7266346868719997
  7.2897125061599990  1.8728365000000000 -1.7266346868720004
 -2.3021974969199999  7.2494953857360001 -1.3316943131280001
  1.3605474938400000  5.6185095000000000 -1.3316943131280004
  0.1396324969199997  3.9875236142640000  4.3900233131279993
  1.2209149969199999  1.6309858857360000  7.4483523131279998
 -2.1625649999999998  3.7456730000000000 -1.5291645000000000
  4.3251299999999997  0.0000000000000000 -1.5291645000000000
  0.0000000000000000  0.0000000000000000  4.5874934999999999
  2.1625649999999998  3.7456730000000000  1.5291644999999998
 -1.8440840524499997  3.6575672796939998  5.3882527237410001
  0.8010443519100000  2.0271657189459997  5.2618244612099998
  2.3028332910300002  0.0881057203060000 -0.4763836750140000
  0.0064660693499998  3.4258149998380003  2.2034862862229998
  1.9270313955900000  3.5139132287980002 -0.7283991596010002
  6.4432888902899998  0.2317597712020000  2.0596163734049999
 -0.8583782751900003  5.5410864390899999 -0.9987095682660001
 -0.8075104212599999  2.0383652812160000 -0.8548335387900000
  0.9348465735899995  5.6959325609100002 -3.5347035000270002
  5.4125801353799998  1.7073077187840000 -0.4763836750140000
 -0.0829343677500000  0.3198580001620000  2.3299267820699998
  3.0653364095100000  1.7185072810539999  2.0596224900630000
  6.1692140524500001  3.8337787203060003 -2.3299237237410009
  3.5240856480899994  5.4641802810540003 -2.2034954612100006
  2.0222967089700004  7.4032402796939998  3.5347126750139997
  4.3186639306499996  4.0655310001620002  0.8548427137769999
  1.2597935904899997  5.7728387189459998  0.9987065099369998
  4.4080643677499998  7.1714879998379999  0.7284022179299996
 -1.0874501353800003  5.7840382812160005  3.5347126750140001
  3.3902834264100004  1.7954134390899998  6.5930325000269994
  5.1326404212600005  5.4529807187839996  3.9131625387899995
  5.1835082751900003  1.9502595609100000  4.0570385682660000
 -2.1181588902900002  7.2595862287979998  0.9987126265950002
  2.3980986044099994  3.9774327712019999  3.7867281596009996
