Pm Si Pd
 1.0000000000000000
     0.0000000000000000    3.6097489999999999    3.6097489999999999
     3.6097489999999999    0.0000000000000000    3.6097489999999999
     3.6097489999999999    3.6097489999999999    0.0000000000000000
 Pm  Si  Pd 
   2   1   1
Cartesian
  0.0000000000000000  0.0000000000000000  0.0000000000000000
  3.6097562194980002  3.6097562194980002  3.6097562194980002
  5.4146234999999994  5.4146234999999994  5.4146234999999994
  1.8048744999999999  1.8048744999999999  1.8048744999999999
