Mg Ni Sb
 1.0000000000000000
     3.6950419999999999    0.0000000000000000    2.1333329999999999
     1.2316810000000000    3.4837180000000001    2.1333329999999999
     0.0000000000000000    0.0000000000000000    4.2666670000000000
 Mg  Ni  Sb 
   1   1   1
Cartesian
  2.4633615000000000  1.7418590000000000  4.2666664999999995
  1.2316807500000000  0.8709295000000000  2.1333332499999997
  0.0000000000000000  0.0000000000000000  0.0000000000000000
