Au S 
 1.0000000000000000
     5.2739820000000002    0.0000000000000000    0.0000000000000000
     0.0000000000000000    5.2739820000000002    0.0000000000000000
     0.0000000000000000    0.0000000000000000    5.2739820000000002
 Au  S  
   4   2
Cartesian
  2.6369910000000001  2.6369910000000001  0.0000000000000000
  0.0000000000000000  2.6369910000000001  2.6369910000000001
  2.6369910000000001  0.0000000000000000  2.6369910000000001
  0.0000000000000000  0.0000000000000000  0.0000000000000000
  1.3184955000000000  1.3184955000000000  1.3184955000000000
  3.9554865000000001  3.9554865000000001  3.9554865000000001
