Er Co Si
 1.0000000000000000
     3.5938310000000002    0.0000000000000000   -1.3302659999999999
    -0.4924010000000000    3.5599390000000000   -1.3302659999999999
     0.0036850000000000    0.0042310000000000    5.5296159999999999
 Er  Co  Si 
   1   2   2
Cartesian
  0.0000000000000000  0.0000000000000000  0.0000000000000000
  0.5309995000000001  2.6720697499999999  1.4345420000000000
  2.5741155000000004  0.8921002500000000  1.4345420000000000
  1.9489429572850001  2.2370709671280000 -0.2544121964839999
  1.1561720427150002  1.3270990328719998  3.1234961964840005
