Pm Tl Cd
 1.0000000000000000
     0.0000010000000000    3.8394330000000001    3.8394330000000001
     3.8394330000000001    0.0000010000000000    3.8394330000000001
     3.8394330000000001    3.8394330000000001    0.0000010000000000
 Pm  Tl  Cd 
   2   1   1
Cartesian
  7.6788670000000003  7.6788670000000003  7.6788670000000003
  3.8394411788670002  3.8394411788670002  3.8394411788670006
  5.7591425711330002  5.7591425711329993  5.7591425711329993
  1.9197167500000001  1.9197167500000001  1.9197167500000001
