Ca Ge Pd
 1.0000000000000000
     4.0040979999999999    0.0000000000000000   -1.5925030000000000
    -0.6333680000000000    3.9536880000000001   -1.5925030000000000
     0.0290220000000000    0.0340410000000000    5.9030579999999997
 Ca  Ge  Pd 
   1   2   2
Cartesian
  0.0000000000000000  0.0000000000000000  0.0000000000000000
  1.2899527816359999  1.5130461787800000  3.2433822775399999
  2.1097992183640000  2.4746828212200001 -0.5253302775399999
  0.5405095000000000  2.9822865000000003  1.3590259999999998
  2.8592425000000001  1.0054425000000000  1.3590259999999998
