Li Si O 
 1.0000000000000000
     4.7694789999999996   -0.0006840000000000    0.0002720000000000
    -0.0000400000000000    5.3821349999999999   -2.1366999999999998
     0.0000200000000000    0.0050290000000000    7.8595470000000001
 Li  Si  O  
   4   4  10
Cartesian
  2.8355819717079997  3.7960176530119996 -0.6054515729359998
  0.4508624717080000  3.1830119597720001  5.6963304831440000
  0.4517226292660000  2.1657109044929999  0.0391912314050001
  2.8364821292659999  1.5537952427499999  6.3457138951110004
  0.4510684565590000  5.3224905265449998  0.2098369358690000
  0.4511970592819999  0.0310562349180000  5.5260495458859999
  2.8359165592419999  1.6191375704830000  1.6803696601260001
  2.8358279566390001  3.7339301043719999  4.0563206716949995
  2.3751110953759995  2.1502195573650003  0.2637587202460002
  4.7598705954160003  1.3884872153679999  6.1929238681500003
  2.5581335677229999  2.6770416954409999  2.8678015434759998
  2.3758425810239996  3.2019573580069998  5.4729628311000003
  0.1733740677230000  5.3685806080729996  1.7996415209320002
  4.4406359635039987  4.1186121258860000  4.0687814950119998
  2.0559164635039999  0.2117314166660000  2.0736223522519999
  2.0558316294559997  5.1415812774309995  3.6626089281190000
  4.4405911294160001  1.2340596956969998  1.6678147254170002
  4.7605620810640001  3.9630057201200000 -0.4558988786159998
