Ta Co Sb
 1.0000000000000000
     5.9725590000000004    0.0000000000000000    0.0000000000000000
     0.0000000000000000    5.9725590000000004    0.0000000000000000
     0.0000000000000000    0.0000000000000000    5.9725590000000004
 Ta  Co  Sb 
   4   4   4
Cartesian
  0.0000000000000000  0.0000000000000000  0.0000000000000000
  0.0000000000000000  2.9862795000000002  2.9862795000000002
  2.9862795000000002  0.0000000000000000  2.9862795000000002
  2.9862795000000002  2.9862795000000002  0.0000000000000000
  1.4931397500000001  4.4794192500000003  4.4794192500000003
  1.4931397500000001  1.4931397500000001  1.4931337774410001
  4.4794192500000003  4.4794192500000003  1.4931337774410001
  4.4794192500000003  1.4931397500000001  4.4794252225590006
  0.0000000000000000  0.0000000000000000  2.9862795000000002
  0.0000000000000000  2.9862795000000002  0.0000000000000000
  2.9862795000000002  0.0000000000000000  0.0000000000000000
  2.9862795000000002  2.9862795000000002  2.9862795000000002
