Ba Cd
 1.0000000000000000
     4.2519729999999996    0.0000000000000000    0.0000000000000000
     0.0000000000000000    4.2519729999999996    0.0000000000000000
     0.0000000000000000    0.0000000000000000    4.2519729999999996
 Ba  Cd 
   1   1
Cartesian
  0.0000000000000000  0.0000000000000000  0.0000000000000000
  2.1259864999999998  2.1259864999999998  2.1259864999999998
