Nd Te
 1.0000000000000000
     3.8974920000000002    0.0000000000000000    2.2502179999999998
     1.2991640000000000    3.6745920000000001    2.2502179999999998
    -0.0000000000000000   -0.0000000000000000    4.5004359999999997
 Nd  Te 
   1   1
Cartesian
  0.0000000000000000  0.0000000000000000  0.0000000000000000
  2.5983280000000000  1.8372960000000000  4.5004359999999997
