Hf
 1.0000000000000000
     3.2026450000000000    0.0000000000000000    0.0000000000000000
    -1.6013230000000001    2.7735720000000001    0.0000000000000000
     0.0000000000000000    0.0000000000000000    5.0669350000000000
 Hf 
   2
Cartesian
 -0.0000019346560000  1.8490489245240000  3.8002012499999998
  1.6013239346560000  0.9245230754760000  1.2667337500000000
