In S  Br
 1.0000000000000000
     3.9574470000000002    0.0000000000000000    0.0000000000000000
     0.0000000000000000    9.1479320000000008    0.0000000000000000
     0.0000000000000000    0.0000000000000000   15.1071899999999992
 In  S   Br 
  10  10   2
Cartesian
  0.0000000000000000  8.0903487294120016  6.0719120191800000
  1.9787235000000001  1.0575832705880002 13.6255070191799987
  1.9787235000000001  5.5362735588080003  7.9547966448300000
  0.0000000000000000  3.6116584411920001  0.4012016448300000
  1.9787235000000001  1.6917362126920004  4.5760131725699997
  0.0000000000000000  7.4561957873080011 12.1296081725700002
  1.9787235000000001  4.3727846794560001  3.8650688111699996
  0.0000000000000000  4.7751473205440007 11.4186638111699992
  1.9787235000000001  7.9085793205720005  1.5911647867499998
  0.0000000000000000  1.2393526794280001  9.1447597867499990
  1.9787235000000001  6.3882570576960003  5.4674884544699998
  0.0000000000000000  2.7596749423040001 13.0210834544700003
  1.9787235000000001  3.9948836085360000 10.0157497190099996
  0.0000000000000000  5.1530483914640000  2.4621547190099999
  0.0000000000000000  7.0574648752240003  8.5015107437399990
  1.9787235000000001  2.0904671247760001  0.9479157437399999
  1.9787235000000001  0.5352729451160001  6.8482856204699996
  0.0000000000000000  8.6126590548840003 14.4018806204699992
  0.0000000000000000  0.2580082741280000  3.8140971521100000
  1.9787235000000001  8.8899237258720003 11.3676921521100009
  0.0000000000000000  3.6727117393600004  6.9600486120899996
  1.9787235000000001  5.4752202606400013 14.5136436120899983
