Ti Sb
 1.0000000000000000
     7.1932530000000003    0.0000000000000000    0.0000000000000000
     0.0000000000000000    8.3371279999999999    0.0000000000000000
     0.0000000000000000    0.0000000000000000   10.2075530000000008
 Ti  Sb 
  20  12
Cartesian
  5.7108026824830009  7.8150236961279997  9.6436163194090003
  2.1141761824829999  0.5221043038720000  5.6677131805910008
  1.4824359310110000  3.6464930446399997  0.5646001715360001
  5.0790696242640010  4.6906349553600002  4.5391763284640003
  1.4824431242639999  0.5220709553599999  0.5646001715360001
  5.0790624310110006  7.8150570446399996  4.5391763284640003
  5.7108026824830009  4.6906683038720001  9.6436163194090003
  2.1141761824829999  3.6464596961279998  5.6677131805910008
  1.3041367689000001  6.2528459999999999  7.8126365000340003
  4.9007632689000005  2.0842820000000000  7.4986929999660008
  5.8892241298950001  2.0842820000000000  2.3950594057080004
  2.2925976298950004  6.2528459999999999  2.7087170942920000
  3.4393172501430000  6.2528459999999999 10.1617517096889998
  7.0359437501429998  2.0842820000000000  5.1495777903110005
  3.7542234799770000  2.0842820000000000  0.0463218755140000
  0.1575969799770000  6.2528459999999999  5.0574546244860006
  4.8561003610230005  6.2528459999999999  7.3264711657500001
  1.2594738610230001  2.0842820000000000  7.9848583342500010
  2.3368505223510003  2.0842820000000000  2.8813472306280006
  5.9334770223510001  6.2528459999999999  2.2224292693720002
  6.7260512176500002  4.2375453970720001  6.9177709511829999
  3.1294247176500001  4.0995826029279998  8.3935585488170013
  0.4670794970490000  0.0687479574880000  3.2890675201069999
  4.0637059970490004  8.2683800425119998  1.8146987723400001
  0.4670794970490000  4.0998160425119998  3.2890777276600005
  4.0637059970490004  4.2373119574880000  1.8147089798930001
  6.7260512176500002  8.2681466029280006  6.9177709511829999
  3.1294247176500001  0.0689813970720000  8.3935585488170013
  2.9530749271020000  6.2528459999999999  5.3730517481400000
  6.5497014271019998  2.0842820000000000  9.9382777518600012
  4.2403363244640007  2.0842820000000000  4.8337867231500002
  0.6437098244640000  6.2528459999999999  0.2699897768500000
