Nd O 
 1.0000000000000000
     9.0861739999999998    0.0000000000000000   -3.2124459999999999
    -4.5430869999999999    7.8688580000000004   -3.2124459999999999
     0.0000000000000000    0.0000000000000000    9.6373429999999995
 Nd  O  
  16  24
Cartesian
 -0.9973802338060000  5.6619423476040005  1.4105102875859998
 -3.1305322176120001  5.9016435000000005  5.0143879624139993
  6.9530220161939997  0.2397011523960000  4.6229576898959994
  3.1305322176120001  1.9672145000000001  4.6229575375860001
  4.4046954838060000  3.6947278476040002 -1.4105066898960001
  3.2689237338060000  6.1413446523960005 -4.6229537875859998
  5.5404672338059999  2.2069156523959998  1.8019407124139999
  7.6736192176119999  1.9672145000000001 -1.8019369624140000
 -2.4099350161939999  7.6291568476040004 -1.4105066898960001
  1.4125547823879998  5.9016435000000005 -1.4105065375860000
  0.1383915161939999  4.1741301523959997  4.6229576898959994
  1.2741632661939999  1.7275133476040001  7.8354047875859996
 -2.2715434999999999  3.9344290000000002 -1.6062230000000000
  4.5430869999999999  0.0000000000000000 -1.6062230000000000
  0.0000000000000000  0.0000000000000000  4.8186714999999998
  2.2715434999999999  3.9344290000000002  1.6062254999999999
 -1.9621002151689999  3.8376184400260001  5.6559615067289997
  0.8574713265540000  2.1179660815640000  5.5435643586110004
  2.4069138633389997  0.0968105599740000 -0.5227579240940000
  0.0085955206039998  3.6180379575360000  2.3311170128210001
  2.0329814585429995  3.7148485175100001 -0.7689331327959998
  6.7673324212429993  0.2195804824900000  2.1730261982789996
 -0.9219604465189999  5.8328145990740010 -1.0394210954560001
 -0.8660668471580000  2.1328539609000003 -0.8813312861389999
  0.9842461692889999  5.9704724009260000 -3.7352039856090000
  5.6950139673720006  1.8015750391000001 -0.5227567793440000
 -0.0708812433740000  0.3163910424640000  2.4435130682440001
  3.2408020252759995  1.8164629184359999  2.1730260587540000
  6.5051872151689993  4.0312395599739999 -2.4435105067289999
  3.6856156734459997  5.7508919184360003 -2.3311133586109998
  2.1361731366609997  7.7720474400260011  3.7352089240939996
  4.5344914793959994  4.2508200424640004  0.8813339871789992
  1.3022849747239993  6.0523950815640006  1.0394249412459999
  4.6139682433739999  7.5524669575359997  0.7689379317559998
 -1.1519269673719998  6.0672829609000001  3.7352077793439995
  3.5588408307109991  1.8983855990740000  6.9476549856090006
  5.4091538471579996  5.7360040391000000  4.0937822861390005
  5.4650474465189998  2.0360434009260002  4.2518720954560001
 -2.2242454212430003  7.6492775175100007  1.0394248017209990
  2.5101055414570008  4.1540094824900002  3.9813841327960002
