Ca Al Ge
 1.0000000000000000
     4.1696710000000001    0.0000000000000000    0.0000000000000000
    -2.0848350000000000    3.6110410000000002    0.0000000000000000
     0.0000000000000000    0.0000000000000000    7.1537059999999997
 Ca  Al  Ge 
   1   2   2
Cartesian
  0.0000000000000000  0.0000000000000000  0.0000000000000000
  2.0848377515020000  1.2036791296530001  2.6627095250839998
 -0.0000017515020001  2.4073618703470001  4.4909964749159998
 -0.0000017515020001  2.4073618703470001  1.8745642739460000
  2.0848377515020000  1.2036791296530001  5.2791417260540001
