Dy Ag Ge
 1.0000000000000000
     3.5578180000000001   -6.1623219999999996    0.0000000000000000
     3.5578180000000001    6.1623219999999996    0.0000000000000000
     0.0000000000000000    0.0000000000000000    4.1999259999999996
 Dy  Ag  Ge 
   3   3   3
Cartesian
  2.0795268319100000  3.6018463973899997  0.0000000000000000
  2.0795268319100000 -3.6018463973899997  0.0000000000000000
  2.9565823361800003 -0.0000000000000000  0.0000000000000000
  5.3315325857199998 -0.0000000000000001  2.0999629999999998
  0.8920517071400000 -1.5450789950599999  2.0999629999999998
  0.8920517071400000  1.5450789950599999  2.0999629999999998
  0.0000000000000000  0.0000000000000000  0.0000000000000000
  3.5578180000000001 -2.0541114415480002  2.0999629999999998
  3.5578180000000001  2.0541114415479997  2.0999629999999998
