Al Sb O 
 1.0000000000000000
     3.0145270000000002    0.0000000000000000    0.0000000000000000
     0.0000000000000000    4.4992089999999996   -0.0543540000000000
     0.0000000000000000   -0.0543540000000000    4.4992089999999996
 Al  Sb  O  
   1   1   4
Cartesian
  1.5072635000000001  2.2224274999999998  2.2224274999999998
  0.0000000000000000  0.0000000000000000  0.0000000000000000
  0.0000000000000000  3.0635007425199996  3.0635007425199996
  1.5072635000000001  0.8652471549759999  3.5796078450239994
  1.5072635000000001  3.5796078450239999  0.8652471549759999
  0.0000000000000000  1.3813542574800000  1.3813542574800000
