Sr Cu Br O 
 1.0000000000000000
    -1.9970019999999999    1.9970019999999999    9.4660840000000004
     1.9970019999999999   -1.9970019999999999    9.4660840000000004
     1.9970019999999999    1.9970019999999999   -9.4660840000000004
 Sr  Cu  Br  O  
   2   1   2   2
Cartesian
 -0.0000000000000000  0.0000000000000000 11.1683320213840016
  0.0000000000000000 -0.0000000000000000  7.7638359786160001
  0.0000000000000000  0.0000000000000000  0.0000000000000000
  0.0000000000000001 -0.0000000000000001 15.7536084501440001
  0.0000000000000000 -0.0000000000000000  3.1785595498560002
  1.9970019999999999  0.0000000000000000  0.0000000000000000
  0.0000000000000000  1.9970019999999999  0.0000000000000000
