Rh F 
 1.0000000000000000
     4.3387310000000001    0.0025550000000000    3.0992869999999999
     1.5962710000000000    4.0344160000000002    3.0992869999999999
     0.0037550000000000    0.0025550000000000    5.3319919999999996
 Rh  F  
   2   6
Cartesian
  2.9693784999999999  2.0197630000000002  5.7652830000000002
  0.0000000000000000  0.0000000000000000  0.0000000000000000
  3.0127913586399999  3.0270895000000002  4.0563198050500002
  3.3858909807600002  0.3322339262100000  4.8082501949499994
  4.9139930894000008  2.3494419262099999  5.9819284999999995
  2.5528660192400001  3.7072920737900006  6.7223158050499991
  2.9259656413599995  1.0124365000000002  7.4742461949500001
  1.0247639105999999  1.6900840737900000  5.5486374999999999
