Na Si
 1.0000000000000000
     6.2136769999999997    0.0000000000000000    2.0811869999999999
     2.9700129999999998    6.0379269999999998    1.4491099999999999
     0.0446890000000000    0.0074180000000000   10.1830739999999995
 Na  Si 
   8   8
Cartesian
  5.0952773964850007  1.1679411534859998  7.3569826336289994
  3.8369021183399998  1.8621493465140000 11.1140611959459985
  4.1331016035149997  4.8774038465139995  6.3563883663709992
  5.3914768816600001  4.1831956534860000  2.5993098040540001
  8.7060145443189985  5.0959543711859991 12.0116908491049994
  6.2791186687639993  3.9720631288140003  8.9410522352679997
  0.5223644556810000  0.9493906288140000  1.7016801508949999
  2.9492603312359997  2.0732818711859999  4.7723187647319998
  6.8674454188469989  2.0475646857930001 11.1784372614579990
  1.3395669216930000  0.9825258142069999  7.0497216392819997
  2.3609335811529997  3.9977803142069996  2.5349337385420001
  7.8888120783069988  5.0628191857929998  6.6636493607179990
  2.7379434250690000  2.6231683653459998  8.1035071835319989
  2.4047506071819997  0.4069221346540000  9.0982997798490004
  6.4904355749309994  3.4221766346539999  5.6098638164679997
  6.8236283928179997  5.6384228653459996  4.6150712201509991
