Al Fe Rh
 1.0000000000000000
    -0.0000140000000000    2.9870399999999999    2.9870369999999999
     2.9870390000000002   -0.0000140000000000    2.9870369999999999
     2.9870390000000002    2.9870399999999999   -0.0000140000000000
 Al  Fe  Rh 
   1   1   2
Cartesian
  1.4935100259360001  1.4935105259340000  1.4935090259400001
  4.4805539740920004  4.4805494999860001  4.4805449999859999
  5.9740580259220009  5.9740630129739998  5.9740570129770001
  2.9870379740640005  2.9870389740659999  2.9870359740600003
