Cu Sb
 1.0000000000000000
     4.0345000000000004    0.0000000000000000    0.0000000000000000
     0.0000000000000000    4.0345000000000004    0.0000000000000000
     0.0000000000000000    0.0000000000000000    6.1459770000000002
 Cu  Sb 
   4   2
Cartesian
  0.0000000000000000  0.0000000000000000  0.0000000000000000
  2.0172500000000002  2.0172500000000002  0.0000000000000000
  2.0172500000000002  0.0000000000000000  1.6291694371830001
  0.0000000000000000  2.0172500000000002  4.5168075628170001
  2.0172500000000002  0.0000000000000000  4.2961731344940004
  0.0000000000000000  2.0172500000000002  1.8498038655060003
