Na Hg
 1.0000000000000000
     5.2057270000000004    0.0000000000000000    0.0000000000000000
     0.0000000000000000    5.9504370000000000   -2.5002369999999998
     0.0000000000000000   -0.0165200000000000    6.4543470000000003
 Na  Hg 
   4   4
Cartesian
  1.3014317500000001  1.0459265286349999  4.8599385458800004
  3.9042952500000006  4.8879904713649998 -0.9058285458799997
  1.3014317500000001  3.7221664127050000  0.8437180760400003
  3.9042952500000006  2.2117505872950001  3.1103919239600004
  3.9042952500000006  5.2112565181529993  2.2968349320400003
  1.3014317500000001  0.7226604983670000  1.6572686136130002
  1.3014317500000001  4.1261653877029998  3.9252260324399999
  3.9042952500000006  1.8077456618600001  0.0288864677970000
