Cd Se O 
 1.0000000000000000
     2.8247460000000002    4.2254670000000001    0.0000000000000000
    -2.8247460000000002    4.2254670000000001    0.0000000000000000
     0.0000000000000000    0.0000000000000000    7.2418839999999998
 Cd  Se  O  
   2   2   8
Cartesian
  0.0000000000000000  0.0000000000000000  0.0000000000000000
  0.0000000000000000  0.0000000000000000  3.6209419999999999
 -0.0000000000000000  3.0573535497180000  1.8104709999999999
  0.0000000000000000  5.3935804502820002  5.4314130000000000
 -1.3598496728759999  4.0341885598439999  1.8104709999999999
 -1.3598496728760001  4.4167454401560002  5.4314130000000000
  0.0000000000000001  2.2084825822200003  0.4108972562760000
  0.0000000000000001  2.2084825822200003  3.2100447437240001
 -0.0000000000000002  6.2424514177800008  4.0318392562760001
 -0.0000000000000002  6.2424514177800008  6.8309867437239999
  1.3598496728759997  4.0341885598439999  1.8104709999999999
  1.3598496728760003  4.4167454401560002  5.4314130000000000
