Ce Fe
 1.0000000000000000
     4.5012359999999996   -0.0000340000000000    2.5987320000000000
     1.5003839999999999    4.2437940000000003    2.5987339999999999
    -0.0000370000000000   -0.0000260000000000    5.1975309999999997
 Ce  Fe 
   2   4
Cartesian
  0.7501963745890000  0.5304497747120001  1.2993824213890000
  5.2513866254109995  3.7132842252880001  9.0956145786110003
  2.2505994999999999 -0.0000300000000000  3.8981314999999999
  0.7501734999999999  2.1218840000000001  3.8981325000000000
  3.0007914999999996  2.1218669999999999  5.1974985000000000
  3.0008099999999995  2.1218800000000000  2.5987330000000002
