La Tl
 1.0000000000000000
     3.9723780000000000    0.0000000000000000    0.0000000000000000
     0.0000000000000000    3.9723780000000000    0.0000000000000000
     0.0000000000000000    0.0000000000000000    3.9723780000000000
 La  Tl 
   1   1
Cartesian
  0.0000000000000000  0.0000000000000000  0.0000000000000000
  1.9861890000000000  1.9861890000000000  1.9861890000000000
