Li La Hg
 1.0000000000000000
     0.0000000000000000    3.6829610000000002    3.6829610000000002
     3.6829610000000002    0.0000000000000000    3.6829610000000002
     3.6829610000000002    3.6829610000000002    0.0000000000000000
 Li  La  Hg 
   1   1   2
Cartesian
  5.5244415000000000  5.5244415000000000  5.5244415000000000
  1.8414805000000001  1.8414805000000001  1.8414805000000001
  0.0000000000000000  0.0000000000000000  0.0000000000000000
  3.6829536340780002  3.6829536340780002  3.6829536340780002
