Be P 
 1.0000000000000000
     6.9155790000000001    0.0009400000000000   -1.5881680000000000
    -0.3645890000000000    6.9060519999999999   -1.5875330000000001
     0.0003680000000000   -0.0002670000000000    7.9179029999999999
 Be  P  
   8  16
Cartesian
  2.0134253447739998  0.3244336313580000  0.8521378481809999
  1.8346903347070000  3.7291522864970004  0.0588163907369997
  5.6263972882940001  2.3146362580540001  0.7244181067739999
  5.4477780160769997  5.7193894623699997 -0.0690253841239998
  4.5370572123950001  1.1659931138369999  4.0176399128869997
  1.1277013709850001  1.1644174631260000  4.8112981487910007
  2.9243671151160000  4.8774662707449998  4.6835435669700001
  6.3336832904130000  4.8790073823520004  3.8899978125749999
  0.5146745616060000  6.0721400346330006  2.3714415814230003
  4.0234152631090003  6.0729146035190009  1.5453938666939997
  0.6993647381529999  2.5682502453280001  3.1970388491290000
  4.2155647093320008  2.5618711050329996  2.3710649598769997
  1.9904424940700001  5.7349883912579998  0.7694284025250000
  2.1791360127900008  2.3143102107040003  1.5903674262750001
  5.2820375065109992  3.7294231020509998 -0.8072976445760000
  5.4708656719490003  0.3089452220850000  0.0134036311290001
  4.3553647546079999  4.6084691824939990  3.1518676758380000
  0.9295138373700002  4.6161100529349994  3.9732439156189998
  3.1061673258989999  1.4349142432080000  5.5494994740339996
  3.2455920825429998  3.4817862319220003 -1.5877829211390002
 -0.1532900779080000  3.4741172265780000  7.0925817795860002
  3.0733396123520005  6.8766566464479997 -2.3499394141719998
  6.5318100692409997  1.4271559327329999  4.7284369926120000
 -0.3337047018230000  6.8767259827669998 -1.5874723306840002
