Ca H  Rh
 1.0000000000000000
    -3.6352479999999998    3.6352509999999998    3.6352440000000001
     3.6352479999999998   -3.6352519999999999    3.6352440000000001
     3.6352479999999998    3.6352519999999999   -3.6352449999999998
 Ca  H   Rh 
   4  12   3
Cartesian
  1.8176239999999999  1.8176260000000000 -1.8176224999999999
  1.8176239999999999 -1.8176260000000000  1.8176220000000001
 -1.8176239999999999  1.8176254999999999  1.8176220000000001
  1.8176239999999999  1.8176254999999999  1.8176215000000002
  0.0000000000000002 -0.0000007328230001  5.3279808276240006
  0.0000000000000000  1.9425111800310000 -0.0000002671769999
  1.9425093097919999  0.0000000000000001 -0.0000002671769999
  0.0000000000000000 -0.0000002671770000  1.9425071723760001
  0.0000000000000002  5.3279918199690002 -0.0000007328229996
  5.3279866902079993  0.0000000000000001 -0.0000007328229996
  0.0000000000000002  3.6352512499999996  1.8176215000000002
  0.0000000000000002  1.8176252499999999  3.6352437500000003
  1.8176239999999999  3.6352514999999999 -0.0000007499999998
  3.6352479999999998  1.8176257499999999 -0.0000007499999998
  3.6352479999999998 -0.0000002500000000  1.8176215000000002
  1.8176239999999999 -0.0000005000000001  3.6352437500000003
  3.6352479999999998  0.0000000000000000 -0.0000004999999998
  0.0000000000000000 -0.0000005000000001  3.6352440000000001
  0.0000000000000000  3.6352514999999999 -0.0000004999999998
