Dy Sb Pt
 1.0000000000000000
     4.0236739999999998    0.0000000000000000    2.3230700000000000
     1.3412249999999999    3.7935569999999998    2.3230700000000000
     0.0000000000000000    0.0000000000000000    4.6461399999999999
 Dy  Sb  Pt 
   1   1   1
Cartesian
  2.6824494999999997  1.8967784999999999  4.6461399999999999
  0.0000000000000000  0.0000000000000000  0.0000000000000000
  1.3412247499999999  0.9483892500000000  2.3230700000000000
