Rb Na Er F 
 1.0000000000000000
    -4.4798549999999997   -4.4798549999999997    0.0000000000000000
    -4.4798549999999997    0.0000000000000000   -4.4798549999999997
     0.0000000000000000   -4.4798549999999997   -4.4798549999999997
 Rb  Na  Er  F  
   2   1   1   6
Cartesian
 -2.2399274999999998 -2.2399274999999998 -2.2399274999999998
 -6.7197824999999991 -6.7197824999999991 -6.7197824999999991
  0.0000000000000000  0.0000000000000000  0.0000000000000000
 -4.4798549999999997 -4.4798549999999997 -4.4798549999999997
 -4.4798549999999997 -4.4798549999999997 -2.3207440841999998
 -4.4798549999999997 -2.3207440841999998 -4.4798549999999997
 -4.4798549999999997 -6.6389659157999992 -4.4798549999999997
 -6.6389659157999992 -4.4798549999999997 -4.4798549999999997
 -4.4798549999999997 -4.4798549999999997 -6.6389659157999992
 -2.3207440841999998 -4.4798549999999997 -4.4798549999999997
