Th Pt
 1.0000000000000000
     5.8963250000000000   -0.0000000000000000    0.0000000000000000
    -2.9481630000000001    5.1063669999999997    0.0000000000000000
     0.0000000000000000    0.0000000000000000    5.0170040000000000
 Th  Pt 
   2   6
Cartesian
 -0.0000003333330000  3.4042412624219995  3.7627429659920004
  2.9481652814960002  1.7021206312109998  1.2542510000000000
  0.0000027883659999  1.6319591486309999  1.2542510000000000
  1.5348483553480001  4.2903899788679993  1.2542510000000000
 -1.5348491955520001  4.2903899788679993  1.2542510000000000
  2.9481651079589999  3.4744078513689995  3.7627429659920004
  1.4133165928140001  0.8159821274989999  3.7627429659920004
  4.4830023510640000  0.8159821274989999  3.7627429659920004
