La Ga Pd
 1.0000000000000000
     5.4436809999999998    0.0000000000000000    0.0000000000000000
    -2.7218410000000000    4.7143660000000001    0.0000000000000000
     0.0000000000000000    0.0000000000000000    4.2902139999999997
 La  Ga  Pd 
   1   3   2
Cartesian
  0.0000000000000000  0.0000000000000000  0.0000000000000000
  2.7218404999999999  0.0000000000000000  2.1451069999999999
  1.3609199999999999  2.3571830000000000  2.1451069999999999
 -1.3609205000000000  2.3571830000000000  2.1451069999999999
  2.7218430551739998  1.5714537618780000  0.0000000000000000
 -0.0000030551740002  3.1429122381220003  0.0000000000000000
