Sr Al N 
 1.0000000000000000
     5.7306179999999998    0.0032530000000000   -0.0013830000000000
    -0.7637470000000000    7.2112119999999997    0.0029880000000000
    -1.8794990000000000   -2.9939619999999998    7.8114970000000001
 Sr  Al  N  
   6   6  10
Cartesian
  3.1857302997060000  1.2292773709570004  4.7507020400029996
 -0.0983582997060000  2.9912256290429999  3.0623999599969998
  1.5301742306760002  3.5618029487949996  6.8639139253950008
  1.5571977693240000  0.6587000512049999  0.9491880746050000
  2.9092765344589995  4.1054767802269998  1.6283713541180000
  0.1780954655410000  0.1150262197730000  6.1847306458820004
  3.1459714521079998 -0.6189436735579997  7.6046594670130006
 -0.0585994521080000  4.8394466735580002  0.2084425329870000
  2.1988324048439996  5.2149825290359999  4.4996635049490008
  0.8885395951560001 -0.9944795290359999  3.3134384950510003
 -1.3729026927629999  4.2675568085799993  5.5397673882699996
  4.4602746927629999 -0.0470538085800001  2.2733346117300002
  3.8821938715769995 -1.5538256193979998  6.1038853843979997
 -0.7948218715770000  5.7743286193980001  1.7092166156020001
  3.1789431098970002  3.6445149607489999  4.1564306061209999
 -0.0915711098970002  0.5759880392510000  3.6566713938790003
  2.3088759647680002  1.0214151310909996  7.1202754101889996
  0.7784960352319999  3.1990878689089999  0.6928265898110001
  0.2816103843029997  5.0051212426080003  4.7917528411969998
  2.8057616156970000 -0.7846182426080001  3.0213491588030004
 -0.9995361627549999  2.9966445137300002  6.8650083731400002
  4.0869081627549999  1.2238584862699999  0.9480936268600001
