Fe P 
 1.0000000000000000
     2.7153649999999998    0.0000000000000000    0.0000000000000000
     0.0000000000000000    4.9182240000000004    0.0000000000000000
     0.0000000000000000    0.0000000000000000    5.6270300000000004
 Fe  P  
   2   4
Cartesian
  1.3576824999999999  2.4591120000000002  2.8135150000000002
  0.0000000000000000  0.0000000000000000  0.0000000000000000
  1.3576824999999999  1.6180956960000001  4.8921398820000004
  1.3576824999999999  3.3001283040000002  0.7348901180000000
  0.0000000000000000  0.8410163040000002  2.0786305090299999
  0.0000000000000000  4.0772076960000003  3.5484051180000007
