La S  F 
 1.0000000000000000
     4.0486690000000003    0.0000000000000000    0.0000000000000000
     0.0000000000000000    4.0486690000000003    0.0000000000000000
     0.0000000000000000    0.0000000000000000    6.9627809999999997
 La  S   F  
   2   2   2
Cartesian
  3.0365017500000002  3.0365017500000002  5.3611673004749996
  1.0121672500000001  1.0121672500000001  1.6016136995249999
  1.0121672500000001  1.0121672500000001  4.5347200096800000
  3.0365017500000002  3.0365017500000002  2.4280609903199997
  1.0121672500000001  3.0365017500000002  0.0000000000000000
  3.0365017500000002  1.0121672500000001  0.0000000000000000
