Mn Sn Pd
 1.0000000000000000
     3.9150830000000001    0.0000000000000000    2.2603730000000000
     1.3050280000000001    3.6911749999999999    2.2603730000000000
    -0.0000000000000000    0.0000000000000000    4.5207480000000002
 Mn  Sn  Pd 
   1   1   2
Cartesian
  0.0000000000000000  0.0000000000000000  0.0000000000000000
  2.6100555000000001  1.8455874999999999  4.5207470000000001
  1.3050277500000000  0.9227937500000000  2.2603735000000000
  3.9150832500000003  2.7683812500000000  6.7811205000000001
