Al Ir
 1.0000000000000000
     4.3006250000000001    0.0000000000000000    0.0000000000000000
    -2.1503130000000001    3.7244500000000000    0.0000000000000000
     0.0000000000000000    0.0000000000000000    7.7950080000000002
 Al  Ir 
   6   2
Cartesian
  0.0000000000000000  0.0000000000000000  1.9487520000000000
  0.0000000000000000  0.0000000000000000  5.8462560000000003
 -0.0000024836460001  2.4829679081500000  4.5146503733759999
  2.1503144836460000  1.2414820918500000  0.6171463733760001
  2.1503144836460000  1.2414820918500000  3.2803576266239998
 -0.0000024836460001  2.4829679081500000  7.1778616266239998
 -0.0000024836460001  2.4829679081500000  1.9487520000000000
  2.1503144836460000  1.2414820918500000  5.8462560000000003
