Na Zn Ge
 1.0000000000000000
     5.4327370000000004    0.0000000000000000    0.0000000000000000
     0.0000000000000000    5.7290570000000001   -1.2332160000000001
     0.0000000000000000    0.0032970000000000    5.8602819999999998
 Na  Zn  Ge 
   4   2   2
Cartesian
  4.0745527500000005  0.1869728335630000  3.9610284967839995
  1.3581842500000001  5.5453811664369992  0.6660375032159996
  1.3581842500000001  1.8210433971569997  5.2800245578100000
  4.0745527500000005  3.9113106028430003 -0.6529585578100000
  0.0000000000000000  2.8661770000000000  2.3135329999999996
  2.7163685000000002  2.8661770000000000  2.3135329999999996
  4.0745527500000005  1.3218922971080000  1.0670106737320000
  1.3581842500000001  4.4104617028920003  3.5600553262679999
