Ca Ge
 1.0000000000000000
     3.5937049999999999    3.5937049999999999    0.0000000000000000
     3.5937049999999999    0.0000000000000000   -3.5937049999999999
     0.0000000000000000    3.5937049999999999   -3.5937049999999999
 Ca  Ge 
   2   1
Cartesian
  1.7968525000000000  1.7968525000000000 -1.7968525000000000
  5.3905574999999999  5.3905574999999999 -5.3905574999999999
  0.0000000000000000  0.0000000000000000  0.0000000000000000
