Mg P  N 
 1.0000000000000000
     4.7068770000000004    0.0000000000000000    0.0000000000000000
     0.0000000000000000    4.8790909999999998   -2.7831070000000002
     0.0000000000000000    0.0055460000000000    5.6170439999999999
 Mg  P   N  
   4   2   6
Cartesian
  2.2170896870640004  4.0495177766119994  0.5173675574059998
  2.2170896870640004  2.4590509864970000  3.2587316358029996
  4.5705281870640002  0.8351192233880000  2.3165694425940000
  4.5705281870640002  2.4255860135030001 -0.4247946358030001
  2.3157787771230005  0.7897432255229999  0.4581881002229999
  4.6692172771229998  4.0948937744769998  2.3757488997769998
  1.6264848817350002  4.3503993666729999  2.5239864763729996
  3.9799233817349999  0.5342376333269999  0.3099505236269999
  1.9775520096570001  0.7955097295550000  2.0365094992490000
  4.3309905096570001  4.0891272704449992  0.7974275007510000
  1.9775520096570001  2.1627973999400001 -0.3201780642540002
  4.3309905096570001  2.7218396000599996  3.1541150642539995
