Tb Ge Pt
 1.0000000000000000
     4.2332000000000001    0.0000000000000000   -0.9918709999999999
    -0.9346780000000000    7.6774730000000000   -3.9891070000000002
    -0.0042820000000000    0.0093350000000000    9.5110849999999996
 Tb  Ge  Pt 
   4   8   4
Cartesian
  0.1971939754640000  5.3932573454760000  0.8415932677179996
 -0.2475476032260000  2.0333633784389997 -1.0564974996509999
  3.0970460245360005  2.2935506545240001  3.6885137322820003
 -0.6914123967740000  5.6534446215610004  6.5784754996509989
  0.7980336555920000  0.3787807725480000  3.4059135755500001
  2.4962063444080003  7.3080272274519995  1.1241934244500000
  2.7782117825000001  4.9916261387299992  2.3277628538480002
  0.5160282175000001  2.6951818612700000  2.2023441461519999
  1.8935775057160003  4.4102520978499999 -1.4477720517810004
  0.9376779737920000  7.1254590537280000  4.0019195380959998
  2.3565620262079996  0.5613489462720000  0.5281874619040001
  1.4006624942839998  3.2765559021499997  5.9778790517809988
  0.9204027688520001  4.6446472506180001  3.9282194753049993
  2.3738372311479998  3.0421607493820000  0.6018875246949998
  1.9016462719159999  6.9206818957980003 -1.4133545662070004
  1.3925937280839999  0.7661261042019999  5.9434615662069996
