Re B 
 1.0000000000000000
     2.9067620000000001    0.0000000000000000    0.0000000000000000
    -1.4533799999999999    2.5173299999999998    0.0000000000000000
     0.0000000000000000    0.0000000000000000    7.4729130000000001
 Re  B  
   2   4
Cartesian
  1.4533827867140001  0.8391091608899999  5.6046847500000005
 -0.0000007867140000  1.6782208391100000  1.8682282500000000
  1.4533827867140001  0.8391091608899999  3.3792811502519999
 -0.0000007867140000  1.6782208391100000  7.1157376502520009
  1.4533827867140001  0.8391091608899999  0.3571753497480000
 -0.0000007867140000  1.6782208391100000  4.0936318497479993
