Nd Pd
 1.0000000000000000
    -3.8903639999999999   -0.0010870000000000    0.0000000000000000
    -0.0000000000000000    0.0000000000000000   -4.6363599999999998
    -1.9466930000000000   -5.3912160000000000    0.0000000000000000
 Nd  Pd 
   2   2
Cartesian
 -1.9462765794379999 -3.9194653743079999 -3.4772699999999999
 -3.8907804205619998 -1.4728376256919999 -1.1590900000000000
 -1.9458249740100000 -0.9203756189780000 -3.4772699999999999
 -3.8912320259900000 -4.4719273810220006 -1.1590900000000000
