Nd Mg
 1.0000000000000000
     4.5248830000000000   -0.0000000000000000    2.6124410000000000
     1.5082940000000000    4.2661009999999999    2.6124410000000000
    -0.0000000000000000   -0.0000000000000000    5.2248849999999996
 Nd  Mg 
   1   3
Cartesian
  0.0000000000000000  0.0000000000000000  0.0000000000000000
  4.5248827500000006  3.1995757500000002  7.8373252499999992
  3.0165885000000001  2.1330505000000000  5.2248834999999998
  1.5082942500000001  1.0665252500000000  2.6124417499999999
