Al Pd I 
 1.0000000000000000
     3.9968979999999998   -0.0000000000000000   -0.8108130000000000
    -0.1644820000000000    3.9935130000000001   -0.8108130000000000
     0.0564750000000000    0.0588500000000000   10.5351470000000003
 Al  Pd  I  
   1   5   2
Cartesian
  1.9162079999999999  1.9967565000000000 -0.8108130000000000
  0.2540934478180000  2.3472290681240002  1.2525324793700001
  2.3347834478179998  0.3504725681240000  1.2525324793700001
  1.5541075521820000  3.7018904318760000  7.6609885206300001
  3.6347975521820000  1.7051339318760002  7.6609885206300001
  0.0000000000000000  0.0000000000000000  0.0000000000000000
  0.6996988804770001  0.7291113507610001  3.4491734589430001
  3.1891921195229997  3.3232516492389998  5.4643475410570002
