Ce Re Si
 1.0000000000000000
     2.0835309999999998   -6.8880140000000001    0.0000000000000000
     2.0835309999999998    6.8880140000000001    0.0000000000000000
     0.0000000000000000    0.0000000000000000    4.1158999999999999
 Ce  Re  Si 
   1   4   2
Cartesian
  0.0000000000000000  0.0000000000000000  0.0000000000000000
  2.0835309999999998  4.2903648322359995  2.0579499999999999
  2.0835309999999998  2.6944257644639995  0.0000000000000000
  2.0835309999999998 -4.2903648322359995  2.0579499999999999
  2.0835309999999998 -2.6944257644640000  0.0000000000000000
  2.0835309999999998  1.2246337850879998  2.0579499999999999
  2.0835309999999998 -1.2246337850879994  2.0579499999999999
