Sb Pt
 1.0000000000000000
     5.3969940000000003    0.0000000000000000    0.0000000000000000
     0.0000000000000000    6.5878870000000003    0.0000000000000000
     0.0000000000000000    0.0000000000000000   11.1131620000000009
 Sb  Pt 
   8  12
Cartesian
  2.6984970000000001  5.0124201754980007  9.3868434149199995
  2.6984970000000001  1.5754668245020000  1.7263185850800002
  0.0000000000000000  5.0124201754980007  1.7263185850800002
  0.0000000000000000  1.5754668245020000  9.3868434149199995
  0.0000000000000000  1.7184766754979999  3.8302624149200004
  0.0000000000000000  4.8694103245019997  7.2828995850800009
  2.6984970000000001  1.7184766754979999  7.2828995850800009
  2.6984970000000001  4.8694103245019997  3.8302624149200004
  0.0000000000000000  4.1414290473410000  9.9005271020460004
  0.0000000000000000  2.4464579526590002  1.2126348979540003
  2.6984970000000001  2.4464579526590002  9.9005271020460004
  2.6984970000000001  4.1414290473410000  1.2126348979540003
  4.0477455000000004  0.0000000000000000  0.0000000000000000
  1.3492485000000001  0.0000000000000000  0.0000000000000000
  2.6984970000000001  0.8474855473410001  4.3439461020460000
  2.6984970000000001  5.7404014526590004  6.7692158979540009
  0.0000000000000000  5.7404014526590004  4.3439461020460000
  0.0000000000000000  0.8474855473410001  6.7692158979540009
  1.3492485000000001  3.2939435000000001  5.5565810000000004
  4.0477455000000004  3.2939435000000001  5.5565810000000004
