Sm Mg
 1.0000000000000000
     4.5008910000000002   -0.0000000000000000    2.5985900000000002
     1.5002970000000000    4.2434810000000001    2.5985900000000002
    -0.0000000000000000   -0.0000000000000000    5.1971819999999997
 Sm  Mg 
   1   3
Cartesian
  0.0000000000000000  0.0000000000000000  0.0000000000000000
  3.0005940000000000  2.1217405000000000  5.1971810000000005
  1.5002970000000000  1.0608702500000000  2.5985905000000002
  4.5008910000000002  3.1826107500000003  7.7957715000000007
