Ba Al B  O 
 1.0000000000000000
     8.4389170000000000   -2.5270280000000001    0.0000000000000000
     8.4389170000000000    2.5270280000000001    0.0000000000000000
     7.6821999999999999    0.0000000000000000    4.3110320000000000
 Ba  Al  B   O  
   1   2   2   7
Cartesian
  0.0000000000000000  0.0000000000000000  0.0000000000000000
 13.9458013060500008  0.0000000000000001  2.4479117453999999
 10.6142326939499991 -0.0000000000000001  1.8631202545999999
 18.1197790843500002  0.0000000000000001  3.1805716337999996
  6.4402549156499997 -0.0000000000000000  1.1304603661999999
 14.8851512880819996 -1.2020314087600001  1.5188455501120002
 14.4257544511180011 -0.3321070738159999  4.1360385890560005
 14.7857020265080017  1.5341384825760001  2.0854099976159999
 12.2800170000000008  0.0000000000000000  2.1555160000000000
  9.6748827119180003 -1.2020314087600001  2.7921864498880002
  9.7743319734920000  1.5341384825760001  2.2256220023840001
 10.1342795488820006 -0.3321070738160000  0.1749934109440000
