Na Se
 1.0000000000000000
     4.1393620000000002    0.0000000000000000    2.3898609999999998
     1.3797870000000001    3.9026290000000001    2.3898609999999998
     0.0000000000000000    0.0000000000000000    4.7797250000000000
 Na  Se 
   2   1
Cartesian
  4.1393617500000000  2.9269717499999999  7.1695852499999999
  1.3797872500000001  0.9756572500000000  2.3898617499999997
  0.0000000000000000  0.0000000000000000  0.0000000000000000
