Th As
 1.0000000000000000
     3.6826260000000000    0.0000000000000000    2.1261660000000000
     1.2275419999999999    3.4720149999999999    2.1261660000000000
     0.0000000000000000    0.0000000000000000    4.2523309999999999
 Th  As 
   1   1
Cartesian
  2.4550839999999998  1.7360074999999999  4.2523315000000004
  0.0000000000000000  0.0000000000000000  0.0000000000000000
