Sc Cr C 
 1.0000000000000000
     3.2579959999999999    0.0000000000000000    0.0000000000000000
    -1.6289979999999999    2.8215070000000000    0.0000000000000000
     0.0000000000000000    0.0000000000000000    9.0257819999999995
 Sc  Cr  C  
   2   2   4
Cartesian
  0.0000000000000000  0.0000000000000000  4.5128909999999998
  0.0000000000000000  0.0000000000000000  0.0000000000000000
 -0.0000016289980000  1.8810056071690000  2.2564454999999999
  1.6289996289980002  0.9405013928310000  6.7693364999999996
 -0.0000016289980000  1.8810056071690000  7.5321865688580001
  1.6289996289980002  0.9405013928310000  3.0192955688579999
 -0.0000016289980000  1.8810056071690000  6.0064864311419992
  1.6289996289980002  0.9405013928310000  1.4935954311419999
