Sm Rh
 1.0000000000000000
     4.6319119999999998   -0.0000000000000000    2.6742360000000001
     1.5439700000000001    4.3670090000000004    2.6742360000000001
    -0.0000000000000000    0.0000000000000000    5.3484730000000003
 Sm  Rh 
   2   4
Cartesian
  5.4038967499999995  3.8211328750000004  9.3598268749999995
  0.7719852500000000  0.5458761250000000  1.3371181249999999
  3.0879409999999998  2.1835045000000002  5.3484724999999997
  3.0879409999999998  2.1835045000000002  2.6742360000000001
  0.7719850000000000  2.1835045000000002  4.0113545000000004
  2.3159559999999999  0.0000000000000000  4.0113545000000004
