Ta Cu Se
 1.0000000000000000
     5.6675779999999998    0.0000000000000000    0.0000000000000000
     0.0000000000000000    5.6675779999999998    0.0000000000000000
     0.0000000000000000    0.0000000000000000    5.6675779999999998
 Ta  Cu  Se 
   1   3   4
Cartesian
  0.0000000000000000  0.0000000000000000  0.0000000000000000
  2.8337889999999999  0.0000000000000000  0.0000000000000000
  0.0000000000000000  0.0000000000000000  2.8337889999999999
  0.0000000000000000  2.8337889999999999  0.0000000000000000
  1.4103201095200000  1.4103201095200000  1.4103201095200000
  4.2572578904800000  4.2572578904800000  1.4103201095200000
  4.2572578904800000  1.4103201095200000  4.2572578904800000
  1.4103201095200000  4.2572578904800000  4.2572578904800000
