Co Se
 1.0000000000000000
     3.6559409999999999    0.0000000000000000   -0.0000000000000000
     0.0000000000000000    4.8553540000000002   -0.0000750000000000
    -0.0000000000000000   -0.0001100000000000    5.8795659999999996
 Co  Se 
   2   4
Cartesian
  3.6559300321769999  0.0000000000000000  0.0000000000000000
  1.8279704999999999  2.4276219999999999  2.9397454999999999
  0.0000036559410000  0.9977145651340001  2.2053803965699998
  0.0000036559410000  3.8575294348660001  3.6741106034300000
  1.8279741559410001  3.4253074178420002  0.7340697002850000
  1.8279741559410001  1.4299365821579999  5.1454212997150002
