Lu B 
 1.0000000000000000
    -3.7213759999999998   -3.7213759999999998    0.0000000000000000
    -3.7213759999999998    0.0000000000000000   -3.7213759999999998
     0.0000000000000000   -3.7213759999999998   -3.7213759999999998
 Lu  B  
   1  12
Cartesian
  0.0000000000000000  0.0000000000000000  0.0000000000000000
 -2.4621777242559997 -2.4621777242559997 -3.7213759999999998
 -2.4621777242559997 -3.7213759999999998 -4.9805742757439999
 -3.7213759999999998 -2.4621777242559997 -4.9805742757439999
 -2.4621777242559997 -4.9805742757439999 -3.7213759999999998
 -2.4621777242559997 -3.7213759999999998 -2.4621777242559997
 -3.7213759999999998 -4.9805742757439999 -2.4621777242559997
 -4.9805742757439999 -2.4621777242559997 -3.7213759999999998
 -4.9805742757439999 -3.7213759999999998 -2.4621777242559997
 -3.7213759999999998 -2.4621777242559997 -2.4621777242559997
 -4.9805742757439999 -4.9805742757439999 -3.7213759999999998
 -4.9805742757439999 -3.7213759999999998 -4.9805742757439999
 -3.7213759999999998 -4.9805742757439999 -4.9805742757439999
