Rb P 
 1.0000000000000000
     6.1841160000000004   -0.0240420000000000   -2.3596100000000000
    -1.4128179999999999    6.0206150000000003   -2.3596100000000000
     0.0136980000000000    0.0172160000000000    8.6171450000000007
 Rb  P  
   4   6
Cartesian
  0.4932645000000002  4.5180587499999998  1.9489625000000004
  4.2917315000000000  1.4957302500000000  1.9489625000000004
  0.7113227310700001  4.3304986795150002 -2.3596100000000000
  4.0599752689299997  1.6660743204849999 -2.3596100000000000
  4.0790217361080003  5.1265196064100005  2.0567329317399996
  0.7059742638920000  0.8872693935900000  1.8411920682600003
  0.6476175842040002  0.8139268378850001  6.7276208171450005
  1.3358773960100001  1.6789323491540000 -0.0587727596049997
  4.1373784157960003  5.1998621621150001 -2.8296958171449997
  3.4491186039900010  4.3348566508460005  3.9566977596050004
