Cs Zr F 
 1.0000000000000000
     6.3881540000000001    0.0000000000000000    0.0000000000000000
    -3.1940759999999999    5.5323029999999997    0.0000000000000000
     0.0000000000000000    0.0000000000000000    4.9606240000000001
 Cs  Zr  F  
   2   1   6
Cartesian
  3.1940805274100001  1.8440991558989999  1.5038578112160002
 -0.0000025274100001  3.6882038441009999  3.4567661887840004
  0.0000000000000000  0.0000000000000000  0.0000000000000000
  4.9236730424100008  0.8455184643989999  3.8540079980800002
  3.1940808884100007  3.8412605388989998  3.8540079980800002
  1.4644876514100003  0.8455184643989999  3.8540079980800002
 -1.7295950424099999  4.6867845356009994  1.1066160019200000
 -0.0000028884100000  1.6910424611010000  1.1066160019200000
  1.7295903485899997  4.6867845356009994  1.1066160019200000
