Hf Ga
 1.0000000000000000
     4.5735479999999997    0.0000000000000000    2.5591520000000001
     2.2867760000000001    4.7222569999999999    1.2795770000000000
    -0.0191400000000000    0.0000000000000000    5.4005549999999998
 Hf  Ga 
   4   2
Cartesian
  1.8419134210120001  2.3611285000000000  2.0746148117479999
  3.4205880406040001  3.8112202905319998  4.6196397479239995
  3.4205959593959996  0.9110367094680001  4.6196442520760002
  4.9992705789879999  2.3611285000000000  7.1646691882519997
  1.1433869999999999  0.0000000000000000  0.6397880000000000
  3.4301610000000000  0.0000000000000000  1.9193640000000001
