Li Hg
 1.0000000000000000
     3.3506140000000002    0.0000000000000000    0.0000000000000000
     0.0000000000000000    3.3506140000000002    0.0000000000000000
     0.0000000000000000    0.0000000000000000    3.3506140000000002
 Li  Hg 
   1   1
Cartesian
  1.6753070000000001  1.6753070000000001  1.6753070000000001
  0.0000000000000000  0.0000000000000000  0.0000000000000000
