In N 
 1.0000000000000000
     3.5506220000000002    0.0000000000000000    0.0000000000000000
    -1.7753110000000001    3.0749270000000002    0.0000000000000000
     0.0000000000000000    0.0000000000000000    5.7325590000000002
 In  N  
   2   2
Cartesian
  1.7753127753109998  1.0249746416909999  2.8690139306429998
 -0.0000017753110001  2.0499523583090000  0.0027344306430000
  1.7753127753109998  1.0249746416909999  5.0419174893570009
 -0.0000017753110001  2.0499523583090000  2.1756379893569999
