Sb Ir S 
 1.0000000000000000
     6.0743450000000001    0.0000000000000000    0.0000000000000000
     0.0000000000000000    6.0743450000000001    0.0000000000000000
     0.0000000000000000    0.0000000000000000    6.0743450000000001
 Sb  Ir  S  
   4   4   4
Cartesian
  2.2951791095600003  2.2951791095600003  2.2951791095600003
  0.7419933904400000  3.7791658904400003  5.3323516095599999
  5.3323516095599999  0.7419933904400000  3.7791658904400003
  3.7791658904400003  5.3323516095599999  0.7419933904400000
  6.0029775205950004  3.1085399794050002  2.9658050205950000
  3.1085399794050002  2.9658050205950000  6.0029775205950004
  2.9658050205950000  6.0029775205950004  3.1085399794050002
  0.0713674794050000  0.0713674794050000  0.0713674794050000
  2.3291529211449999  0.7080195788550000  5.3663254211450004
  0.7080195788550000  5.3663254211450004  2.3291529211449999
  5.3663254211450004  2.3291529211449999  0.7080195788550000
  3.7451920788549997  3.7451920788549997  3.7451920788549997
