Ca Mg Ge
 1.0000000000000000
     4.4391410000000002    0.0000000000000000    0.0000000000000000
     0.0000000000000000    7.5085519999999999    0.0000000000000000
     0.0000000000000000    0.0000000000000000    8.3319410000000005
 Ca  Mg  Ge 
   4   4   4
Cartesian
  3.3293557500000004  3.6012442016880000  2.6649213372040004
  1.1097852500000001  3.9073077983119999  5.6670196627960001
  3.3293557500000004  7.3555202016879999  1.5010491627960001
  1.1097852500000001  0.1530317983120000  6.8308918372040006
  3.3293557500000004  2.6866124654640000  7.8087367649050003
  1.1097852500000001  4.8219395345359999  0.5232042350950000
  3.3293557500000004  6.4408884654640000  4.6891747350950004
  1.1097852500000001  1.0676635345360002  3.6427662649050001
  3.3293557500000004  5.4821740204480003  7.3754175093180008
  1.1097852500000001  2.0263779795520001  0.9565234906820000
  3.3293557500000004  1.7278980204479999  5.1224939906820000
  1.1097852500000001  5.7806539795519996  3.2094470093180001
