Ca Cu F 
 1.0000000000000000
     4.8955240000000000    0.0001740000000000   -2.2620209999999998
    -1.0450649999999999    4.7826760000000004   -2.2620209999999998
    -0.0100540000000000   -0.0124890000000000    6.4065740000000000
 Ca  Cu  F  
   2   2   8
Cartesian
  0.9575818094110001  1.1894727825019999  2.0722765000000001
  2.8828231905889998  3.5808882174979999 -0.1897444999999998
 -0.5225325000000000  2.3913380000000002 -1.1310104999999999
  2.4477620000000000  0.0000870000000000 -1.1310104999999999
  4.1749140283580006  2.1454698405840000 -1.5229629582360003
  3.1842022854190000  0.9148564397970002  2.7612747182719999
 -0.3345090283579999  2.6248911594160003  3.4054949582359999
  0.8853014782970000  0.2333148933160000  4.2144728385710000
  0.6562027145810000  3.8555045602029998 -0.8787427182719996
  1.8762594394779999  1.4642341342340002 -0.0699198385710000
  2.9551035217030002  4.5370461066840004 -2.3319408385709997
  1.9641455605219997  3.3061268657660001  1.9524518385709999
