Sr Ti N 
 1.0000000000000000
     6.3148929999999996    0.0400070000000000   -0.0654760000000000
     2.3907539999999998    5.9727209999999999   -0.0807140000000000
     1.6590900000000000    2.4909129999999999    8.8017420000000008
 Sr  Ti  N  
   8   2   8
Cartesian
  6.5597992173209994  3.8280584825170001  1.3365823351280000
  3.8049377826789996  4.6755825174829999  7.3189696648720011
  6.7622001033799997  3.7719326771180000  8.4836991427480015
  3.6025368966199998  4.7317083228820005  0.1718528572520000
  6.6900582782459992  4.3706675452380006  4.9161735381280005
  3.6746787217539998  4.1329734547620003  3.7393784618720005
  4.7464656691079998  7.2805022202549994  5.3350281697820003
  5.6182713308920000  1.2231387797450000  3.3205238302180007
  7.8507904571429998  6.9619895779989998  6.5303812504480003
  2.5139465428570000  1.5416514220009998  2.1251707495520002
  8.7929767284389992  5.7997336687100001  5.2730554204460010
  1.5717602715610000  2.7039073312899999  3.3824965795540001
  9.1891155346889999  7.2293586992619998  7.9425630872580006
  1.1756214653110000  1.2742823007380000  0.7129889127420000
  6.2704307601459996  5.9132683988499997  7.0270835941360010
  4.0943062398539993  2.5903726011499999  1.6284684058640002
  5.5490762702169993  5.8944094027560006  2.9971940759660001
  4.8156607297829996  2.6092315972439999  5.6583579240340010
