Zr Cu Si
 1.0000000000000000
     3.9239120000000001    0.0000000000000000    0.0000000000000000
     0.0000000000000000    6.5121680000000000    0.0000000000000000
     0.0000000000000000    0.0000000000000000    7.2454720000000004
 Zr  Cu  Si 
   4   4   4
Cartesian
  0.9809780000000000  3.3071459092879998  2.2078547187840001
  2.9429340000000002  3.2050220907120002  5.0376172812159998
  0.9809780000000000  0.0510619092880000  1.4148812812160001
  2.9429340000000002  6.4611060907119997  5.8305907187840003
  2.9429340000000002  5.3843646970880004  3.0613495839680001
  0.9809780000000000  1.1278033029120000  4.1841224160320003
  2.9429340000000002  2.1282806970879999  0.5613864160320000
  0.9809780000000000  4.3838873029120000  6.6840855839679998
  0.9809780000000000  1.8305639126319999  6.5303584045440006
  2.9429340000000002  4.6816040873680000  0.7151135954560000
  0.9809780000000000  5.0866479126319994  4.3378495954559995
  2.9429340000000002  1.4255200873680001  2.9076224045440000
