Nb Ga
 1.0000000000000000
     3.5245829999999998    0.0000000000000000   -1.4080520000000001
    -0.5625100000000000    3.4794049999999999   -1.4080520000000001
     0.0036090000000000    0.0042400000000000    5.1243600000000002
 Nb  Ga 
   1   3
Cartesian
  0.0000000000000000  0.0000000000000000  0.0000000000000000
  1.4810364999999999  1.7397024999999999 -1.4080520000000001
  0.4610677500000000  2.6116737500000000  1.1541280000000000
  2.5046142499999999  0.8719712500000000  1.1541280000000000
