Li Au
 1.0000000000000000
    10.8333180000000002    0.0000000000000000    0.0000000000000000
     0.0000000000000000   10.8333180000000002    0.0000000000000000
     0.0000000000000000    0.0000000000000000   10.8333180000000002
 Li  Au 
  60  16
Cartesian
  1.2784831904520000  1.6933451032620002 10.4115010970339998
  8.5468054029660010  1.0149843967379999  3.9868126904520000
  1.4298463095479998  2.2865125970340001  6.4316433967380000
  1.3541647500000000  0.0000000000000000  8.1249885000000006
  3.1301464029660000  4.4016746032620002  6.8465053095480011
  1.2784831904520000  9.1399728967379996  5.8384759029660005
  1.6933451032620002 10.4115010970339998  1.2784831904520000
  9.8183336032620012  1.4298463095479998  8.5468054029660010
  7.7031715970340002  1.0149843967379999  6.8465053095480011
  5.8384759029660005  1.2784831904520000  9.1399728967379996
  7.7031715970340002  9.8183336032620012  9.4034716904519993
  1.0149843967379999  6.8465053095480011  7.7031715970340002
  3.7233138967380004  0.4218169029660000  6.6951421904519997
  1.6933451032620002  0.4218169029660000  4.1381758095479997
  4.1381758095479997  9.1399728967379996  4.9948420970339997
  2.7083295000000001  6.7708237499999999  5.4166590000000001
  0.4218169029660000  4.1381758095479997  1.6933451032620002
  8.1249885000000006  9.4791532499999995  5.4166590000000001
  9.4034716904519993  3.1301464029660000  6.4316433967380000
  9.1399728967379996  4.9948420970339997  4.1381758095479997
  6.4316433967380000  9.4034716904519993  3.1301464029660000
 10.4115010970339998  9.5548348095480016  3.7233138967380004
  6.8465053095480011  3.1301464029660000  4.4016746032620002
 10.4115010970339998  1.2784831904520000  1.6933451032620002
  9.8183336032620012  9.4034716904519993  7.7031715970340002
  9.4034716904519993  7.7031715970340002  9.8183336032620012
  0.0000000000000000  2.7083295000000001  4.0624942500000003
  9.5548348095480016  7.1100041032620007  5.8384759029660005
  4.0624942500000003  0.0000000000000000  2.7083295000000001
  5.4166590000000001  2.7083295000000001  6.7708237499999999
  6.6951421904519997  7.1100041032620007  4.9948420970339997
  3.1301464029660000  6.4316433967380000  9.4034716904519993
  6.8465053095480011  7.7031715970340002  1.0149843967379999
  6.7708237499999999  5.4166590000000001  2.7083295000000001
  8.5468054029660010  9.8183336032620012  1.4298463095479998
  6.6951421904519997  3.7233138967380004  0.4218169029660000
  7.1100041032620007  4.9948420970339997  6.6951421904519997
  4.4016746032620002  6.8465053095480011  3.1301464029660000
  2.2865125970340001  6.4316433967380000  1.4298463095479998
  0.4218169029660000  6.6951421904519997  3.7233138967380004
  2.2865125970340001  4.4016746032620002  3.9868126904520000
  6.4316433967380000  1.4298463095479998  2.2865125970340001
  9.1399728967379996  5.8384759029660005  1.2784831904520000
  7.1100041032620007  5.8384759029660005  9.5548348095480016
  9.5548348095480016  3.7233138967380004 10.4115010970339998
  8.1249885000000006  1.3541647500000000  0.0000000000000000
  5.8384759029660005  9.5548348095480016  7.1100041032620007
  2.7083295000000001  4.0624942500000003  0.0000000000000000
  3.9868126904520000  8.5468054029660010  1.0149843967379999
  3.7233138967380004 10.4115010970339998  9.5548348095480016
  1.0149843967379999  3.9868126904520000  8.5468054029660010
  4.9948420970339997  4.1381758095479997  9.1399728967379996
  1.4298463095479998  8.5468054029660010  9.8183336032620012
  4.9948420970339997  6.6951421904519997  7.1100041032620007
  4.4016746032620002  3.9868126904520000  2.2865125970340001
  3.9868126904520000  2.2865125970340001  4.4016746032620002
  5.4166590000000001  8.1249885000000006  9.4791532499999995
  4.1381758095479997  1.6933451032620002  0.4218169029660000
  9.4791532499999995  5.4166590000000001  8.1249885000000006
  0.0000000000000000  8.1249885000000006  1.3541647500000000
  8.6076994834439997  3.1910404834440000  2.2256185165560001
 10.3506070165560011  0.4827109834440000  5.8993699834440001
  2.2256185165560001  8.6076994834439997  3.1910404834440000
  2.2256185165560001  2.2256185165560001  2.2256185165560001
  8.6076994834439997  7.6422775165560006  3.1910404834440000
  0.4827109834440000  4.9339480165560001  5.8993699834440001
  5.8993699834440001  0.4827109834440000  4.9339480165560001
 10.3506070165560011 10.3506070165560011 10.3506070165560011
  3.1910404834440000  8.6076994834439997  7.6422775165560006
  4.9339480165560001  5.8993699834440001  0.4827109834440000
  7.6422775165560006  3.1910404834440000  8.6076994834439997
  7.6422775165560006  7.6422775165560006  7.6422775165560006
  3.1910404834440000  2.2256185165560001  8.6076994834439997
  5.8993699834440001 10.3506070165560011  0.4827109834440000
  0.4827109834440000  5.8993699834440001 10.3506070165560011
  4.9339480165560001  4.9339480165560001  4.9339480165560001
