Cr Hg Se
 1.0000000000000000
     0.0000080000000000    5.4191200000000004    5.4191240000000001
     5.4191929999999999   -0.0000020000000000    5.4191349999999998
     5.4191859999999998    5.4191229999999999    0.0000050000000000
 Cr  Hg  Se 
   4   2   8
Cartesian
  1.3548254710230001  1.3548397353200001  1.3548480295310001
  1.3548890818410000  4.0642642573329999  4.0642582941379999
  4.0643515214750003  1.3548224779910001  4.0643179851499998
  4.0643642791060000  4.0642982720049998  1.3548125956190000
  5.4191176314579996  5.4191475955880009  5.4191699337619994
  8.1287631541029999  8.1286861691100007  8.1287196764649998
  3.8969853991079999  3.8967974265440000  3.8967406666319997
  3.8967731264860004  6.9414270351940006  6.9414809048960002
  9.6507057142320001  9.6506190659340003  9.6506503838619988
  6.9415708010339996  6.9413474338620000  3.8968518582520000
  6.9416126678979992  3.8968342367730004  6.9412974158269991
  6.6067977107589995  6.6067518680460005  9.6506855092929982
  6.6068154556509997  9.6506472849179996  6.6067981222289998
  9.6507283166480011  6.6067643913790004  6.6067880434630002
