Rb Sm O 
 1.0000000000000000
     6.6232780000000000   -1.7917390000000000   -0.0003050000000000
     6.6232780000000000    1.7917390000000000   -0.0003050000000000
     6.1387150000000004    0.0000000000000000    3.0650149999999998
 Rb  Sm  O  
   1   1   2
Cartesian
  0.0000000000000000  0.0000000000000000  0.0000000000000000
  9.6926354999999997  0.0000000000000000  1.5322024999999999
 14.9904362115899996  0.0000000000000001  2.3696737424499998
  4.3948347884099999  0.0000000000000000  0.6947312575500000
