Ge
 1.0000000000000000
     5.7604930000000003    0.0000000000000000    0.0000000000000000
     0.0000000000000000    5.7604930000000003    0.0000000000000000
     0.0000000000000000    0.0000000000000000    5.7604930000000003
 Ge 
   8
Cartesian
  2.1601848750000001  5.0404313750000007  2.1601848750000001
  0.7200616250000000  0.7200616250000000  0.7200616250000000
  2.1601848750000001  2.1601848750000001  5.0404313750000007
  0.7200616250000000  3.6003081250000002  3.6003081250000002
  5.0404313750000007  5.0404313750000007  5.0404313750000007
  3.6003081250000002  0.7200616250000000  3.6003081250000002
  5.0404313750000007  2.1601848750000001  2.1601848750000001
  3.6003081250000002  3.6003081250000002  0.7200616250000000
