Dy Ho In
 1.0000000000000000
     0.0000000000000000    3.7309109999999999    3.7309109999999999
     3.7309109999999999    0.0000000000000000    3.7309109999999999
     3.7309109999999999    3.7309109999999999    0.0000000000000000
 Dy  Ho  In 
   1   1   2
Cartesian
  1.8654554999999999  1.8654554999999999  1.8654554999999999
  5.5963665000000002  5.5963665000000002  5.5963665000000002
  0.0000000000000000  0.0000000000000000  0.0000000000000000
  3.7309109999999999  3.7309109999999999  3.7309109999999999
