Fe P 
 1.0000000000000000
     5.0345730000000000    0.0000000000000000    0.1036480000000000
     2.5172850000000002    5.1809989999999999    0.0518240000000000
     0.0045450000000000   -0.0000000000000000   11.0489219999999992
 Fe  P  
   4  16
Cartesian
  5.0379840406889995  0.7826676139350001  8.3903395518239989
  2.5184189593110005  4.3983313860650002  2.8140544481759999
  1.2609150000000000  2.5904995000000000  5.5503729999999996
  3.7759290000000001  2.5904995000000000  0.0777360000000000
  2.8255536255900005  1.0681199348390000  5.3160979005059996
  5.3451117440729998  4.1128790651609997 10.8923829005060000
  2.7186856745880004  4.2189496576880003  5.0307605249659995
  2.3181473133300003  4.2189496576880003  0.5973482677380000
  4.7308493744099991  4.1128790651609997  5.8882960994939992
  3.5290382868990005  0.7529183176770000  3.2099569729940001
  6.0485962228680004  4.4280806823230003  8.7862419729939987
  5.2382556866699996  0.9620493423119999 10.6070457322619980
  3.5317011562140004  2.4065895784969999  8.8278438638639987
  4.0273647131010000  4.4280806823230003  7.9944370270059997
  2.2112912559270002  1.0681199348390000  0.3120110994940000
  1.5078067771320003  0.7529183176770000  2.4181520270059997
  6.0467150497229998  2.7744094215030000  3.3552068638639998
  4.8377173254119992  0.9620493423119999  6.1736334750340003
  1.5096879502770002  2.4065895784969999  7.8491871361359991
  4.0247018437859996  2.7744094215030000  2.3765501361359997
