Ba Hf O 
 1.0000000000000000
     0.0000000000000000    4.1660159999999999    0.0000000000000000
     2.0830069999999998   -2.0830069999999998   10.9419109999999993
     4.1660159999999999    0.0000000000000000    0.0000000000000000
 Ba  Hf  O  
   3   2   7
Cartesian
  2.0830080000000000  2.0830080000000000  0.0000000000000000
  2.0829992960719999  2.0830167039280001  4.0692529332560001
  4.1660237039279995 -0.0000077039280000  6.8726580667439992
  2.0830051097509998  2.0830108902490001  8.8327591775509990
  4.1660178902489999 -0.0000018902490000  2.1091518224489998
  0.0000000000000000  0.0000000000000000  0.0000000000000000
  2.0830057258669998  0.0000022741330000  2.0912727398750000
  2.0830092741330000 -0.0000012741330000  8.8506382601249989
  2.0830052991849999  2.0830107008150001  6.7599892091769993
  4.1660177008149999 -0.0000017008150000  4.1819217908230000
  4.1660137258669998  2.0830102741329997  2.0912727398750000
  4.1660172741329999  2.0830067258670004  8.8506382601249989
