Si N 
 1.0000000000000000
     7.6598350000000002    0.0000000000000000    0.0000000000000000
    -3.8299180000000002    6.6336120000000003    0.0000000000000000
     0.0000000000000000    0.0000000000000000    2.9248349999999999
 Si  N  
   6   8
Cartesian
 -1.6049005033450003  5.0998214014200007  0.7312087500000000
  3.6141281613410001  3.9397884037560003  2.1936262499999999
  2.4408178250670001  1.1600263640520001  2.1936262499999999
  1.3890991749330004  5.4735856359480000  0.7312087500000000
  0.2157888386590002  2.6938235962440000  0.7312087500000000
  5.4348175033450001  1.5337905985800000  2.1936262499999999
 -0.0000041632510003  4.4224102112040002  0.7312087500000000
  3.8299211632510000  2.2112017887960000  2.1936262499999999
  2.4098147149969997  0.2035590178320000  0.7312087500000000
 -2.4487193826740001  4.6484240056560004  2.1936262499999999
  1.0286275874240001  2.1887403785639998  2.1936262499999999
  2.8012894125760002  4.4448716214360005  0.7312087500000000
  1.4201022850030001  6.4300529821680001  2.1936262499999999
  6.2786363826740006  1.9851879943439998  0.7312087500000000
