Ca Si
 1.0000000000000000
     4.8233059999999996    0.0000000000000000    0.0000000000000000
     0.0000000000000000    7.6167990000000003    0.0000000000000000
     0.0000000000000000    0.0000000000000000    9.0466470000000001
 Ca  Si 
   8   4
Cartesian
  3.6174795000000000  2.6364864226589999  8.3762904572999997
  1.2058264999999999  4.9803125773409995  0.6703565427000000
  3.6174795000000000  6.4448859226590010  5.1936800427000005
  1.2058264999999999  1.1719130773410000  3.8529669573000001
  1.2058264999999999  0.1509649561800000  7.4402881720920000
  3.6174795000000000  7.4658340438200010  1.6063588279080001
  1.2058264999999999  3.9593644561799999  6.1296823279080002
  3.6174795000000000  3.6574345438200000  2.9169646720919999
  1.2058264999999999  5.7311309219670008  3.5699426059050001
  3.6174795000000000  1.8856680780330002  5.4767043940950000
  1.2058264999999999  1.9227314219670002  0.9533808940950000
  3.6174795000000000  5.6940675780329997  8.0932661059050002
