Si Pd
 1.0000000000000000
     5.3344250000000004    0.0000000000000000    0.0000000000000000
     0.0000000000000000    5.8663369999999997    0.0000000000000000
     0.0000000000000000    0.0000000000000000    7.6400540000000001
 Si  Pd 
   4  12
Cartesian
  2.8364097921500004  0.6231399151510000  5.7300405000000003
  0.1691972921500000  2.3100285848489999  1.9100135000000000
  5.1652277078500006  3.5563084151509994  5.7300405000000003
  2.4980152078500000  5.2431970848490002  1.9100135000000000
  3.6094533254500001  4.8159517611389999  7.2413119416859999
  0.9422408254500001  3.9835537388610001  0.3987420583140000
  4.3921841745500005  1.8827832611389999  4.2187690583139998
  1.7249716745500001  1.0503852388610000  3.4212849416860003
  4.8089414621000000  0.0328866852220000  1.9100135000000000
  2.1417289621000002  2.9002818147779998  5.7300405000000003
  3.1926960379000007  2.9660551852219998  1.9100135000000000
  0.5254835379000000  5.8334503147780001  5.7300405000000003
  3.6094533254500001  4.8159517611389999  4.2187690583139998
  0.9422408254500001  3.9835537388610001  3.4212849416860003
  4.3921841745500005  1.8827832611389999  7.2413119416859999
  1.7249716745500001  1.0503852388610000  0.3987420583140000
