Al Mo
 1.0000000000000000
     7.5849940000000000    0.0000000000000000    0.0000000000000000
     0.0000000000000000    7.5849940000000000    0.0000000000000000
     0.0000000000000000    0.0000000000000000    7.5849940000000000
 Al  Mo 
  24   2
Cartesian
  0.0000000000000000  1.4129781922840001  2.3397127592040001
  6.1720158077160008  2.3397127592040001  0.0000000000000000
  5.2452812407959994  0.0000000000000000  1.4129781922840001
  6.1720158077160008  5.2452812407959994  0.0000000000000000
  2.3397127592040001  0.0000000000000000  6.1720158077160008
  1.4129781922840001  5.2452812407959994  0.0000000000000000
  5.2452812407959994  0.0000000000000000  6.1720158077160008
  2.3397127592040001  0.0000000000000000  1.4129781922840001
  1.4129781922840001  2.3397127592040001  0.0000000000000000
  0.0000000000000000  6.1720158077160008  2.3397127592040001
  0.0000000000000000  1.4129781922840001  5.2452812407959994
  0.0000000000000000  6.1720158077160008  5.2452812407959994
  3.7924970000000000  5.2054751922839992  6.1322097592040006
  2.3795188077159999  6.1322097592040006  3.7924970000000000
  1.4527842407960001  3.7924970000000000  5.2054751922839992
  2.3795188077159999  1.4527842407960001  3.7924970000000000
  6.1322097592040006  3.7924970000000000  2.3795188077159999
  5.2054751922839992  1.4527842407960001  3.7924970000000000
  1.4527842407960001  3.7924970000000000  2.3795188077159999
  6.1322097592040006  3.7924970000000000  5.2054751922839992
  5.2054751922839992  6.1322097592040006  3.7924970000000000
  3.7924970000000000  2.3795188077159999  6.1322097592040006
  3.7924970000000000  5.2054751922839992  1.4527842407960001
  3.7924970000000000  2.3795188077159999  1.4527842407960001
  0.0000000000000000  0.0000000000000000  0.0000000000000000
  3.7924970000000000  3.7924970000000000  3.7924970000000000
