Al Pt
 1.0000000000000000
     5.9462140000000003    0.0000000000000000    0.0000000000000000
     0.0000000000000000    5.9462140000000003    0.0000000000000000
     0.0000000000000000    0.0000000000000000    5.9462140000000003
 Al  Pt 
   8   4
Cartesian
  4.4596605000000000  1.4865535000000001  1.4865535000000001
  1.4865535000000001  4.4596605000000000  4.4596605000000000
  4.4596605000000000  4.4596605000000000  4.4596605000000000
  1.4865535000000001  1.4865535000000001  1.4865535000000001
  1.4865535000000001  1.4865535000000001  4.4596605000000000
  4.4596605000000000  4.4596605000000000  1.4865535000000001
  1.4865535000000001  4.4596605000000000  1.4865535000000001
  4.4596605000000000  1.4865535000000001  4.4596605000000000
  0.0000000000000000  0.0000000000000000  0.0000000000000000
  0.0000000000000000  2.9731070000000002  2.9731070000000002
  2.9731070000000002  0.0000000000000000  2.9731070000000002
  2.9731070000000002  2.9731070000000002  0.0000000000000000
