Ta Co
 1.0000000000000000
     6.1331100000000003    0.0000000000000000    0.0000000000000000
     0.0000000000000000    6.1331100000000003    0.0000000000000000
     0.0000000000000000    0.0000000000000000    4.9778630000000001
 Ta  Co 
   8   4
Cartesian
  2.0795474745900000  5.1461024745900001  0.0000000000000000
  5.1461024745900001  4.0535625254100003  0.0000000000000000
  4.0535625254100003  5.1461024745900001  2.4889315000000001
  0.9870075254100000  4.0535625254100003  2.4889315000000001
  5.1461024745900001  2.0795474745900000  2.4889315000000001
  2.0795474745900000  0.9870075254100000  2.4889315000000001
  0.9870075254100000  2.0795474745900000  0.0000000000000000
  4.0535625254100003  0.9870075254100000  0.0000000000000000
  0.0000000000000000  0.0000000000000000  3.7333972500000003
  0.0000000000000000  0.0000000000000000  1.2444657500000000
  3.0665550000000001  3.0665550000000001  1.2444657500000000
  3.0665550000000001  3.0665550000000001  3.7333972500000003
