Ca Pd Pb
 1.0000000000000000
     3.9840019999999998   -6.9004930000000000    0.0000000000000000
     3.9840019999999998    6.9004930000000000    0.0000000000000000
     0.0000000000000000    0.0000000000000000    3.8155779999999999
 Ca  Pd  Pb 
   3   3   3
Cartesian
  3.1693373350320000  0.0000000000000001  1.9077890000000000
  2.3993333324840003  4.1557667053060001  1.9077890000000000
  2.3993333324840003 -4.1557667053060001  1.9077890000000000
  0.0000000000000000  0.0000000000000000  1.9077890000000000
  3.9840019999999998 -2.3001689336619999  0.0000000000000000
  3.9840019999999998  2.3001689336620004  0.0000000000000000
  1.0834055198779999 -1.8765131659269998  0.0000000000000000
  5.8011929602439993 -0.0000000000000000  0.0000000000000000
  1.0834055198779999  1.8765131659269998  0.0000000000000000
