Ca As
 1.0000000000000000
     7.8658520000000003    0.0000000000000000    0.0000000000000000
    -3.9329250000000000    6.8120279999999998    0.0000000000000000
     0.0000000000000000    0.0000000000000000    5.9534750000000001
 Ca  As 
   6   6
Cartesian
  2.4689021623520002  0.0000000000000000  0.0000000000000000
  2.6984756049480003  4.6738958994719999  0.0000000000000000
 -1.2344507673000000  2.1381321005279998  0.0000000000000000
  5.0998959368680001  0.0000000000000000  2.9767375000000000
  1.3829783832070002  2.3953883379479999  2.9767375000000000
 -2.5499473200750002  4.4166396620519999  2.9767375000000000
  0.0000000000000000  0.0000000000000000  1.7308895075999999
  0.0000000000000000  0.0000000000000000  4.2225854924000004
 -0.0000032662590001  4.5413542706759999  1.2716384461000001
 -0.0000032662590001  4.5413542706759999  4.6818365539000002
  3.9329302662590000  2.2706737293239998  4.6818365539000002
  3.9329302662590000  2.2706737293239998  1.2716384461000001
