Sr Pt
 1.0000000000000000
     5.4532040000000004   -0.0000000000000000    0.0000000000000000
    -2.7266020000000002    4.7226119999999998    0.0000000000000000
     0.0000000000000000    0.0000000000000000    4.3613150000000003
 Sr  Pt 
   1   5
Cartesian
  0.0000000000000000  0.0000000000000000  0.0000000000000000
  1.3633010000000001  2.3613059999999999  2.1806575000000001
  2.7266047266020004  1.5742024257959999  0.0000000000000000
 -1.3633010000000001  2.3613059999999999  2.1806575000000001
 -0.0000027266020000  3.1484095742039999  0.0000000000000000
  2.7266020000000002  0.0000000000000000  2.1806575000000001
