La C 
 1.0000000000000000
     3.5139779999999998    0.0000000000000000   -1.8048850000000001
    -0.9270420000000000    3.3894880000000001   -1.8048850000000001
    -0.0057170000000000   -0.0074890000000000    4.3120409999999998
 La  C  
   1   2
Cartesian
  0.0000000000000000  0.0000000000000000  0.0000000000000000
  1.0349938035050001  1.3560839556210000  2.0150607466729995
  1.5462251964949998  2.0259150443789999 -1.3127897466729999
