Bi O 
 1.0000000000000000
    11.8918199999999992    0.0000000000000000   -3.8018010000000002
     0.0000000000000000    5.2697010000000004    0.0000000000000000
     0.0590080000000000    0.0000000000000000    5.7274880000000001
 Bi  O  
   8  16
Cartesian
  0.0442560000000000  1.4198735071410000  4.2956159999999999
  0.0147520000000000  3.8498274928590002  1.4318720000000000
  2.9729549999999998  3.9522757500000001 -0.9504502500000001
  3.0024590000000000  1.3174252500000001  1.9132937500000000
  5.9901659999999994  4.0547240071410009  2.3947155000000002
  5.9606619999999992  1.2149769928590000 -0.4690285000000001
  8.9188650000000003  1.3174252500000001 -2.8513507499999999
  8.9483689999999996  3.9522757500000001  0.0123932500000001
  1.1777061354559999  3.0422827025160006  5.2597241508880002
  9.8554568678600010  0.2317087529700000 -1.2326455181030003
  2.0953711321399999  5.0379922470300009  3.1583325181030002
  2.0658671321399997  0.2317087529700000  0.2945885181029999
  9.8849608678600003  5.0379922470300009  1.6310984818969998
  1.1482021354559999  2.2274182974840002  2.3959801508880001
 10.8026258645439981  3.0422827025160006 -0.4702931508879996
 10.7731218645439988  2.2274182974840002 -3.3340371508879998
  7.1236161354560004  0.4074322025160000  3.3588236508879996
  3.9095468678599992  2.8665592529700001  0.6682549818970001
  8.0412811321399982  2.4031417470300003  1.2574320181030001
  8.0117771321399989  2.8665592529700001 -1.6063119818970002
  3.9390508678599994  2.4031417470300003  3.5319989818969999
  7.0941121354560002  4.8622687974840000  0.4950796508879997
  4.8567158645440003  0.4074322025160000  1.4306073491120002
  4.8272118645440001  4.8622687974840000 -1.4331366508880001
