He
 1.0000000000000000
    -1.6290890000000000    1.6290890000000000    1.6290890000000000
     1.6290890000000000   -1.6290890000000000    1.6290890000000000
     1.6290890000000000    1.6290890000000000   -1.6290890000000000
 He 
   1
Cartesian
  0.0000000000000000  0.0000000000000000  0.0000000000000000
