Sr Ge Pd
 1.0000000000000000
    -2.2407960000000000    2.2407960000000000    5.1447940000000001
     2.2407960000000000   -2.2407960000000000    5.1447940000000001
     2.2407960000000000    2.2407960000000000   -5.1447940000000001
 Sr  Ge  Pd 
   1   3   1
Cartesian
  0.0000000000000000 -0.0000000000000000 10.2750693913319999
  0.0000000000000000 -0.0000000000000000  4.1127586131879994
  0.0000022407960001  2.2407937592040001  2.6048555053459999
  2.2407937592040001  0.0000022407960001  2.6048555053459999
 -0.0000000000000001  0.0000000000000001  6.6171928844480004
