Fe C 
 1.0000000000000000
     4.4877490000000000    0.0000000000000000    0.0000000000000000
     0.0000000000000000    5.0357139999999996    0.0000000000000000
     0.0000000000000000    0.0000000000000000    6.7332090000000004
 Fe  C  
  12   4
Cartesian
  3.7564568372029998  0.1816180611240000  1.6833022500000001
  1.5125823372029998  2.3362389388759999  5.0499067499999999
  2.9751666627970001  2.6994750611240002  1.6833022500000001
  0.7312921627969999  4.8540959388759992  5.0499067499999999
  1.4908391932980001  0.8900825923559998  0.4586796634980000
  3.7347136932980001  1.6277744076439997  6.2745293365020007
  0.7530353067020000  3.4079395923559996  2.9079248365020001
  2.9969098067019999  4.1456314076440002  3.8252841634980004
  2.9969098067019999  4.1456314076440002  6.2745293365020007
  0.7530353067020000  3.4079395923559996  0.4586796634980000
  3.7347136932980001  1.6277744076439997  3.8252841634980004
  1.4908391932980001  0.8900825923559998  2.9079248365020001
  1.9670746294290000  4.4135313924439989  1.6833022500000001
  4.2109491294290002  3.1400396075560000  5.0499067499999999
  0.2767998705710000  1.8956743924439998  1.6833022500000001
  2.5206743705710002  0.6221826075560000  5.0499067499999999
