Ni Sn
 1.0000000000000000
     3.8477310000000000    0.0000000000000000   -1.2784770000000001
    -0.4071510000000000    5.0329319999999997   -1.2253730000000000
     0.0010510000000000   -0.0683200000000000    6.4325089999999996
 Ni  Sn 
   3   4
Cartesian
  0.0000000000000000  0.0000000000000000  0.0000000000000000
  2.7476849890849997  3.3008141230960000  1.8401320011130000
  0.6939460109150000  1.6637978769039998  2.0885269988869997
  2.0758816764449999  1.5682498645199998 -0.1817409595190001
  1.3657493235550000  3.3963621354800000  4.1103999595189995
  3.1098293240179999  0.8985613899759999  2.9300570796560002
  0.3318016759819999  4.0660506100239999  0.9986019203439999
