Tm Cu Ge
 1.0000000000000000
    -1.9909390000000000    1.9909390000000000    5.1361070000000000
     1.9909390000000000   -1.9909390000000000    5.1361070000000000
     1.9909390000000000    1.9909390000000000   -5.1361070000000000
 Tm  Cu  Ge 
   1   2   2
Cartesian
  0.0000000000000000  0.0000000000000000  0.0000000000000000
  0.0000000000000000  1.9909390000000000  2.5680535000000000
  1.9909390000000000  0.0000000000000000  2.5680535000000000
  0.0000000000000000 -0.0000000000000000  3.9244993586999999
 -0.0000000000000000  0.0000000000000000  6.3477146412999996
