Mg Sb O 
 1.0000000000000000
     8.4770579999999995    0.0000000000000000    0.0000000000000000
     0.0000000000000000    8.4770579999999995    0.0000000000000000
     0.0000000000000000    0.0000000000000000    5.9491849999999999
 Mg  Sb  O  
   4   8  16
Cartesian
  4.2385289999999998  0.0000000000000000  1.4872962500000000
  0.0000000000000000  4.2385289999999998  4.4618887500000000
  4.2385289999999998  0.0000000000000000  4.4618887500000000
  0.0000000000000000  4.2385289999999998  1.4872962500000000
  2.8423914556319998  2.7628257892439998  0.0000000000000000
  2.7628257892439998  5.6346665443679997  2.9745925000000000
  5.7142322107559993  2.8423914556319998  2.9745925000000000
  1.3961375443680000  7.0013547892440000  0.0000000000000000
  7.0809204556319996  1.4757032107559998  0.0000000000000000
  5.6346665443679997  5.7142322107559993  0.0000000000000000
  7.0013547892440000  7.0809204556319996  2.9745925000000000
  1.4757032107559998  1.3961375443680000  2.9745925000000000
  3.0891670910699998  0.8405765942219999  0.0000000000000000
  0.8405765942219999  5.3878909089299993  2.9745925000000000
  7.6364814057779995  3.0891670910699998  2.9745925000000000
  1.1493619089300000  5.0791055942219998  0.0000000000000000
  7.3276960910700000  3.3979524057779997  0.0000000000000000
  5.3878909089299993  7.6364814057779995  0.0000000000000000
  5.0791055942219998  7.3276960910700000  2.9745925000000000
  3.3979524057779997  1.1493619089300000  2.9745925000000000
  5.7380612207939992  1.4995322207939998  1.4872962500000000
  1.4995322207939998  2.7389967792059995  4.4618887500000000
  6.9775257792060001  5.7380612207939992  4.4618887500000000
  2.7389967792059995  6.9775257792060001  1.4872962500000000
  2.7389967792059995  6.9775257792060001  4.4618887500000000
  6.9775257792060001  5.7380612207939992  1.4872962500000000
  1.4995322207939998  2.7389967792059995  1.4872962500000000
  5.7380612207939992  1.4995322207939998  4.4618887500000000
