Na Al H 
 1.0000000000000000
     4.5719890000000003    0.0000000000000000   -1.8738729999999999
    -0.7680250000000000    4.5070180000000004   -1.8738729999999999
    -0.0011970000000000   -0.0014180000000000    6.5115179999999997
 Na  Al  H  
   2   2   8
Cartesian
  0.2831900000000001  1.6897772500000001  0.6909430000000000
  3.5195770000000000  2.8158227500000006  2.0728289999999996
  2.1851720000000006  3.9432862500000003 -1.1829300000000000
  1.6175950000000001  0.5623137500000001  3.9467019999999997
  2.8976193633360001  1.5680864439340001  3.9886259473689996
  2.4295161911920000  0.8670572483520002  1.2657402123790000
  3.3248827914470001  3.2423774238380001 -0.2547147182019999
  0.9535952792890002  0.2864257352740001  5.4077905468080001
  2.8491717207110008  4.2191742647260009 -2.6440185468080002
  0.4778842085530001  1.2632225761620002  3.0184867182019999
  1.3732462368190002  3.6385427516480000  1.4980336614940000
  0.9051476366640001  2.9375135560660004 -1.2248539473689999
