Ti Al Fe
 1.0000000000000000
     5.8309780000000000    0.0000000000000000    0.0000000000000000
     0.0000000000000000    5.8309780000000000    0.0000000000000000
     0.0000000000000000    0.0000000000000000    5.8309780000000000
 Ti  Al  Fe 
   4   4   8
Cartesian
  0.0000000000000000  2.9154890000000000  0.0000000000000000
  0.0000000000000000  0.0000000000000000  2.9154890000000000
  2.9154890000000000  2.9154890000000000  2.9154890000000000
  2.9154890000000000  0.0000000000000000  0.0000000000000000
  0.0000000000000000  0.0000000000000000  0.0000000000000000
  0.0000000000000000  2.9154890000000000  2.9154890000000000
  2.9154890000000000  0.0000000000000000  2.9154890000000000
  2.9154890000000000  2.9154890000000000  0.0000000000000000
  1.4577445000000000  4.3732334999999996  4.3732334999999996
  4.3732334999999996  1.4577445000000000  1.4577445000000000
  1.4577445000000000  1.4577445000000000  1.4577445000000000
  4.3732334999999996  4.3732334999999996  4.3732334999999996
  4.3732334999999996  4.3732334999999996  1.4577445000000000
  1.4577445000000000  1.4577445000000000  4.3732334999999996
  4.3732334999999996  1.4577445000000000  4.3732334999999996
  1.4577445000000000  4.3732334999999996  1.4577445000000000
