Ce Mg Ge
 1.0000000000000000
     7.4801149999999996   -0.0001600000000000    0.0000000000000000
    -0.0001600000000000    7.4801149999999996    0.0000000000000000
     0.0000000000000000    0.0000000000000000    4.3832969999999998
 Ce  Mg  Ge 
   4   2   4
Cartesian
  2.4012548333799995  6.1413923333799998  2.1916484999999999
  6.1412079002250000  5.0787245997749997  2.1916484999999999
  1.3387470997749999  2.4012304002249998  2.1916484999999999
  5.0787001666199991  1.3385626666200001  2.1916484999999999
  0.0000000000000000  0.0000000000000000  0.0000000000000000
  3.7399774999999997  3.7399774999999997  0.0000000000000000
  2.8420729270749998  0.8979045729249999  0.0000000000000000
  4.6378820729249997  6.5820504270750000  0.0000000000000000
  0.8973799608100000  4.6375174608099998  0.0000000000000000
  6.5825750391899991  2.8424375391900001  0.0000000000000000
