Cd Cu Ge S 
 1.0000000000000000
     6.2929860000000000    0.0000000000000000    0.0000000000000000
     0.0000000000000000    6.5328650000000001    0.0000000000000000
     0.0000000000000000    0.0000000000000000    7.7026770000000004
 Cd  Cu  Ge  S  
   2   4   2   8
Cartesian
  3.1910221689359997  5.5041739456399998  3.8513385000000002
  0.0445291689360000  1.0286910543600001  0.0000000000000000
  0.0285890353980000  4.3988523848299996  5.7710073646170006
  3.1750820353979998  2.1340126151700001  1.9196688646170001
  3.1750820353979998  2.1340126151700001  5.7830081353830005
  0.0285890353980000  4.3988523848299996  1.9316696353829999
  0.0592799281200000  1.1619223031699999  3.8513385000000002
  3.2057729281200000  5.3709426968300003  0.0000000000000000
  0.6420607756080000  5.5216624252450002  3.8513385000000002
  3.7885537756079999  1.0112025747550000  0.0000000000000000
  4.1091877052939996  1.3433791614100001  3.8513385000000002
  0.9626947052940000  5.1894858385900005  0.0000000000000000
  4.0413933671160001  4.2772692343149998  5.9299444018349998
  4.0413933671160001  4.2772692343149998  1.7727325981650000
  0.8949003671160000  2.2555957656849999  2.0786059018350000
  0.8949003671160000  2.2555957656849999  5.6240710981650004
