Be Co Si
 1.0000000000000000
     0.0000000000000000    2.6530480000000001    2.6530480000000001
     2.6530480000000001    0.0000000000000000    2.6530480000000001
     2.6530480000000001    2.6530480000000001    0.0000000000000000
 Be  Co  Si 
   1   2   1
Cartesian
  1.3265293060959999  1.3265293060959999  1.3265293060959999
  2.6530480000000001  2.6530480000000001  2.6530480000000001
  0.0000000000000000  0.0000000000000000  0.0000000000000000
  3.9795773060960005  3.9795773060960005  3.9795773060960005
