Na Re O 
 1.0000000000000000
    -2.6660279999999998    2.6655039999999999    5.7740130000000001
     2.6653880000000001   -2.6659880000000000    5.7739419999999999
     2.6659069999999998    2.6658650000000002   -5.7742440000000004
 Na  Re  O  
   2   2   8
Cartesian
  2.6655274808739997 -0.0000838718059999  2.8868666133489995
  2.6654244006719998  2.6654657295760003 -0.0002953538620006
 -0.0005830303620000  2.6654675403339998  2.8869541103790000
  0.0003891860410000  0.0000746326070000 -0.0000577650550000
 -1.4237754523759996  1.9309500862879996  6.7571038274220001
 -0.7349205611199996  1.4234369031599996  3.8699075188779997
  3.4000014262670000  1.2420797184410000 -1.9042443621620000
  4.0894106508870003  0.7341965608329998  0.9825714291750001
  1.2416451915339999  1.9311719663580000  1.9039940510230000
  1.9311023930200000  1.4234434163759999  4.7908329288529998
  0.7347213866310000  1.2422812089530000 -0.9831035645150004
  1.4229735965160002  0.7340494403719998  7.6777590665859998
