Ba Rh
 1.0000000000000000
     4.8475650000000003   -0.0007060000000000    2.7975469999999998
     1.6149500000000001    4.5691790000000001    2.7979720000000001
    -0.0004250000000000    0.0002120000000000    5.5958370000000004
 Ba  Rh 
   2   4
Cartesian
  2.4231657842350001  1.7132797411589999  4.1967501161709997
  4.0389242157650003  2.8554052588409999  6.9946058838289993
  0.8074750000000001  2.2845895000000001  1.3989860000000001
  2.4237825000000002 -0.0003530000000000  1.3987734999999999
  0.0000000000000000  0.0000000000000000  0.0000000000000000
 -0.0002125000000000  0.0001060000000000  2.7979185000000002
