Mg Ni
 1.0000000000000000
     5.1511440000000004    0.0000000000000000    0.0000000000000000
    -2.5755720000000002    4.4610219999999998    0.0000000000000000
     0.0000000000000000    0.0000000000000000   13.0711410000000008
 Mg  Ni 
  12   6
Cartesian
  2.5755720000000002  0.0000000000000000  1.5169974110369999
  1.2877860000000001  2.2305109999999999  5.8740531251309998
 -1.2877860000000001  2.2305109999999999 10.2310957680839998
  2.5755720000000002  0.0000000000000000 11.5541435889630009
  1.2877860000000001  2.2305109999999999  2.8400452319160001
 -1.2877860000000001  2.2305109999999999  7.1970878748690010
 -0.0000077267160001  1.4655661745940001  0.0000000000000000
  3.8819381764080001  0.7327763957639999  4.3570426429530000
  1.2692212770240001  0.7327763957639999  8.7140983570469999
  1.3063507229759999  3.7282456042359997  8.7140983570469999
 -1.3063661764080001  3.7282456042359997  4.3570426429530000
  2.5755797267159997  2.9954558254059998  0.0000000000000000
  0.0000000000000000  0.0000000000000000  2.1785278570470004
  0.0000000000000000  0.0000000000000000  6.5355705000000004
  0.0000000000000000  0.0000000000000000 10.8926131429530013
 -1.2877860000000001  2.2305109999999999  2.1785278570470004
  2.5755720000000002  0.0000000000000000  6.5355705000000004
  1.2877860000000001  2.2305109999999999 10.8926131429530013
