Pa Al Ru
 1.0000000000000000
     0.0000000000000000    3.2520760000000002    3.2520760000000002
     3.2520760000000002    0.0000000000000000    3.2520760000000002
     3.2520760000000002    3.2520760000000002    0.0000000000000000
 Pa  Al  Ru 
   1   1   2
Cartesian
  4.8781140000000001  4.8781140000000001  4.8781140000000001
  1.6260380000000001  1.6260380000000001  1.6260380000000001
  0.0000000000000000  0.0000000000000000  0.0000000000000000
  3.2520760000000002  3.2520760000000002  3.2520760000000002
