Cd Ge As
 1.0000000000000000
     5.4130440000000002    0.0000000000000000   -2.5362269999999998
    -1.1883239999999999    5.2809960000000000   -2.5362269999999998
     0.0107610000000000    0.0134500000000000    7.0675809999999997
 Cd  Ge  As 
   2   2   4
Cartesian
  3.7680825000000002  1.3269740000000001  0.9975635000000000
  2.1123600000000002  2.6404980000000000 -2.5362269999999998
  0.0000000000000000  0.0000000000000000  0.0000000000000000
  0.4673985000000001  3.9674719999999999  0.9975635000000000
  0.8370000175920002  4.6242339999999995 -1.3303908144859997
  2.6143184086320002  3.4627076268720001  2.0574043144859999
  4.4492804824079997  1.9837359999999999 -1.4763861855139997
  0.5703630913680000  0.5182143731280000  4.7396266855139997
