Ce Mg Pt
 1.0000000000000000
     3.7869670000000002   -6.5466389999999999    0.0000000000000000
     3.7763339999999999    6.5430440000000001    0.0000000000000000
     0.0000000000000000    0.0000000000000000    4.1252490000000002
 Ce  Mg  Pt 
   3   3   3
Cartesian
  4.4202448305659994 -0.0047320629180000  0.0000000000000000
  5.3473175156339998  3.8202333004300000  0.0000000000000000
  1.5679571196189999  2.7159911944989998  0.0000000000000000
  2.8827073001030001  4.9932254767050006  2.0626245000000001
  1.7935824732349999 -0.0037649817550000  2.0626245000000001
  6.6629007463479999  1.5478289194600006  2.0626245000000001
  3.7731501212390000  2.1852822903269997  2.0626245000000001
  3.7906141092699999 -6.5392974242220001  0.0000000000000000
  3.7910638052520000 -2.1861288918919999  2.0626245000000001
