Ce Co P 
 1.0000000000000000
     3.6615950000000002    0.0000000000000000   -1.3761300000000001
    -0.5171890000000000    3.6248849999999999   -1.3761300000000001
    -0.0401150000000000   -0.0462460000000000    5.4526950000000003
 Ce  Co  P  
   1   2   2
Cartesian
  0.0000000000000000  0.0000000000000000  0.0000000000000000
  0.5074495000000001  2.6955407500000002  1.3502175000000001
  2.5968415000000000  0.8830982500000000  1.3502175000000001
  1.9742197869090001  2.2758888829609996 -0.3064420444349999
  1.1300712130910000  1.3027501170389999  3.0068770444349999
