Cr B 
 1.0000000000000000
     0.0000000000000000    0.0000000000000000    2.8456750000000000
     4.7063810000000004    0.0000000000000000    0.0000000000000000
     0.0000000000000000    5.4472069999999997    0.0000000000000000
 Cr  B  
   2   8
Cartesian
  2.3531905000000002  2.7236034999999998  1.4228375000000000
  0.0000000000000000  0.0000000000000000  0.0000000000000000
  3.1219354789209999  4.7291071483969995  1.4228375000000000
  1.5844455210790001  0.7180998516029999  1.4228375000000000
  0.7687449789210000  3.4417033516029996  0.0000000000000000
  3.9376360210790007  2.0055036483970001  0.0000000000000000
  3.4132792883450005  0.9818590617499999  1.4228375000000000
  1.2931017116550003  4.4653479382499999  1.4228375000000000
  1.0600887883450001  1.7417444382499998  0.0000000000000000
  3.6462922116550001  3.7054625617500001  0.0000000000000000
