Li In
 1.0000000000000000
     4.1733110000000000    0.0000000000000000    2.4094630000000001
     1.3911039999999999    3.9346369999999999    2.4094630000000001
     0.0000000000000000    0.0000000000000000    4.8189270000000004
 Li  In 
   2   2
Cartesian
  3.4777593749999998  2.4591481250000000  6.0236581250000008
  2.0866556250000001  1.4754888749999999  3.6141948749999999
  0.6955518750000000  0.4918296250000000  1.2047316250000000
  4.8688631249999998  3.4428073750000001  8.4331213750000007
