Np Rh
 1.0000000000000000
     4.0133419999999997    0.0000000000000000    0.0000000000000000
     0.0000000000000000    4.0133419999999997    0.0000000000000000
     0.0000000000000000    0.0000000000000000    4.0133419999999997
 Np  Rh 
   1   3
Cartesian
  0.0000000000000000  0.0000000000000000  0.0000000000000000
  2.0066709999999999  0.0000000000000000  2.0066709999999999
  0.0000000000000000  2.0066709999999999  2.0066709999999999
  2.0066709999999999  2.0066709999999999  0.0000000000000000
