Sr Sn P 
 1.0000000000000000
     4.3811879999999999    0.0000000000000000    0.0000000000000000
     0.0000000000000000    4.3811879999999999    0.0000000000000000
     0.0000000000000000    0.0000000000000000    8.9822439999999997
 Sr  Sn  P  
   2   2   2
Cartesian
  3.2858909999999999  3.2858909999999999  5.9953334914599994
  1.0952970000000000  1.0952970000000000  2.9869105085400003
  1.0952970000000000  1.0952970000000000  8.5094995160359996
  3.2858909999999999  3.2858909999999999  0.4727444839640000
  3.2858909999999999  3.2858909999999999  2.9287235319079996
  1.0952970000000000  1.0952970000000000  6.0535204680919996
