Ti Pt
 1.0000000000000000
     5.4942110000000000    0.0000000000000000    0.0000000000000000
     0.0000000000000000    8.2616139999999998    0.0000000000000000
     0.0000000000000000    0.0000000000000000   11.0692260000000005
 Ti  Pt 
  12  20
Cartesian
  4.3425914091340001  0.0000000000000000  7.1381564244900009
  1.5954859091339999  0.0000000000000000  9.4656825755099998
  1.1516195908659999  0.0000000000000000  3.9310695755100000
  3.8987250908659998  0.0000000000000000  1.6035434244900000
  0.0000000000000000  2.0654034999999999  0.0000000000000000
  0.0000000000000000  6.1962104999999994  0.0000000000000000
  1.5954859091339999  4.1308069999999999  1.6035434244900000
  4.3425914091340001  4.1308069999999999  3.9310695755100000
  3.8987250908659998  4.1308069999999999  9.4656825755099998
  1.1516195908659999  4.1308069999999999  7.1381564244900009
  2.7471055000000000  6.1962104999999994  5.5346130000000002
  2.7471055000000000  2.0654034999999999  5.5346130000000002
  1.1675967564540000  0.0000000000000000  1.1485871666640000
  3.9147022564539999  0.0000000000000000  4.3860258333360003
  4.3266142435460004  0.0000000000000000  9.9206388333360014
  1.5795087435460000  0.0000000000000000  6.6832001666640002
  0.0000000000000000  2.0654034999999999  2.6927774013420001
  0.0000000000000000  2.0654034999999999  8.3764485986579995
  0.0000000000000000  6.1962104999999994  8.3764485986579995
  0.0000000000000000  6.1962104999999994  2.6927774013420001
  2.7471055000000000  6.1962104999999994  0.0000000000000000
  2.7471055000000000  2.0654034999999999  0.0000000000000000
  3.9147022564539999  4.1308069999999999  6.6832001666640002
  1.1675967564540000  4.1308069999999999  9.9206388333360014
  1.5795087435460000  4.1308069999999999  4.3860258333360003
  4.3266142435460004  4.1308069999999999  1.1485871666640000
  2.7471055000000000  6.1962104999999994  8.2273904013420012
  2.7471055000000000  6.1962104999999994  2.8418355986580002
  2.7471055000000000  2.0654034999999999  2.8418355986580002
  2.7471055000000000  2.0654034999999999  8.2273904013420012
  0.0000000000000000  2.0654034999999999  5.5346130000000002
  0.0000000000000000  6.1962104999999994  5.5346130000000002
