Al Ag O 
 1.0000000000000000
     2.8778640000000002    0.0000000000000000    0.0000000000000000
    -1.4389330000000000    2.4923039999999999    0.0000000000000000
     0.0000000000000000    0.0000000000000000   12.2493079999999992
 Al  Ag  O  
   2   2   4
Cartesian
  0.0000000000000000  0.0000000000000000  0.0000000000000000
  0.0000000000000000  0.0000000000000000  6.1246539999999996
  1.4389331055990002  0.8307671692319999  9.1869809999999994
 -0.0000021055990000  1.6615368307679999  3.0623269999999998
 -0.0000021055990000  1.6615368307679999  5.1714006021319996
  1.4389331055990002  0.8307671692319999 11.2960546021319992
 -0.0000021055990000  1.6615368307679999  0.9532533978680000
  1.4389331055990002  0.8307671692319999  7.0779073978679996
