Hf N  Cl
 1.0000000000000000
     9.5785389999999992   -1.7822940000000000   -0.0313920000000000
     9.5785389999999992    1.7822940000000000   -0.0313920000000000
     9.2569669999999995    0.0000000000000000    3.0388359999999999
 Hf  N   Cl 
   2   2   2
Cartesian
 24.9692114263349971 -0.0000000000000001  2.6152443836760000
  3.4448335736649995  0.0000000000000000  0.3608076163240000
 22.8290371428899981 -0.0000000000000001  2.3910851709839998
  5.5850078571099999  0.0000000000000000  0.5849668290160001
 17.2927593729550004 -0.0000000000000001  1.8112222711479999
 11.1212856270449993 -0.0000000000000000  1.1648297288520000
