Ga Fe
 1.0000000000000000
     3.6380180000000002    0.0000000000000000    0.0000000000000000
     0.0000000000000000    3.6379969999999999    0.0000000000000000
     0.0000000000000000    0.0000000000000000    3.6380699999999999
 Ga  Fe 
   1   3
Cartesian
  0.0000000000000000  0.0000000000000000  0.0000000000000000
  0.0000000000000000  1.8189985000000000  1.8190350000000000
  1.8190090000000001  1.8189985000000000  0.0000000000000000
  1.8190090000000001  0.0000000000000000  1.8190350000000000
