Si C 
 1.0000000000000000
     4.3785470000000002    0.0000000000000000    0.0000000000000000
     0.0000000000000000    4.3785470000000002    0.0000000000000000
     0.0000000000000000    0.0000000000000000    4.3785470000000002
 Si  C  
   4   4
Cartesian
  3.2839102499999999  1.0946367500000000  3.2839102499999999
  3.2839102499999999  3.2839102499999999  1.0946367500000000
  1.0946367500000000  1.0946367500000000  1.0946367500000000
  1.0946367500000000  3.2839102499999999  3.2839102499999999
  0.0000000000000000  0.0000000000000000  0.0000000000000000
  0.0000000000000000  2.1892735000000001  2.1892735000000001
  2.1892735000000001  0.0000000000000000  2.1892735000000001
  2.1892735000000001  2.1892735000000001  0.0000000000000000
