Ti Mn
 1.0000000000000000
     4.7353810000000003    0.0000000000000000    0.0000000000000000
    -2.3676900000000001    4.1009599999999997    0.0000000000000000
     0.0000000000000000    0.0000000000000000    7.8233459999999999
 Ti  Mn 
   4   8
Cartesian
 -0.0000020343570000  2.7339747003199997  3.4167133686179998
  2.3676930343570004  1.3669852996799998  7.3283863686180002
  2.3676930343570004  1.3669852996799998  4.4066326313819992
 -0.0000020343570000  2.7339747003199997  0.4949596313820000
  1.1440471542509998  3.3944917217599997  5.8675094999999997
  1.2236438457490000  0.7064682782400000  1.9558365000000000
  3.5117420619010002  0.7064682782400000  1.9558365000000000
 -0.0000021954209999  1.4129406574399999  5.8675094999999997
 -1.1440510619010000  3.3944917217599997  5.8675094999999997
  2.3676931954210003  2.6880193425599996  1.9558365000000000
  0.0000000000000000  0.0000000000000000  3.9116730000000000
  0.0000000000000000  0.0000000000000000  0.0000000000000000
