Ho Ta Ru
 1.0000000000000000
     0.0000000000000000    3.2468469999999998    3.2468469999999998
     3.2468469999999998    0.0000000000000000    3.2468469999999998
     3.2468469999999998    3.2468469999999998    0.0000000000000000
 Ho  Ta  Ru 
   1   1   2
Cartesian
  1.6234234999999999  1.6234234999999999  1.6234234999999999
  4.8702769936939996  4.8702769936939996  4.8702769936939996
  0.0000000000000000  0.0000000000000000  0.0000000000000000
  3.2468405063060000  3.2468405063060000  3.2468405063060000
