Al Pd
 1.0000000000000000
     4.2480260000000003    0.0000000000000000    0.0000000000000000
    -2.1240130000000002    3.6788989999999999    0.0000000000000000
     0.0000000000000000    0.0000000000000000    5.2082660000000001
 Al  Pd 
   3   2
Cartesian
  0.0000000000000000  0.0000000000000000  0.0000000000000000
  2.1240151240130003  1.2262984403669999  1.8475906973720000
 -0.0000021240130000  2.4526005596329998  3.3606753026280001
  2.1240151240130003  1.2262984403669999  4.3861307953680004
 -0.0000021240130000  2.4526005596329998  0.8221352046320000
