Ta Mn
 1.0000000000000000
     4.8091410000000003    0.0000000000000000    0.0000000000000000
    -2.4045700000000001    4.1648379999999996    0.0000000000000000
     0.0000000000000000    0.0000000000000000    7.9081659999999996
 Ta  Mn 
   4   8
Cartesian
 -0.0000020712370000  2.7765600549459997  7.4056969486919995
  2.4045730712370004  1.3882779450539999  3.4516139486920001
  2.4045730712370004  1.3882779450539999  0.5024690513079999
 -0.0000020712370000  2.7765600549459997  4.4565520513079999
  0.0000000000000000  0.0000000000000000  0.0000000000000000
  0.0000000000000000  0.0000000000000000  3.9540829999999998
  3.5695224743380001  0.7156940915959999  5.9311244999999992
 -0.0000046372979999  1.4313965128679997  1.9770414999999999
  1.1649426842140000  3.4491439084039994  1.9770414999999999
  1.2396283157860002  0.7156940915959999  5.9311244999999992
  2.4045756372980005  2.7334414871319996  5.9311244999999992
 -1.1649514743379998  3.4491439084039994  1.9770414999999999
