Si Os
 1.0000000000000000
     2.9606919999999999    0.0000000000000000    0.0000000000000000
     0.0000000000000000    2.9606919999999999    0.0000000000000000
     0.0000000000000000    0.0000000000000000    2.9606919999999999
 Si  Os 
   1   1
Cartesian
  1.4803459999999999  1.4803459999999999  1.4803459999999999
  0.0000000000000000  0.0000000000000000  0.0000000000000000
