Mg Al Si
 1.0000000000000000
     4.0116550000000002    0.0000000000000000    0.0000000000000000
     0.0000000000000000    6.5943930000000002    0.0000000000000000
     0.0000000000000000    0.0000000000000000    8.1164419999999993
 Mg  Al  Si 
   4   4   4
Cartesian
  3.0087412499999999  6.3582675698489997  2.6589058169899999
  1.0029137500000000  0.2361254301510000  5.4575361830099993
  3.0087412499999999  3.0610710698490000  1.3993151830099999
  1.0029137500000000  3.5333219301510002  6.7171268169899996
  3.0087412499999999  5.6562021134969998  7.5582418178919992
  1.0029137500000000  0.9381908865030001  0.5582001821079999
  3.0087412499999999  2.3590056134970001  4.6164211821079997
  1.0029137500000000  4.2353873865030005  3.5000208178919996
  3.0087412499999999  4.8792441358440000  5.0444904496299996
  1.0029137500000000  1.7151488641560000  3.0719515503699997
  3.0087412499999999  1.5820476358440001  7.1301725503699993
  1.0029137500000000  5.0123453641560003  0.9862694496299999
