Nd Ni Sn
 1.0000000000000000
     4.5774509999999999    0.0000000000000000    0.0000000000000000
     0.0000000000000000    7.4749600000000003    0.0000000000000000
     0.0000000000000000    0.0000000000000000    7.6144759999999998
 Nd  Ni  Sn 
   4   4   4
Cartesian
  1.1443627500000000  3.8955978288800002  6.1077767904520002
  3.4330882500000000  3.5793621711200001  1.5066992095479999
  1.1443627500000000  0.1581178288800000  5.3139372095479995
  3.4330882500000000  7.3168421711200002  2.3005387904519998
  3.4330882500000000  1.4008673036799999  6.9871345513119998
  1.1443627500000000  2.3366126963200000  3.1798965513119999
  3.4330882500000000  5.1383473036800007  4.4345794486879999
  1.1443627500000000  6.0740926963200002  0.6273414486880000
  1.1443627500000000  1.3872030768000001  0.6907015034839999
  3.4330882500000000  2.3502769232000000  4.4979395034840000
  1.1443627500000000  5.1246830768000002  3.1165364965159998
  3.4330882500000000  6.0877569232000006  6.9237744965159997
