Be Te
 1.0000000000000000
     3.4678149999999999    0.0000000000000000    2.0021429999999998
     1.1559390000000000    3.2694869999999998    2.0021429999999998
    -0.0000000000000000    0.0000000000000000    4.0042869999999997
 Be  Te 
   1   1
Cartesian
  0.0000000000000000  0.0000000000000000  0.0000000000000000
  1.1559385000000000  0.8173717500000000  2.0021432499999996
