Gd H 
 1.0000000000000000
     3.2384529999999998    0.0000000000000000    1.8697210000000000
     1.0794850000000000    3.0532420000000000    1.8697210000000000
    -0.0000000000000000   -0.0000000000000000    3.7394440000000002
 Gd  H  
   1   2
Cartesian
  0.0000000000000000  0.0000000000000000  0.0000000000000000
  3.2384534999999999  2.2899314999999998  5.6091645000000003
  1.0794845000000000  0.7633105000000000  1.8697215000000000
