Sm Mg Hg
 1.0000000000000000
     0.0000000000000000    3.6082230000000002    3.6082230000000002
     3.6082230000000002    0.0000000000000000    3.6082230000000002
     3.6082230000000002    3.6082230000000002    0.0000000000000000
 Sm  Mg  Hg 
   1   1   2
Cartesian
  5.4123272835540002  5.4123272835540002  5.4123272835540002
  1.8041042835540000  1.8041042835540000  1.8041042835540000
  0.0000000000000000  0.0000000000000000  0.0000000000000000
  3.6082230000000002  3.6082230000000002  3.6082230000000002
