Si Mo
 1.0000000000000000
     9.6920979999999997    0.0000000000000000    0.0000000000000000
     0.0000000000000000    9.6920979999999997    0.0000000000000000
     0.0000000000000000    0.0000000000000000    4.9375960000000001
 Si  Mo 
  12  20
Cartesian
  6.4673334613419993  1.6212844613420001  2.4687980000000000
  8.0708135386579993  6.4673334613419993  2.4687980000000000
  6.4673334613419993  8.0708135386579993  0.0000000000000000
  8.0708135386579993  3.2247645386579999  0.0000000000000000
  0.0000000000000000  0.0000000000000000  3.7031970000000003
  0.0000000000000000  0.0000000000000000  1.2343990000000000
  1.6212844613420001  6.4673334613419993  0.0000000000000000
  3.2247645386579999  1.6212844613420001  0.0000000000000000
  1.6212844613420001  3.2247645386579999  2.4687980000000000
  3.2247645386579999  8.0708135386579993  2.4687980000000000
  4.8460489999999998  4.8460489999999998  1.2343990000000000
  4.8460489999999998  4.8460489999999998  3.7031970000000003
  2.1716114778800000  0.7428896196020000  2.4687980000000000
  7.5204865221199997  8.9492083803979998  2.4687980000000000
  0.7428896196020000  7.5204865221199997  2.4687980000000000
  8.9492083803979998  2.1716114778800000  2.4687980000000000
  0.7428896196020000  2.1716114778800000  0.0000000000000000
  7.5204865221199997  0.7428896196020000  0.0000000000000000
  2.1716114778800000  8.9492083803979998  0.0000000000000000
  8.9492083803979998  7.5204865221199997  0.0000000000000000
  4.8460489999999998  0.0000000000000000  1.2343990000000000
  4.8460489999999998  0.0000000000000000  3.7031970000000003
  7.0176604778799998  5.5889386196019997  0.0000000000000000
  2.6744375221200003  4.1031593803980000  0.0000000000000000
  5.5889386196019997  2.6744375221200003  0.0000000000000000
  4.1031593803980000  7.0176604778799998  0.0000000000000000
  5.5889386196019997  7.0176604778799998  2.4687980000000000
  2.6744375221200003  5.5889386196019997  2.4687980000000000
  7.0176604778799998  4.1031593803980000  2.4687980000000000
  4.1031593803980000  2.6744375221200003  2.4687980000000000
  0.0000000000000000  4.8460489999999998  3.7031970000000003
  0.0000000000000000  4.8460489999999998  1.2343990000000000
