Sc Zn
 1.0000000000000000
     3.3556509999999999    0.0000000000000000    0.0000000000000000
     0.0000000000000000    3.3556509999999999    0.0000000000000000
     0.0000000000000000    0.0000000000000000    3.3556509999999999
 Sc  Zn 
   1   1
Cartesian
  0.0000000000000000  0.0000000000000000  0.0000000000000000
  1.6778255000000000  1.6778255000000000  1.6778255000000000
