Sr Al Sn
 1.0000000000000000
     4.3881329999999998    0.0001870000000000   -0.9610740000000000
    -0.2577620000000000    4.8384919999999996   -1.1797280000000001
     0.0016790000000000   -0.0009150000000000   10.5222390000000008
 Sr  Al  Sn 
   3   2   2
Cartesian
  0.7551555336469999  0.8827439734249999  3.4538344361660003
  3.3768944663529998  3.9550200265749993  4.9276025638340002
  2.1940664999999999  0.0000935000000000 -0.4805370000000000
  3.9992278917540003  2.1109134062060000  7.7733889383720003
  0.1328221082460000  2.7268505937940000  0.6080480616280002
  1.4843867868289999  1.7390606809589999  6.7887896102190002
  2.6476632131709996  3.0987033190409998  1.5926473897809998
