Lu Si Os
 1.0000000000000000
     3.8651200000000001    0.0000000000000000   -1.5278110000000000
    -0.6039150000000000    3.8176480000000002   -1.5278110000000000
    -0.0386090000000000   -0.0451970000000000    5.5552999999999999
 Lu  Si  Os 
   1   2   2
Cartesian
  0.0000000000000000  0.0000000000000000  0.0000000000000000
  2.0386240274669998  2.3864641003950005 -0.4955761239560003
  1.1839719725330000  1.3859868996050002  2.9952541239559998
  0.4940392500000000  2.8406375000000001  1.2498389999999999
  2.7285567499999996  0.9318135000000001  1.2498389999999999
