Na Ac Tl
 1.0000000000000000
     0.0000030000000000    3.9701140000000001    3.9701119999999999
     3.9701140000000001    0.0000030000000000    3.9701119999999999
     3.9701140000000001    3.9701140000000001    0.0000030000000000
 Na  Ac  Tl 
   1   1   2
Cartesian
  5.9551811902310003  5.9551811902310003  5.9551781902269996
  1.9850577500000002  1.9850577500000002  1.9850567500000000
  0.0000000000000000  0.0000000000000000  0.0000000000000000
  3.9701234402310002  3.9701234402310006  3.9701214402270000
