Ca Bi Au
 1.0000000000000000
     4.2358349999999998    0.0000000000000000    2.4455600000000000
     1.4119459999999999    3.9935839999999998    2.4455600000000000
    -0.0000000000000000    0.0000000000000000    4.8911199999999999
 Ca  Bi  Au 
   1   1   1
Cartesian
  0.0000000000000000  0.0000000000000000  0.0000000000000000
  2.8238905000000001  1.9967919999999999  4.8911199999999999
  1.4119452500000000  0.9983960000000000  2.4455600000000000
