Si Pt
 1.0000000000000000
     3.9416289999999998    0.0000000000000000    0.0000000000000000
    -1.9708140000000001    3.4135510000000000    0.0000000000000000
     0.0000000000000000    0.0000000000000000   12.1082630000000009
 Si  Pt 
   6   4
Cartesian
 -0.0000016374810001  2.2757018045169999  5.2648664846080004
  1.9708166374809999  1.1378491954829999 11.3189979846080000
  1.9708166374809999  1.1378491954829999  6.8433965153920004
 -0.0000016374810001  2.2757018045169999  0.7892650153920001
  0.0000000000000000  0.0000000000000000  9.0811972500000007
  0.0000000000000000  0.0000000000000000  3.0270657500000002
 -0.0000016374810001  2.2757018045169999  7.7128424483700000
  1.9708166374809999  1.1378491954829999  1.6587109483700002
  1.9708166374809999  1.1378491954829999  4.3954205516300000
 -0.0000016374810001  2.2757018045169999 10.4495520516300022
