Os S 
 1.0000000000000000
     5.6401100000000000    0.0000000000000000    0.0000000000000000
     0.0000000000000000    5.6401100000000000    0.0000000000000000
     0.0000000000000000    0.0000000000000000    5.6401100000000000
 Os  S  
   4   8
Cartesian
  0.0000000000000000  2.8200550000000000  2.8200550000000000
  2.8200550000000000  2.8200550000000000  0.0000000000000000
  2.8200550000000000  0.0000000000000000  2.8200550000000000
  0.0000000000000000  0.0000000000000000  0.0000000000000000
  2.1731231027800000  0.6469318972200000  4.9931781027800000
  0.6469318972200000  4.9931781027800000  2.1731231027800000
  4.9931781027800000  2.1731231027800000  0.6469318972200000
  3.4669868972200000  3.4669868972200000  3.4669868972200000
  2.1731231027800000  2.1731231027800000  2.1731231027800000
  0.6469318972200000  3.4669868972200000  4.9931781027800000
  4.9931781027800000  0.6469318972200000  3.4669868972200000
  3.4669868972200000  4.9931781027800000  0.6469318972200000
