Li Ti S 
 1.0000000000000000
     3.4382999999999999    0.0000000000000000    0.0000000000000000
    -1.7191500000000000    2.9776549999999999    0.0000000000000000
     0.0000000000000000    0.0000000000000000    6.1749080000000003
 Li  Ti  S  
   1   1   2
Cartesian
  0.0000000000000000  0.0000000000000000  3.0874540000000001
  0.0000000000000000  0.0000000000000000  0.0000000000000000
  1.7191517191500001  0.9925506741150000  4.7110287353480000
 -0.0000017191500001  1.9851043258850001  1.4638792646520000
