Ti Si Ru
 1.0000000000000000
     3.9693930000000002    0.0000000000000000    0.0000000000000000
     0.0000000000000000    6.1101970000000003    0.0000000000000000
     0.0000000000000000    0.0000000000000000    7.2408640000000002
 Ti  Si  Ru 
   4   4   4
Cartesian
  2.9770447500000001  6.0166193329450008  5.8898997992000002
  0.9923482500000000  0.0935776670550000  1.3509642008000000
  2.9770447500000001  2.9615208329450002  4.9713962008000001
  0.9923482500000000  3.1486761670550001  2.2694677992000001
  2.9770447500000001  1.3619873520879999  2.7182203456000003
  0.9923482500000000  4.7482096479120006  4.5226436544000004
  2.9770447500000001  4.4170858520880003  0.9022116544000001
  0.9923482500000000  1.6931111479120002  6.3386523455999999
  2.9770447500000001  5.1035481544470001  3.2238571195839998
  0.9923482500000000  1.0066488455530000  4.0170068804160000
  2.9770447500000001  2.0484496544470003  0.3965748804160000
  0.9923482500000000  4.0617473455530000  6.8442891195840003
