Nd Ni P 
 1.0000000000000000
     3.6778290000000000    0.0000000000000000   -1.4145239999999999
    -0.5440380000000000    3.6373690000000001   -1.4145239999999999
     0.0046160000000000    0.0053580000000000    5.5005280000000001
 Nd  Ni  P  
   1   2   2
Cartesian
  0.0000000000000000  0.0000000000000000  0.0000000000000000
  2.6246702500000003  0.9120212500000000  1.3357400000000001
  0.5137367500000000  2.7307057500000003  1.3357400000000001
  1.1648357540300001  1.3520167818500000  3.0286278848800001
  1.9735712459699999  2.2907102181500001 -0.3571478848799998
