Sc Rh
 1.0000000000000000
     3.2367949999999999    0.0000000000000000    0.0000000000000000
     0.0000000000000000    3.2367949999999999    0.0000000000000000
     0.0000000000000000    0.0000000000000000    3.2367949999999999
 Sc  Rh 
   1   1
Cartesian
  1.6183974999999999  1.6183974999999999  1.6183974999999999
  0.0000000000000000  0.0000000000000000  0.0000000000000000
