Ce Ge Pt
 1.0000000000000000
     4.3956569999999999    0.0000000000000000    0.0000000000000000
     0.0000000000000000    4.3956569999999999    0.0000000000000000
     0.0000000000000000    0.0000000000000000    9.9003090000000000
 Ce  Ge  Pt 
   2   4   4
Cartesian
  3.2967427499999999  3.2967427499999999  2.5200543537870002
  1.0989142500000000  1.0989142500000000  7.3802546462130003
  1.0989142500000000  3.2967427499999999  4.9501545000000000
  1.0989142500000000  1.0989142500000000  1.2757835186670001
  3.2967427499999999  1.0989142500000000  4.9501545000000000
  3.2967427499999999  3.2967427499999999  8.6245254813330003
  3.2967427499999999  1.0989142500000000  0.0000000000000000
  3.2967427499999999  3.2967427499999999  6.1609424900820002
  1.0989142500000000  1.0989142500000000  3.7393665099179998
  1.0989142500000000  3.2967427499999999  0.0000000000000000
