Li S  O 
 1.0000000000000000
     4.9207890000000001    0.0000000000000000    0.0000000000000000
     0.0000000000000000    8.2002950000000006    0.0079680000000000
     0.0000000000000000    2.5570070000000000    7.9885950000000001
 Li  S   O  
   8   4  16
Cartesian
  4.5532011409109998  0.8338301076580000  1.0304115103560001
  2.0928066409109998  5.8233243923420002  6.9621674896440000
  0.3675878590890000  9.9234718923420004  6.9661514896440000
  2.8279823590890003  4.9339776076580009  1.0343955103560001
  4.5752708795760002  3.4421157215360001  3.0279481690469998
  2.1148763795760002  3.2150387784640002  4.9646308309530003
  0.3455181204240000  7.3151862784640009  4.9686148309530003
  2.8059126204239999  7.5422632215360004  3.0319321690469998
  2.1431807579040001  2.1753037410439999  2.0105166354690001
  2.7776082420960000  8.5819982589560002  5.9860463645310000
  0.3172137420960000  6.2754512410440011  2.0145006354690000
  4.6035752579040006  4.4818507589559999  5.9820623645310000
  2.7202712086680001  2.8431150483060001  3.1964720249399998
  2.2005177913320000  7.9141869516940000  4.8000909750599998
  0.2598767086680000  3.8140394516940002  4.7961069750599998
  3.1517063050320000  4.6545967168780003  5.7974396078339998
  1.7690826949680001  6.1027052831220008  2.1991233921659998
  4.2294771949680001  8.7547442168780005  5.8014236078339998
  4.6035014460690000  4.9607512294220006  1.8205103470920001
  0.6913118050320001  2.0025577831220001  2.1951393921659998
  2.1431069460690000  9.8966982705779998  6.1800366529080000
  0.3172875539310000  5.7965507705780004  6.1760526529080000
  0.0382935799980000  7.1230754964700012  0.8424281684520001
  2.7776820539309997  0.8606037294220000  1.8165263470920001
  2.4221009200019998  3.0229279964700000  0.8384441684520001
  4.8824954200019999  3.6342265035299999  7.1541348315479993
  2.4986880799979998  7.7343740035299993  7.1581188315479993
  4.6609122913320000  6.9432625483060004  3.2004560249399998
