Rb As
 1.0000000000000000
     6.0809480000000002    0.0000000000000000    0.0000000000000000
    -3.0404740000000001    5.2662560000000003    0.0000000000000000
     0.0000000000000000    0.0000000000000000   10.7327239999999993
 Rb  As 
   6   2
Cartesian
 -0.0000030404740001  3.5108390887520002  6.2292837423239993
  3.0404770404740002  1.7554169112480000  0.8629217423240000
  3.0404770404740002  1.7554169112480000  4.5034402576760000
 -0.0000030404740001  3.5108390887520002  9.8698022576759996
  0.0000000000000000  0.0000000000000000  8.0495429999999999
  0.0000000000000000  0.0000000000000000  2.6831809999999998
  3.0404770404740002  1.7554169112480000  8.0495429999999999
 -0.0000030404740001  3.5108390887520002  2.6831809999999998
