Cs Ti Cl
 1.0000000000000000
     6.3370470000000001    0.0000000000000000    3.6586959999999999
     2.1123500000000002    5.9746259999999998    3.6586959999999999
     0.0000000000000000    0.0000000000000000    7.3173919999999999
 Cs  Ti  Cl 
   2   1   6
Cartesian
  2.1123492500000003  1.4936564999999999  3.6586959999999999
  6.3370477500000009  4.4809694999999996 10.9760880000000007
  0.0000000000000000  0.0000000000000000  0.0000000000000000
  3.0740346768980005  4.6145979851160002  9.3104007894720002
  3.0740346768980005  4.6145979851160002  5.3243832105279996
  5.3753623231020002  1.3600280148840000  9.3104007894720002
  5.3753623231020002  1.3600280148840000  5.3243832105279996
  6.5260269633019998  4.6145979851160002  7.3173919999999999
  1.9233700366980002  1.3600280148840000  7.3173919999999999
