Co Tc
 1.0000000000000000
     5.3300159999999996    0.0000600000000000    0.0000000000000000
    -2.6650420000000001    4.6156940000000004    0.0000000000000000
     0.0000000000000000    0.0000000000000000    4.2807160000000000
 Co  Tc 
   2   6
Cartesian
 -0.0001665777560002  3.0772385690440003  3.2105327192839996
  2.6651032681199998  1.5384508104000001  1.0701747192840001
 -0.0000779804860002  1.5415548850460004  1.0701747192840001
  1.3295761512679998  3.8446453473680000  1.0701747192840001
 -1.3297447224760002  3.8447261887640001  1.0701747192840001
  2.6650573110460001  3.0741252634300000  3.2105327192839996
  1.3355657435900001  0.7711963532780001  3.2105327192839996
  3.9945934666579999  0.7710878142380001  3.2105327192839996
