Ca Si
 1.0000000000000000
     3.5852330000000001    3.5852330000000001    0.0000000000000000
     3.5852330000000001    0.0000000000000000   -3.5852330000000001
     0.0000000000000000    3.5852330000000001   -3.5852330000000001
 Ca  Si 
   2   1
Cartesian
  1.7926165000000001  1.7926165000000001 -1.7926165000000001
  5.3778494999999999  5.3778494999999999 -5.3778494999999999
  0.0000000000000000  0.0000000000000000  0.0000000000000000
