Mg Al Pd
 1.0000000000000000
     0.0000000000000000    3.0919189999999999    3.0919189999999999
     3.0919189999999999    0.0000000000000000    3.0919189999999999
     3.0919189999999999    3.0919189999999999    0.0000000000000000
 Mg  Al  Pd 
   1   1   2
Cartesian
  4.6378784999999993  4.6378784999999993  4.6378784999999993
  1.5459594999999999  1.5459594999999999  1.5459594999999999
  0.0000000000000000  0.0000000000000000  0.0000000000000000
  3.0919189999999999  3.0919189999999999  3.0919189999999999
