Ba H  Os
 1.0000000000000000
     4.0462080000000000    4.0462080000000000    0.0000000000000000
     0.0000000000000000    4.0462080000000000    4.0462080000000000
     4.0462080000000000    0.0000000000000000    4.0462080000000000
 Ba  H   Os 
   2   6   1
Cartesian
  6.0693120000000000  6.0693120000000000  6.0693120000000000
  2.0231040000000000  2.0231040000000000  2.0231040000000000
  4.0462080000000000  4.0462080000000000  6.3599673054719998
  4.0462080000000000  1.7324486945280000  4.0462080000000000
  1.7324486945280000  4.0462080000000000  4.0462080000000000
  4.0462080000000000  4.0462080000000000  1.7324486945280000
  4.0462080000000000  6.3599673054719998  4.0462080000000000
  6.3599673054719998  4.0462080000000000  4.0462080000000000
  0.0000000000000000  0.0000000000000000  0.0000000000000000
