Sc C 
 1.0000000000000000
     7.2253910000000001    0.0000000000000000    0.0000000000000000
     0.0000000000000000    7.2253910000000001    0.0000000000000000
     0.0000000000000000    0.0000000000000000    7.2253910000000001
 Sc  C  
  16  12
Cartesian
  3.9687194161340003  3.2566715838660003  6.8693670838659999
  5.7750671661340007  5.7750671661340007  5.7750671661340007
  3.2566715838660003  6.8693670838659999  3.9687194161340003
  6.8693670838659999  3.9687194161340003  3.2566715838660003
  1.4503238338659998  5.0630193338659994  5.7750671661340007
  1.4503238338659998  2.1623716661339998  5.0630193338659994
  5.7750671661340007  1.4503238338659998  5.0630193338659994
  0.3560239161340000  0.3560239161340000  0.3560239161340000
  0.3560239161340000  6.8693670838659999  3.2566715838660003
  2.1623716661339998  2.1623716661339998  2.1623716661339998
  6.8693670838659999  3.2566715838660003  0.3560239161340000
  3.2566715838660003  0.3560239161340000  6.8693670838659999
  5.0630193338659994  1.4503238338659998  2.1623716661339998
  5.0630193338659994  5.7750671661340007  1.4503238338659998
  2.1623716661339998  5.0630193338659994  1.4503238338659998
  3.9687194161340003  3.9687194161340003  3.9687194161340003
  0.9031738750000000  0.0000000000000000  5.4190432499999996
  3.6126955000000001  5.4190432499999996  6.3222171249999999
  0.0000000000000000  5.4190432499999996  0.9031738750000000
  5.4190432499999996  0.9031738750000000  0.0000000000000000
  5.4190432499999996  6.3222171249999999  3.6126955000000001
  6.3222171249999999  3.6126955000000001  5.4190432499999996
  4.5158693750000003  3.6126955000000001  1.8063477500000000
  0.0000000000000000  1.8063477500000000  2.7095216249999998
  3.6126955000000001  1.8063477500000000  4.5158693750000003
  1.8063477500000000  4.5158693750000003  3.6126955000000001
  1.8063477500000000  2.7095216249999998  0.0000000000000000
  2.7095216249999998  0.0000000000000000  1.8063477500000000
