Ti Mo Ir
 1.0000000000000000
     0.0000040000000000    3.1131519999999999    3.1131519999999999
     3.1131519999999999    0.0000040000000000    3.1131519999999999
     3.1131509999999998    3.1131519999999999    0.0000040000000000
 Ti  Mo  Ir 
   2   1   1
Cartesian
  6.2263070000000003  6.2263079999999995  6.2263079999999995
  3.1131597263069999  3.1131602263080000  3.1131602263080005
  4.6697240236930000  4.6697247736919998  4.6697247736919998
  1.5565767500000001  1.5565769999999999  1.5565769999999999
