Ca Pr Hg
 1.0000000000000000
     0.0000000000000000    3.8019159999999999    3.8019159999999999
     3.8019159999999999    0.0000000000000000    3.8019159999999999
     3.8019159999999999    3.8019159999999999    0.0000000000000000
 Ca  Pr  Hg 
   1   1   2
Cartesian
  1.9009579999999999  1.9009579999999999  1.9009579999999999
  5.7028739999999996  5.7028739999999996  5.7028739999999996
  0.0000000000000000  0.0000000000000000  0.0000000000000000
  3.8019159999999999  3.8019159999999999  3.8019159999999999
