In P  S 
 1.0000000000000000
     5.0657839999999998    0.0000200000000000   -2.6717930000000001
    -1.4091629999999999    4.8658549999999998   -2.6717710000000001
    -0.0290040000000000   -0.0386230000000000    6.0833300000000001
 In  P   S  
   1   1   4
Cartesian
  0.0000000000000000  0.0000000000000000  0.0000000000000000
  3.4325452500000000  1.1971672500000001  0.3698775000000003
  1.6910599106139999  1.7574335743660001 -0.5430193386250001
  2.9081450701969995  4.3627125765110000 -3.0133847723090001
 -0.3023571140990001  2.7140519228990003  2.7133124664059993
  2.9583990831820000  0.8202961945540000  2.3226236444839996
