Th B 
 1.0000000000000000
     4.1089840000000004    0.0000000000000000    0.0000000000000000
     0.0000000000000000    4.1089840000000004    0.0000000000000000
     0.0000000000000000    0.0000000000000000    4.1089840000000004
 Th  B  
   1   6
Cartesian
  0.0000000000000000  0.0000000000000000  0.0000000000000000
  3.2968556393520001  2.0544920000000002  2.0544920000000002
  0.8121283606480001  2.0544920000000002  2.0544920000000002
  2.0544920000000002  2.0544920000000002  3.2968556393520001
  2.0544920000000002  2.0544920000000002  0.8121283606480001
  2.0544920000000002  0.8121283606480001  2.0544920000000002
  2.0544920000000002  3.2968556393520001  2.0544920000000002
