Fe As S 
 1.0000000000000000
     5.6388889999999998   -0.0000740000000000    0.0000360000000000
    -0.0000710000000000    5.2827120000000001   -2.1213890000000002
     0.0000490000000000    0.0209100000000000    5.7117610000000001
 Fe  As  S  
   4   4   4
Cartesian
  2.7696011891759995  3.7701584854879999 -0.3499575918159999
  2.8692658108239995  1.5333895145119998  3.9403655918160001
  5.5890579198620003  1.5229253400540002  1.0845204076280002
  0.0498090801380000  3.7806226599460002  2.5058875923719999
  2.0810792470560000  0.7845695212500001  1.8130572939089999
  4.9005067786699996  4.5085639884640001 -1.0785388450350002
  0.7383602213300000  0.7949840115360000  4.6689468450349993
  3.5577877529439998  4.5189784787500002  1.7773507060909999
  4.9052386004119990  1.8512393702920003  3.1349410456229996
  2.0857795374129999  3.4627406028320000  3.3113582080620003
  3.5530874625869995  1.8408073971679999  0.2790497919380000
  0.7336283995880000  3.4523086297079999  0.4554669543770001
