Ca H  O 
 1.0000000000000000
     1.7939090000000000    3.1026750000000001   -0.1643360000000000
    -1.7939090000000000    3.1026750000000001   -0.1643360000000000
    -0.0000000000000000    0.3712000000000000    4.7944250000000004
 Ca  H   O  
   1   2   2
Cartesian
 -1.4862858968620001  3.1026750000000001 -0.1643360000000000
  0.3384980709370000  4.3825846177249996  2.4638183227160000
  0.3384980709370000  2.1939653822750000  2.0019346772840003
  0.3079388311220000  4.4497534669999999  3.4269387495660002
  0.3079388311220000  2.1267965330000003  1.0388142504340001
