Mg Zn Ag
 1.0000000000000000
     3.9326580000000000    0.0000000000000000    2.2705220000000002
     1.3108860000000000    3.7077450000000001    2.2705220000000002
     0.0000000000000000    0.0000000000000000    4.5410430000000002
 Mg  Zn  Ag 
   1   1   2
Cartesian
  0.0000000000000000  0.0000000000000000  0.0000000000000000
  2.6217720000000000  1.8538725000000000  4.5410435000000007
  3.9326580000000000  2.7808087500000003  6.8115652500000010
  1.3108860000000000  0.9269362500000000  2.2705217500000003
