Y  Mn Si
 1.0000000000000000
     3.8963310000000000    0.0000000000000000    0.0000000000000000
     0.0000000000000000    3.8963310000000000    0.0000000000000000
     0.0000000000000000    0.0000000000000000   10.3463840000000005
 Y   Mn  Si 
   2   4   4
Cartesian
  0.0000000000000000  0.0000000000000000  0.0000000000000000
  1.9481655000000000  1.9481655000000000  5.1731920000000002
  1.9481655000000000  0.0000000000000000  7.7597880000000004
  0.0000000000000000  1.9481655000000000  7.7597880000000004
  0.0000000000000000  1.9481655000000000  2.5865960000000001
  1.9481655000000000  0.0000000000000000  2.5865960000000001
  1.9481655000000000  1.9481655000000000  1.2447527662719999
  1.9481655000000000  1.9481655000000000  9.1016312337279999
  0.0000000000000000  0.0000000000000000  6.4179447662719999
  0.0000000000000000  0.0000000000000000  3.9284392337280001
