Er In Pd
 1.0000000000000000
     7.6627710000000002    0.0000000000000000    0.0000000000000000
    -3.8313850000000000    6.6361549999999996    0.0000000000000000
     0.0000000000000000    0.0000000000000000    3.7565930000000001
 Er  In  Pd 
   3   3   3
Cartesian
  3.1153455266759997  0.0000000000000000  1.8782965000000000
  2.2737130333840003  3.9381863678199998  1.8782965000000000
 -1.5576725600599999  2.6979686321799998  1.8782965000000000
  1.0036583824020000  1.7383872553349999  0.0000000000000000
  5.6554544971530003  0.0000000000000000  0.0000000000000000
 -2.8277268795550001  4.8977677446649999  0.0000000000000000
  0.0000000000000000  0.0000000000000000  1.8782965000000000
  3.8313894980520002  2.2120494546149998  0.0000000000000000
 -0.0000034980520000  4.4241055453850002  0.0000000000000000
