Na Zn
 1.0000000000000000
     7.3923649999999999    0.0000000000000000    4.2679840000000002
     2.4641220000000001    6.9695879999999999    4.2679840000000002
     0.0000000000000000    0.0000000000000000    8.5359669999999994
 Na  Zn 
   2  26
Cartesian
  2.4641217499999999  1.7423970000000000  4.2679837500000000
  7.3923652500000001  5.2271909999999995 12.8039512500000008
  3.4502782090289998  5.5749525324359999  8.0138650784449990
  5.3261349357250003  0.4262948500199999 11.2629442221569995
  7.6791937902090002  2.0901585324360004 11.2629444608890008
  7.4888208914650001  6.5432931499799993  9.5548720563909999
  1.1911368006590002  2.0901585324360004  9.5548714174529987
  2.7655579830949999  6.5432931499799993 10.2440401046009999
  7.0909290169050001  0.4262948500199999  6.8278948953990000
  3.7371066993409996  1.3946354675640000  9.5548715563909994
  6.9944735642750002  3.0584991499799998  6.9949609608890002
  4.6414147097910003  1.3946354675640000  6.9949607221569998
  7.2959096085350001  3.9110888500200001  9.5548719174529992
  6.1193803006590004  5.5749525324359999  7.5170634436090005
  5.2150722902090001  5.5749525324359999 10.0769742778430000
  2.5605773914649999  3.0584991499799998  7.5170630825469997
  2.8620134357250002  3.9110888500200001 10.0769740391109988
  8.6653501993410007  4.8794294675640000  7.5170635825470011
  4.5303520642750001  6.5432931499799993  5.8089907778430003
  3.9420872909710001  4.8794294675640000 12.2818485784449987
  5.9143997090290004  2.0901585324360004  4.7900864215550003
  2.1772932097910003  4.8794294675640000  5.8089905391109999
  2.3676661085349999  0.4262948500199999  7.5170629436090000
  4.6268075169050000  3.9110888500200001  5.9760566046010002
  5.2296794830950004  3.0584991499799998 11.0958783953989997
  6.4062087909710002  1.3946354675640000  9.0580699215550009
  0.0000000000000000  0.0000000000000000  0.0000000000000000
  4.9282434999999998  3.4847939999999999  8.5359674999999999
