Ba Pd
 1.0000000000000000
     4.9374979999999997   -0.0000000000000000    2.8506659999999999
     1.6458320000000000    4.6551169999999997    2.8506659999999999
     0.0000000000000000    0.0000000000000000    5.7013309999999997
 Ba  Pd 
   2   4
Cartesian
  0.8229162500000000  0.5818896250000000  1.4253328750000001
  5.7604137499999997  4.0732273750000001  9.9773301249999999
  2.4687489999999999  0.0000000000000000  4.2759985000000000
  0.8229160000000000  2.3275584999999999  4.2759985000000000
  3.2916650000000001  2.3275584999999999  5.7013315000000002
  3.2916650000000001  2.3275584999999999  2.8506659999999999
