Ca Zn
 1.0000000000000000
     5.6157589999999997    0.0000000000000000    0.0000000000000000
    -2.8078799999999999    4.8633889999999997    0.0000000000000000
     0.0000000000000000    0.0000000000000000    8.9254359999999995
 Ca  Zn 
   4   8
Cartesian
 -0.0000031412130002  3.2422609544629997  0.5209866247560000
  2.8078821412129997  1.6211280455369999  4.9837046247559993
  2.8078821412129997  1.6211280455369999  8.4044493752440008
 -0.0000031412130002  3.2422609544629997  3.9417313752439997
  0.0000000000000000  0.0000000000000000  0.0000000000000000
  0.0000000000000000  0.0000000000000000  4.4627179999999997
  2.8078763587029991  3.2430780038149996  2.2313589999999999
 -1.4046449444629998  4.0532310702129992  6.6940770000000001
  1.4046497268049996  4.0532310702129992  6.6940770000000001
  1.4032292731949998  0.8101579297870000  2.2313589999999999
  4.2125239444629994  0.8101579297870000  2.2313589999999999
  0.0000026412970001  1.6203109961850000  6.6940770000000001
