Ti Be Ir
 1.0000000000000000
     0.0000470000000000    2.8326180000000001    2.8326180000000001
     2.8326180000000001    0.0000470000000000    2.8326180000000001
     2.8326180000000001    2.8326180000000001    0.0000470000000000
 Ti  Be  Ir 
   1   2   1
Cartesian
  4.2489679152830000  4.2489679152830000  4.2489679152830000
  2.8326415000000003  2.8326415000000003  2.8326415000000003
  5.6652773347170005  5.6652773347170005  5.6652773347169996
  1.4163207500000001  1.4163207500000001  1.4163207500000001
