Al Tl F 
 1.0000000000000000
     4.7385700000000002    0.0000000000000000   -1.7688480000000000
    -0.6545590000000000    4.7302350000000004   -1.7534980000000000
     0.0015460000000000    0.0114660000000000    7.2356499999999997
 Al  Tl  F  
   2   2   8
Cartesian
  2.0420055000000001  2.3651175000000002 -1.7611729999999999
  0.0000000000000000  0.0000000000000000  0.0000000000000000
  3.3248771428100001  1.1882917500000001  1.8775200000159997
  0.7606798571900000  3.5534092500000005  1.8357839999839998
  2.9142940708660001  3.0489070421159998 -0.3824772019819999
  3.8410673527240009  4.0579114578839999  2.1002588370059994
  1.1712629291339998  1.6927939578840001  4.0957812019819997
  0.2444849087060000  0.6837895421160001  1.6130469318420002
  0.6306089875149999  3.4774030628010002 -1.3909482373219999
  2.7767963582650004  3.6294154371990004  4.3584793563299993
  3.4549480124850001  1.2642979371990002  5.1042522373219992
  1.3087606417350000  1.1122855628010000 -0.6451753563299999
