Cr Ir
 1.0000000000000000
     3.8253499999999998    0.0000000000000000    0.0000000000000000
     0.0000000000000000    3.8253499999999998    0.0000000000000000
     0.0000000000000000    0.0000000000000000    3.8253499999999998
 Cr  Ir 
   1   3
Cartesian
  0.0000000000000000  0.0000000000000000  0.0000000000000000
  0.0000000000000000  1.9126749999999999  1.9126749999999999
  1.9126749999999999  1.9126749999999999  0.0000000000000000
  1.9126749999999999  0.0000000000000000  1.9126749999999999
