Al W 
 1.0000000000000000
     7.5899710000000002    0.0000010000000000    0.0000010000000000
     0.0000010000000000    7.5899700000000001    0.0000010000000000
     0.0000010000000000    0.0000010000000000    7.5899720000000004
 Al  W  
  24   2
Cartesian
  0.0000004952070000  1.4169869877550001  2.3416203982720001
  6.1729844425830009  2.3416204078580001  0.0000011218230000
  5.2483512836269997  0.0000008781770000  1.4169877441090000
  6.1729848255530007  5.2483512187580006  0.0000015047930000
  2.3416207163729998  0.0000011218230000  6.1729852558910006
  1.4169875574169999  5.2483505921420006  0.0000008781770000
  5.2483519102429996  0.0000015047930000  6.1729856388610003
  2.3416200897569999  0.0000004952070000  1.4169873611390000
  1.4169871744470000  2.3416197812420001  0.0000004952070000
  0.0000011218230000  6.1729836292750004  2.3416210248880001
  0.0000008781770000  1.4169873707250000  5.2483519751120005
  0.0000015047930000  6.1729840122450002  5.2483526017280004
  3.7949869952070001  5.2119729877549998  6.1366073982720000
  2.3779999425829996  6.1366054078579992  3.7949871218230000
  1.4533667836269999  3.7949858781770001  5.2119737441089997
  2.3779993255529996  1.4533662187580001  3.7949865047930000
  6.1366062163730000  3.7949861218229999  2.3780002558910001
  5.2119730574169996  1.4533665921420000  3.7949868781770002
  1.4533664102430000  3.7949855047929999  2.3779996388610001
  6.1366065897570001  3.7949864952070000  5.2119743611390001
  5.2119736744469991  6.1366057812419994  3.7949874952070002
  3.7949866218230000  2.3779996292749996  6.1366070248879998
  3.7949863781770001  5.2119723707250003  1.4533669751120000
  3.7949860047930000  2.3779990122449997  1.4533666017280000
  0.0000000000000000  0.0000000000000000  0.0000000000000000
  3.7949865000000003  3.7949860000000002  3.7949870000000003
