Li Sm Se
 1.0000000000000000
     8.1813479999999998    0.0008920000000000    0.0003670000000000
     8.1821809999999999    7.1392670000000003    0.0386500000000000
     4.0913890000000004    4.7774130000000001    3.3780929999999998
 Li  Sm  Se 
   2   2   4
Cartesian
  4.0911158574190001  0.0009863657130000  0.0002199404400000
 10.2273705455829997  8.3466978940270007  3.3974161528959996
  8.1824918920989997  7.1392178233849997  0.0387905462400000
 14.3187932012960015  8.3476582094000005  3.3976527286649998
 12.2729404890910008  9.5416071917909999  1.7384835684249997
  8.1816584174439999  2.3755561956860003  1.6791941154840000
 10.2273014219110010  5.9445245917530007  1.6985155014460001
 14.3179838116280003  5.9740325880860006  1.7181674073870001
