Hf Co Si
 1.0000000000000000
     3.7320150000000001    0.0000000000000000    0.0000000000000000
     0.0000000000000000    3.7320150000000001    0.0000000000000000
     0.0000000000000000    0.0000000000000000    9.6087799999999994
 Hf  Co  Si 
   2   4   4
Cartesian
  0.0000000000000000  0.0000000000000000  0.0000000000000000
  1.8660075000000000  1.8660075000000000  4.8043899999999997
  1.8660075000000000  0.0000000000000000  7.2065849999999996
  0.0000000000000000  1.8660075000000000  7.2065849999999996
  0.0000000000000000  1.8660075000000000  2.4021949999999999
  1.8660075000000000  0.0000000000000000  2.4021949999999999
  1.8660075000000000  1.8660075000000000  8.4451567420000000
  1.8660075000000000  1.8660075000000000  1.1636232579999999
  0.0000000000000000  0.0000000000000000  3.6407667419999998
  0.0000000000000000  0.0000000000000000  5.9680132579999992
