Mn V 
 1.0000000000000000
     2.8739349999999999    0.0000000000000000    0.0000000000000000
     0.0000000000000000    2.8739349999999999    0.0000000000000000
     0.0000000000000000    0.0000000000000000    2.8739349999999999
 Mn  V  
   1   1
Cartesian
  0.0000000000000000  0.0000000000000000  0.0000000000000000
  1.4369675000000000  1.4369675000000000  1.4369675000000000
