Sc Zn
 1.0000000000000000
     5.2826100000000000    0.0000000000000000    0.0000000000000000
    -2.6413050000000000    4.5748740000000003    0.0000000000000000
     0.0000000000000000    0.0000000000000000    8.4909700000000008
 Sc  Zn 
   4   8
Cartesian
 -0.0000026413050001  3.0499175249580004  4.7707873500200000
  2.6413076413050001  1.5249564750420002  0.5253023500200000
  2.6413076413050001  1.5249564750420002  3.7201826499800004
 -0.0000026413050001  3.0499175249580004  7.9656676499800012
  0.0000000000000000  0.0000000000000000  0.0000000000000000
  0.0000000000000000  0.0000000000000000  4.2454850000000004
  0.0000052826100000  1.5651650426279999  2.1227425000000002
  3.9271292522699994  0.7825870961880000  6.3682275000000006
  1.3554701825100000  0.7825870961880000  6.3682275000000006
  1.2858348174899998  3.7922869038120002  2.1227425000000002
 -1.2858242522699999  3.7922869038120002  2.1227425000000002
  2.6412997173899995  3.0097089573720002  6.3682275000000006
