Zn Cu O 
 1.0000000000000000
    -2.7102750000000002    2.7102750000000002    5.1839880000000003
     2.7102750000000002   -2.7102750000000002    5.1839880000000003
     2.7102750000000002    2.7102750000000002   -5.1839880000000003
 Zn  Cu  O  
   2   4   8
Cartesian
  0.0000000000000000  0.0000000000000000  0.0000000000000000
 -0.0000000000000002  2.7102750000000002  2.5919940000000001
  1.3551375000000001  0.0000000000000001  3.8879910000000004
 -0.0000000000000001  1.3551375000000001  6.4799850000000010
  1.3551375000000001  2.7102750000000002 -1.2959970000000001
  2.7102750000000002  1.3551375000000001  1.2959970000000001
  2.7102722897250002  1.4769508098750002 -1.3023784892280006
  1.4769480996000004  2.7102750000000002  1.3023836732159990
  1.2333241901250003  0.0000027102749999  6.4863664892279997
  2.7102777102750002  1.2333241901250001  3.8943724892279996
  2.7102750000000002 -1.2333269004000000  3.8943776732160003
  3.9436019004000005 -0.0000000000000002  1.2896103267840002
  0.0000000000000001  1.2333269004000000  3.8816043267840001
  1.4769508098750002 -0.0000027102750001  1.2896155107720004
