Li Si P 
 1.0000000000000000
     2.9531070000000001    6.3835649999999999    0.0035240000000000
    -2.9531070000000001    6.3835649999999999    0.0035240000000000
     0.0000000000000000    2.8652099999999998    8.1122049999999994
 Li  Si  P  
  10   2   6
Cartesian
 -1.5391121186880001  9.5718179747099992  3.4167257526619998
  1.6830938035800000  7.1828668304099992  2.2120337734519997
 -1.4120310651570001  4.3784960138250000  0.6380223311830000
 -1.3847000598719998 11.2482516278400002  7.3800881092710000
  1.5391121186879999 11.0044229747099997  7.4728282526619996
 -1.5267061161809998  6.0079035431849999  4.7270409457440001
 -1.6830938035800000  8.6154718304099998  6.2681362734519999
  1.4120310651570001  5.8111010138249997  4.6941248311829993
  1.3847000598719998  9.8156466278399996  3.3239856092709998
  1.5267061161810001  4.5752985431849993  0.6709384457440000
  1.0253335159350001  8.3774073104550002  5.6332674736439996
 -1.0253335159349999  6.9448023104549996  1.5771649736439999
 -2.7227085449670003  6.4980681266550002  0.3269009864950000
  0.0732252411720002 10.3201127209799992  5.4576905547639996
  2.7227085449670003  7.9306731266549999  4.3830034864949994
 -0.0657893177460001  5.3226066726900001  2.6401723508860000
 -0.0732252411720002  8.8875077209799986  1.4015880547639998
  0.0657893177460000  6.7552116726899998  6.6962748508859988
