Pr Sb Te
 1.0000000000000000
     4.3681919999999996    0.0000000000000000    0.0000000000000000
     0.0000000000000000    4.3681919999999996    0.0000000000000000
     0.0000000000000000    0.0000000000000000    9.6498709999999992
 Pr  Sb  Te 
   2   2   2
Cartesian
  3.2761439999999995  3.2761439999999995  6.9937826067339994
  1.0920479999999999  1.0920479999999999  2.6560883932659998
  3.2761439999999995  1.0920479999999999  0.0000000000000000
  1.0920479999999999  3.2761439999999995  0.0000000000000000
  3.2761439999999995  3.2761439999999995  3.6238064067589999
  1.0920479999999999  1.0920479999999999  6.0260645932409993
