Nb Al Co
 1.0000000000000000
     5.9725190000000001    0.0000000000000000    0.0000000000000000
     0.0000000000000000    5.9725190000000001    0.0000000000000000
     0.0000000000000000    0.0000000000000000    5.9725190000000001
 Nb  Al  Co 
   4   4   8
Cartesian
  0.0000000000000000  0.0000000000000000  0.0000000000000000
  0.0000000000000000  2.9862595000000001  2.9862595000000001
  2.9862595000000001  0.0000000000000000  2.9862595000000001
  2.9862595000000001  2.9862595000000001  0.0000000000000000
  0.0000000000000000  0.0000000000000000  2.9862595000000001
  0.0000000000000000  2.9862595000000001  0.0000000000000000
  2.9862595000000001  0.0000000000000000  0.0000000000000000
  2.9862595000000001  2.9862595000000001  2.9862595000000001
  1.4931297500000000  4.4793892500000005  4.4793892500000005
  1.4931297500000000  4.4793892500000005  1.4931297500000000
  1.4931297500000000  1.4931297500000000  1.4931297500000000
  1.4931297500000000  1.4931297500000000  4.4793892500000005
  4.4793892500000005  4.4793892500000005  1.4931297500000000
  4.4793892500000005  4.4793892500000005  4.4793892500000005
  4.4793892500000005  1.4931297500000000  4.4793892500000005
  4.4793892500000005  1.4931297500000000  1.4931297500000000
