Pm Ni Ir
 1.0000000000000000
     0.0000000000000000    3.4793799999999999    3.4793799999999999
     3.4793799999999999    0.0000000000000000    3.4793799999999999
     3.4793799999999999    3.4793799999999999    0.0000000000000000
 Pm  Ni  Ir 
   2   1   1
Cartesian
  0.0000000000000000  0.0000000000000000  0.0000000000000000
  3.4793799999999999  3.4793799999999999  3.4793799999999999
  5.2190769587599997  5.2190769587599997  5.2190769587599997
  1.7396969587599997  1.7396969587599997  1.7396969587599997
