Ti Sn C 
 1.0000000000000000
     3.1765379999999999    0.0000000000000000    0.0000000000000000
    -1.5882680000000000    2.7509619999999999    0.0000000000000000
     0.0000000000000000    0.0000000000000000   13.8025479999999998
 Ti  Sn  C  
   4   2   2
Cartesian
 -0.0000009216020001  1.8339755836539999  1.1126924070200002
 -0.0000009216020001  1.8339755836539999  5.7885815929800000
  1.5882709216020001  0.9169864163460000  8.0139664070199998
  1.5882709216020001  0.9169864163460000 12.6898555929800008
 -0.0000009216020001  1.8339755836539999 10.3519109999999994
  1.5882709216020001  0.9169864163460000  3.4506370000000000
  0.0000000000000000  0.0000000000000000  0.0000000000000000
  0.0000000000000000  0.0000000000000000  6.9012739999999999
