Rb Ca F 
 1.0000000000000000
     4.4542880000000000    0.0000000000000000    0.0000000000000000
     0.0000000000000000    4.4542880000000000    0.0000000000000000
     0.0000000000000000    0.0000000000000000    4.4542880000000000
 Rb  Ca  F  
   1   1   3
Cartesian
  0.0000000000000000  0.0000000000000000  0.0000000000000000
  2.2271440000000000  2.2271440000000000  2.2271440000000000
  2.2271440000000000  0.0000000000000000  2.2271440000000000
  2.2271440000000000  2.2271440000000000  0.0000000000000000
  0.0000000000000000  2.2271440000000000  2.2271440000000000
