Li Zr Tc
 1.0000000000000000
     0.0000000000000000    3.3026849999999999    3.3026849999999999
     3.3026849999999999    0.0000000000000000    3.3026849999999999
     3.3026849999999999    3.3026849999999999    0.0000000000000000
 Li  Zr  Tc 
   1   2   1
Cartesian
  1.6513491053699998  1.6513491053699998  1.6513491053699998
  0.0000000000000000  0.0000000000000000  0.0000000000000000
  3.3026849999999999  3.3026849999999999  3.3026849999999999
  4.9540341053699999  4.9540341053699999  4.9540341053699999
