Ho Fe Si
 1.0000000000000000
     4.0242639999999996    0.0000000000000000    0.0000000000000000
     0.0000000000000000    4.0242639999999996    0.0000000000000000
     0.0000000000000000    0.0000000000000000    6.3629590000000000
 Ho  Fe  Si 
   2   2   2
Cartesian
  3.0181979999999999  3.0181979999999999  1.9800383075380001
  1.0060659999999999  1.0060659999999999  4.3829206924620001
  3.0181979999999999  1.0060659999999999  0.0000000000000000
  1.0060659999999999  3.0181979999999999  0.0000000000000000
  3.0181979999999999  3.0181979999999999  5.2193952826020000
  1.0060659999999999  1.0060659999999999  1.1435637173980000
