Al Fe
 1.0000000000000000
     5.7441750000000003    0.0000000000000000    0.0000000000000000
     0.0000000000000000    5.7441750000000003    0.0000000000000000
     0.0000000000000000    0.0000000000000000    5.7441750000000003
 Al  Fe 
   4  12
Cartesian
  0.0000000000000000  0.0000000000000000  0.0000000000000000
  0.0000000000000000  2.8720875000000001  2.8720875000000001
  2.8720875000000001  0.0000000000000000  2.8720875000000001
  2.8720875000000001  2.8720875000000001  0.0000000000000000
  0.0000000000000000  2.8720875000000001  0.0000000000000000
  1.4360437500000001  4.3081312500000006  4.3081312500000006
  4.3081312500000006  1.4360437500000001  1.4360437500000001
  0.0000000000000000  0.0000000000000000  2.8720875000000001
  1.4360437500000001  1.4360437500000001  1.4360437500000001
  4.3081312500000006  4.3081312500000006  4.3081312500000006
  2.8720875000000001  2.8720875000000001  2.8720875000000001
  4.3081312500000006  4.3081312500000006  1.4360437500000001
  1.4360437500000001  1.4360437500000001  4.3081312500000006
  2.8720875000000001  0.0000000000000000  0.0000000000000000
  4.3081312500000006  1.4360437500000001  4.3081312500000006
  1.4360437500000001  4.3081312500000006  1.4360437500000001
