Mn Si
 1.0000000000000000
     6.8997489999999999    0.0000000000000000    0.0000000000000000
    -3.4498739999999999    5.9753579999999999    0.0000000000000000
     0.0000000000000000    0.0000000000000000    4.7934789999999996
 Mn  Si 
  10   6
Cartesian
 -2.6047100679840001  4.5114908957280004  3.5951092499999997
 -0.8451639320160000  1.4638671042720000  1.1983697499999999
  2.6047108230000000  4.5114908957280004  1.1983697499999999
  5.2094208909840001  0.0000000000000000  3.5951092499999997
  0.8451641770000000  1.4638671042720000  3.5951092499999997
  1.6903281090160001  0.0000000000000000  1.1983697499999999
 -0.0000031165409999  3.9835739917859998  2.3967394999999998
  3.4498781165410000  1.9917840082139999  0.0000000000000000
  3.4498781165410000  1.9917840082139999  2.3967394999999998
 -0.0000031165409999  3.9835739917859998  0.0000000000000000
  2.7439404805629999  0.0000000000000000  3.5951092499999997
  1.3719704391249998  2.3763221969460000  1.1983697499999999
 -2.0779039585620001  3.5990358030539999  1.1983697499999999
 -1.3719700414380001  2.3763221969460000  3.5951092499999997
  2.0779045608749995  3.5990358030539999  3.5951092499999997
  4.1558085194369996  0.0000000000000000  1.1983697499999999
