Ba Zr O 
 1.0000000000000000
     4.0310910000000000    0.0000000000000000   -1.1916700000000000
    -0.3522800000000000    4.0156689999999999   -1.1916700000000000
    -0.0036920000000000   -0.0040310000000000    7.4013840000000002
 Ba  Zr  O  
   2   1   4
Cartesian
  2.3797294115900005  2.5976340221900003  0.6360972187599999
  1.2953895884100000  1.4140039778099998  4.3819467812399999
  0.0000000000000000  0.0000000000000000  0.0000000000000000
  3.1009775743129997  3.3849244097329998  3.0758814299320001
  0.5741414256870000  0.6267135902669999  1.9421625700679999
 -0.1761400000000000  2.0078345000000000 -0.5958350000000000
  2.0155455000000000  0.0000000000000000 -0.5958350000000000
