Ta Be Ru
 1.0000000000000000
     0.0000000000000000    3.0060730000000002    3.0060730000000002
     3.0060730000000002    0.0000000000000000    3.0060730000000002
     3.0060730000000002    3.0060730000000002    0.0000000000000000
 Ta  Be  Ru 
   1   1   2
Cartesian
  4.5091095000000001  4.5091095000000001  4.5091095000000001
  1.5030365000000001  1.5030365000000001  1.5030365000000001
  0.0000000000000000  0.0000000000000000  0.0000000000000000
  3.0060730000000002  3.0060730000000002  3.0060730000000002
