Er Sb Pd
 1.0000000000000000
     3.9949499999999998    0.0000000000000000    2.3064849999999999
     1.3316500000000000    3.7664749999999998    2.3064849999999999
     0.0000000000000000    0.0000000000000000    4.6129709999999999
 Er  Sb  Pd 
   1   1   1
Cartesian
  0.0000000000000000  0.0000000000000000  0.0000000000000000
  2.6633000000000000  1.8832374999999999  4.6129704999999994
  1.3316500000000000  0.9416187499999999  2.3064852499999997
