Na U  O 
 1.0000000000000000
     4.2391399999999999    0.0000000000000000    1.8408929999999999
     2.1193300000000002    5.2774120000000000    0.9209960000000000
     0.0174510000000000   -0.0005990000000000    5.7611260000000000
 Na  U   O  
   4   1   5
Cartesian
  3.7978896054789999  3.1629281305230004  2.8569856922720001
  2.5780313945210001  2.1138848694770003  5.6660293077280004
  1.2773246152630000  1.1071668715109999  2.8599480043420002
  5.0985963847370002  4.1696461284890001  5.6630669956580002
  0.0000000000000000  0.0000000000000000  0.0000000000000000
  3.5262055140789998  0.9420787743289999  3.4826049909340000
  1.7440759239400001  3.4875815944020001  1.7851120528929998
  4.6318450760599994  1.7892314055980001  6.7379029471070000
  2.8497154859210001  4.3347342256710002  5.0404100090660000
  2.1195700000000000  0.0000000000000000  0.9204464999999999
