Sm As S 
 1.0000000000000000
     3.8760330000000001    0.0000000000000000    0.0000000000000000
     0.0000000000000000    3.9263180000000002    0.0000000000000000
     0.0000000000000000    0.0000000000000000   17.3376489999999990
 Sm  As  S  
   4   4   4
Cartesian
  0.9690082500000000  0.9202621917940000 14.8129752279179989
  2.9070247500000002  2.8834211917940000 11.1934982720819995
  2.9070247500000002  3.0060558082060003  2.5246737720819996
  0.9690082500000000  1.0428968082059999  6.1441507279179994
  0.9690082500000000  3.1052031903420003  8.6357616033570004
  2.9070247500000002  0.8211148096580001  8.7018873966429986
  0.9690082500000000  2.7842738096580000 17.3045861033569999
  2.9070247500000002  1.1420441903420000  0.0330628966430000
  0.9690082500000000  0.9313069243280000 11.9068558401869993
  0.9690082500000000  1.0318520756720000  3.2380313401870002
  2.9070247500000002  2.9950110756720001  5.4307931598129997
  2.9070247500000002  2.8944659243280002 14.0996176598129992
