Li B 
 1.0000000000000000
     4.0096990000000003    0.0001610000000000    0.0000000000000000
    -2.0047079999999999    3.4725940000000000    0.0000000000000000
     0.0000000000000000    0.0000000000000000    3.0953800000000000
 Li  B  
   2   2
Cartesian
  0.0000863146900003  2.3151348539420002  0.7738450000000000
  2.0049046853100001  1.1576201460580000  2.3215349999999999
  4.0096548950090005  0.0002026703230000  0.7738450000000000
 -2.0046638950090001  3.4725523296769998  2.3215349999999999
