Pr Nd Zn
 1.0000000000000000
    -0.0000220000000000    3.6797520000000001    3.6797520000000001
     3.6797520000000001   -0.0000220000000000    3.6797520000000001
     3.6797520000000001    3.6797520000000001   -0.0000220000000000
 Pr  Nd  Zn 
   1   1   2
Cartesian
  5.5196041405180001  5.5196041405180001  5.5196041405180001
  1.8398705000000000  1.8398705000000000  1.8398705000000000
  7.3594819999999999  7.3594819999999999  7.3594819999999999
  3.6797483594820002  3.6797483594820002  3.6797483594820002
