Sr Sn N  F 
 1.0000000000000000
     0.0000000000000000    5.2536269999999998    5.2536269999999998
     5.2536269999999998    0.0000000000000000    5.2536269999999998
     5.2536269999999998    5.2536269999999998    0.0000000000000000
 Sr  Sn  N   F  
   6   2   1   1
Cartesian
  7.9693528833479998  5.2536269999999998  5.2536269999999998
  5.2536269999999998  2.5379011166519998  5.2536269999999998
  5.2536269999999998  7.9693528833479998  5.2536269999999998
  5.2536269999999998  5.2536269999999998  7.9693528833479998
  5.2536269999999998  5.2536269999999998  2.5379011166519998
  2.5379011166519998  5.2536269999999998  5.2536269999999998
  2.6268134999999999  2.6268134999999999  2.6268134999999999
  7.8804404999999997  7.8804404999999997  7.8804404999999997
  0.0000000000000000  0.0000000000000000  0.0000000000000000
  5.2536269999999998  5.2536269999999998  5.2536269999999998
