Ta Cd O 
 1.0000000000000000
     0.0000000000000000    5.2047299999999996    5.2047299999999996
     5.2047299999999996    0.0000000000000000    5.2047299999999996
     5.2047299999999996    5.2047299999999996    0.0000000000000000
 Ta  Cd  O  
   4   4  14
Cartesian
  6.5059124999999991  6.5059124999999991  6.5059124999999991
  6.5059124999999991  3.9035474999999997  3.9035474999999997
  3.9035474999999993  3.9035474999999993  6.5059124999999991
  3.9035474999999997  6.5059124999999991  3.9035474999999993
  1.3011824999999999  1.3011824999999999  1.3011824999999999
  1.3011824999999999  3.9035474999999993  3.9035474999999993
  3.9035474999999997  3.9035474999999997  1.3011824999999999
  3.9035474999999993  1.3011824999999999  3.9035474999999997
  7.8070949999999995  7.8070949999999995  5.7995994106199991
  5.2047299999999996  5.2047299999999996  3.1972344106199997
  7.8070949999999995  9.8145905893799998  7.8070949999999995
  5.7995994106199991  7.8070949999999995  7.8070949999999995
  9.8145905893799998  7.8070949999999995  7.8070949999999995
  7.8070949999999995  5.7995994106199991  7.8070949999999995
  5.2047299999999996  3.1972344106199997  5.2047299999999996
  5.2047299999999996  7.2122255893800000  5.2047299999999996
  2.6023649999999998  2.6023649999999998  2.6023649999999998
  0.0000000000000000  0.0000000000000000  0.0000000000000000
  7.8070949999999995  7.8070949999999995  9.8145905893799998
  3.1972344106199997  5.2047299999999996  5.2047299999999996
  7.2122255893800000  5.2047299999999996  5.2047299999999996
  5.2047299999999996  5.2047299999999996  7.2122255893800000
