Cu Pd
 1.0000000000000000
     5.9152009999999997   -0.0000010000000000    0.0000000000000000
     0.0000010000000000    5.9152009999999997    0.0000000000000000
     0.0000000000000000    0.0000000000000000    7.2995049999999999
 Cu  Pd 
  16   4
Cartesian
  0.0000000000000000  0.0000000000000000  0.0000000000000000
  0.0000000000000000  0.0000000000000000  3.6497525000000000
  2.9576009999999999  2.9575999999999998  1.8248762500000000
  2.9576009999999999  2.9575999999999998  5.4746287499999999
  1.1345006647820000  3.5738932699939996  0.0000000000000000
  2.3413077300059997  1.1344996647819998  3.6497525000000000
  3.5738942699939993  4.7807003352179995  3.6497525000000000
  4.7807013352179997  2.3413067300060000  0.0000000000000000
  0.5724497892159999  1.7582342484639999  1.8198833885800001
  4.1569667515359994  0.5724487892160000  5.4696358885800000
  1.7582352484640000  5.3427512107839998  5.4696358885800000
  5.3427522107840000  4.1569657515360001  1.8198833885800001
  5.3427522107840000  4.1569657515360001  5.4796216114199998
  1.7582352484640000  5.3427512107839998  1.8298691114200001
  4.1569667515359994  0.5724487892160000  1.8298691114200001
  0.5724497892159999  1.7582342484639999  5.4796216114199998
  2.3514049942269999  1.2298172119890001  0.0000000000000000
  4.6853837880109994  2.3514039942269997  3.6497525000000000
  1.2298182119890000  3.5637960057730003  3.6497525000000000
  3.5637970057730000  4.6853827880110002  0.0000000000000000
