Rb Er Se
 1.0000000000000000
     8.0241819999999997   -2.0916720000000000   -0.0000490000000000
     8.0241819999999997    2.0916720000000000   -0.0000490000000000
     7.4789669999999999    0.0000000000000000    3.5815720000000000
 Rb  Er  Se 
   1   1   2
Cartesian
  0.0000000000000000  0.0000000000000000  0.0000000000000000
 11.7636655000000001  0.0000000000000000  1.7907370000000000
  5.4441302840759995  0.0000000000000000  0.8287387577040000
 18.0832007159239971 -0.0000000000000000  2.7527352422959996
