Sr P  N 
 1.0000000000000000
     5.0592030000000001    0.0000000000000000    0.0000000000000000
     0.0000000000000000    5.0592030000000001    0.0000000000000000
     0.0000000000000000    0.0000000000000000    5.0592030000000001
 Sr  P   N  
   3   1   1
Cartesian
  0.0000000000000000  2.5296015000000001  2.5296015000000001
  2.5296015000000001  0.0000000000000000  2.5296015000000001
  2.5296015000000001  2.5296015000000001  0.0000000000000000
  0.0000000000000000  0.0000000000000000  0.0000000000000000
  2.5296015000000001  2.5296015000000001  2.5296015000000001
