Sm Pt
 1.0000000000000000
     4.7229159999999997    0.0000000000000000    2.7267769999999998
     1.5743060000000000    4.4528080000000001    2.7267769999999998
     0.0000000000000000    0.0000000000000000    5.4535530000000003
 Sm  Pt 
   2   4
Cartesian
  0.7871527500000000  0.5566010000000000  1.3633883750000000
  5.5100692499999999  3.8962070000000000  9.5437186250000003
  0.7871530000000000  2.2264040000000000  4.0901649999999998
  2.3614579999999998  0.0000000000000000  4.0901649999999998
  3.1486109999999998  2.2264040000000000  2.7267769999999998
  3.1486109999999998  2.2264040000000000  5.4535534999999999
