Ba Ti F 
 1.0000000000000000
     4.8666520000000002   -0.0109360000000000   -0.6666360000000000
    -0.7627090000000000    4.8065259999999999   -0.6666360000000000
    -0.0093580000000000   -0.0109360000000000    4.9120889999999999
 Ba  Ti  F  
   1   1   6
Cartesian
  0.0000000000000000  0.0000000000000000  0.0000000000000000
  2.0472925000000002  2.3923269999999999  1.7894085000000000
  1.4618040398090002  3.7018905098219994  2.9993358407849997
  3.1679833269390003  3.7018905098219999  1.0472674398599997
  2.6327809601909995  1.0827634901779999  0.5794811592150000
  0.6629943645980000  2.7684560709840000  0.5794811592150000
  0.9266016730610001  1.0827634901780001  2.5315495601399998
  3.4315906354019998  2.0161979290159997  2.9993358407849997
