Tm Si Rh
 1.0000000000000000
     3.7595399999999999    0.0000000000000000   -1.4175650000000000
    -0.5345040000000000    3.7213509999999999   -1.4175650000000000
     0.0015730000000000    0.0018160000000000    5.6983150000000000
 Tm  Si  Rh 
   1   2   2
Cartesian
  0.0000000000000000  0.0000000000000000  0.0000000000000000
  2.0030537738140000  2.3113127683910002 -0.3818204144999999
  1.2235552261860001  1.4118542316090001  3.2450054145000000
  0.5397935000000000  2.7919212499999997  1.4315925000000000
  2.6868154999999998  0.9312457500000000  1.4315925000000000
