Sr Cu Sb
 1.0000000000000000
     4.5662630000000002    0.0000000000000000    0.0000000000000000
     0.0000000000000000    4.5662630000000002    0.0000000000000000
     0.0000000000000000    0.0000000000000000   10.7593949999999996
 Sr  Cu  Sb 
   2   4   4
Cartesian
  1.1415657500000000  1.1415657500000000  2.5457696915549999
  3.4246972500000004  3.4246972500000004  8.2136253084449997
  1.1415657500000000  1.1415657500000000  6.8097609676349995
  3.4246972500000004  1.1415657500000000  0.0000000000000000
  3.4246972500000004  3.4246972500000004  3.9496340323649997
  1.1415657500000000  3.4246972500000004  0.0000000000000000
  3.4246972500000004  3.4246972500000004  1.3829588363250001
  1.1415657500000000  3.4246972500000004  5.3796974999999998
  3.4246972500000004  1.1415657500000000  5.3796974999999998
  1.1415657500000000  1.1415657500000000  9.3764361636750007
