Si
 1.0000000000000000
     5.4685949999999997    0.0000000000000000    0.0000000000000000
     0.0000000000000000    5.4685949999999997    0.0000000000000000
     0.0000000000000000    0.0000000000000000    5.4685949999999997
 Si 
   8
Cartesian
  2.0507231249999998  2.0507231249999998  2.0507231249999998
  0.6835743750000000  0.6835743750000000  3.4178718749999999
  2.0507231249999998  4.7850206249999996  4.7850206249999996
  0.6835743750000000  3.4178718749999999  0.6835743750000000
  4.7850206249999996  2.0507231249999998  4.7850206249999996
  3.4178718749999999  0.6835743750000000  0.6835743750000000
  4.7850206249999996  4.7850206249999996  2.0507231249999998
  3.4178718749999999  3.4178718749999999  3.4178718749999999
