Mn Cu Ge S 
 1.0000000000000000
     6.2395750000000003    0.0000000000000000    0.0000000000000000
     0.0000000000000000    6.5044829999999996    0.0000000000000000
     0.0000000000000000    0.0000000000000000    7.5931639999999998
 Mn  Cu  Ge  S  
   2   4   2   8
Cartesian
  3.1343007514500005  5.4696067457339996  0.0000000000000000
  0.0145132514500000  1.0348762542659999  3.7965819999999999
  0.0594194727250000  4.3916187781439993  5.7039772036359997
  0.0594194727250000  4.3916187781439993  1.8891867963639999
  3.1792069727249999  2.1128642218559999  1.9073952036360000
  3.1792069727249999  2.1128642218559999  5.6857687963640000
  3.1320607440250003  5.3757600650099997  3.7965819999999999
  0.0122732440250000  1.1287229349899999  0.0000000000000000
  2.3537860751249999  4.2864803149319997  5.6327761048079994
  5.4735735751250001  2.2180026850679999  5.7569698951920003
  5.4735735751250001  2.2180026850679999  1.8361941048079999
  2.3537860751249999  4.2864803149319997  1.9603878951920002
  2.2886948287250002  1.1960313250740000  0.0000000000000000
  5.5332363912749996  5.4811001671949997  0.0000000000000000
  5.4084823287250003  5.3084516749259993  3.7965819999999999
  2.4134488912750003  1.0233828328049999  3.7965819999999999
