La Tl C 
 1.0000000000000000
     5.2407729999999999    0.0000000000000000    0.0000000000000000
     0.0000000000000000    5.2407729999999999    0.0000000000000000
     0.0000000000000000    0.0000000000000000    5.2407729999999999
 La  Tl  C  
   3   1   1
Cartesian
  2.6203865000000000  0.0000000000000000  2.6203865000000000
  0.0000000000000000  2.6203865000000000  2.6203865000000000
  2.6203865000000000  2.6203865000000000  0.0000000000000000
  0.0000000000000000  0.0000000000000000  0.0000000000000000
  2.6203865000000000  2.6203865000000000  2.6203865000000000
