Zr Ni As
 1.0000000000000000
     3.9083489999999999    0.0000000000000000    0.0000000000000000
    -1.9541759999999999    3.3847299999999998    0.0000000000000000
     0.0000000000000000    0.0000000000000000   13.2347000000000001
 Zr  Ni  As 
   4   2   4
Cartesian
  1.9541759541749999  1.1282422050899998  5.1321652007000003
 -0.0000029541750001  2.2564877949100000 11.7495152007000012
 -0.0000029541750001  2.2564877949100000  8.1025347992999990
  1.9541759541749999  1.1282422050899998  1.4851847993000000
  0.0000000000000000  0.0000000000000000  9.9260249999999992
  0.0000000000000000  0.0000000000000000  3.3086750000000000
 -0.0000029541750001  2.2564877949100000  3.3086750000000000
  0.0000000000000000  0.0000000000000000  0.0000000000000000
  0.0000000000000000  0.0000000000000000  6.6173500000000001
  1.9541759541749999  1.1282422050899998  9.9260249999999992
