Mg H  Ru
 1.0000000000000000
     3.2975560000000002    3.2975560000000002    0.0000000000000000
     0.0000000000000000    3.2975560000000002    3.2975560000000002
     3.2975560000000002    0.0000000000000000    3.2975560000000002
 Mg  H   Ru 
   2   6   1
Cartesian
  4.9463340000000002  4.9463340000000002  4.9463340000000002
  1.6487780000000001  1.6487780000000001  1.6487780000000001
  3.2975560000000002  3.2975560000000002  4.9262782644080003
  3.2975560000000002  1.6688337355920002  3.2975560000000002
  1.6688337355920002  3.2975560000000002  3.2975560000000002
  3.2975560000000002  3.2975560000000002  1.6688337355920002
  3.2975560000000002  4.9262782644080003  3.2975560000000002
  4.9262782644080003  3.2975560000000002  3.2975560000000002
  0.0000000000000000  0.0000000000000000  0.0000000000000000
