Ho Ni
 1.0000000000000000
     4.3268500000000003    0.0000030000000000    2.4981130000000000
     1.4422860000000000    4.0793990000000004    2.4981130000000000
     0.0000010000000000    0.0000010000000000    4.9962239999999998
 Ho  Ni 
   2   4
Cartesian
  0.7211377981500001  0.5099253749970001  1.2490537518870000
  5.0479992018499997  3.5694776250030005  8.7433962481129992
  2.1634255000000002  0.0000020000000000  3.7471684999999999
  0.7211434999999999  2.0397000000000003  3.7471684999999999
  2.8845685000000003  2.0397015000000005  4.9962249999999999
  2.8845680000000002  2.0397010000000004  2.4981130000000000
