Hf V  Ge
 1.0000000000000000
     3.6804749999999999    0.0000000000000000    0.0000000000000000
     0.0000000000000000    3.6804749999999999    0.0000000000000000
     0.0000000000000000    0.0000000000000000    7.2477229999999997
 Hf  V   Ge 
   2   2   2
Cartesian
  2.7603562500000001  2.7603562500000001  2.6219797588179996
  0.9201187500000000  0.9201187500000000  4.6257432411819996
  2.7603562500000001  0.9201187500000000  0.0000000000000000
  0.9201187500000000  2.7603562500000001  0.0000000000000000
  2.7603562500000001  2.7603562500000001  5.4396842772509997
  0.9201187500000000  0.9201187500000000  1.8080387227489998
