Cu Ge Rh
 1.0000000000000000
     0.0000000000000000    2.9683210000000000    2.9683210000000000
     2.9683210000000000    0.0000000000000000    2.9683210000000000
     2.9683210000000000    2.9683210000000000    0.0000000000000000
 Cu  Ge  Rh 
   1   1   2
Cartesian
  1.4841664366419998  1.4841664366419998  1.4841664366419998
  4.4524874366420004  4.4524874366420004  4.4524874366420004
  0.0000000000000000  0.0000000000000000  0.0000000000000000
  2.9683210000000000  2.9683210000000000  2.9683210000000000
