Ti Zn
 1.0000000000000000
    11.4368510000000008    0.0000000000000000    0.0000000000000000
     0.0000000000000000    7.6945410000000001    0.0000000000000000
     0.0000000000000000    0.0000000000000000   11.7750400000000006
 Ti  Zn 
   4  64
Cartesian
  0.5408829943430000  0.0000000000000000  8.8312799999999996
 10.8959680056570001  0.0000000000000000  2.9437600000000002
  6.2593084943430011  3.8472705000000000  8.8312799999999996
  5.1775425056570006  3.8472705000000000  2.9437600000000002
  2.1298618880280000  1.2936447056250000 10.9512228764800010
  9.3069891119720012  6.4008962943750003  5.0637028764800007
  9.3069891119720012  1.2936447056250000  0.8238171235200000
  2.1298618880280000  6.4008962943750003  6.7113371235199999
  9.3069891119720012  6.4008962943750003  0.8238171235200000
  2.1298618880280000  1.2936447056250000  6.7113371235199999
  2.1298618880280000  6.4008962943750003 10.9512228764800010
  9.3069891119720012  1.2936447056250000  5.0637028764800007
 10.8290509904560004  5.4250130484270001 10.1790039782400008
  0.6078000095440000  2.2695279515730000  4.2914839782400005
  0.6078000095440000  5.4250130484270001  1.5960360217600000
 10.8290509904560004  2.2695279515730000  7.4835560217600001
  0.6078000095440000  2.2695279515730000  1.5960360217600000
 10.8290509904560004  5.4250130484270001  7.4835560217600001
 10.8290509904560004  2.2695279515730000 10.1790039782400008
  0.6078000095440000  5.4250130484270001  4.2914839782400005
  1.6434297412959999  2.5694765488350000  8.8312799999999996
  9.7934212587040008  5.1250644511650005  2.9437600000000002
  9.7934212587040008  2.5694765488350000  2.9437600000000002
  1.6434297412959999  5.1250644511650005  8.8312799999999996
  2.0138350346329998  0.0000000000000000  4.2306541215999998
  9.4230159653670000  0.0000000000000000 10.1181741216000010
  9.4230159653670000  0.0000000000000000  7.5443858784000009
  2.0138350346329998  0.0000000000000000  1.6568658784000001
  7.0766544879089999  0.0000000000000000 11.4056334451200012
  4.3601965120910000  0.0000000000000000  5.5181134451200000
  4.3601965120910000  0.0000000000000000  0.3694065548800000
  7.0766544879089999  0.0000000000000000  6.2569265548799997
  3.2983649546980001  0.0000000000000000  8.8312799999999996
  8.1384860453020007  0.0000000000000000  2.9437600000000002
  0.0000000000000000  0.0000000000000000  0.0000000000000000
  0.0000000000000000  0.0000000000000000  5.8875200000000003
  7.8482873880280000  5.1409152056249994 10.9512228764800010
  3.5885636119720004  2.5536257943749998  5.0637028764800007
  3.5885636119720004  5.1409152056249994  0.8238171235200000
  7.8482873880280000  2.5536257943749998  6.7113371235199999
  3.5885636119720004  2.5536257943749998  0.8238171235200000
  7.8482873880280000  5.1409152056249994  6.7113371235199999
  7.8482873880280000  2.5536257943749998 10.9512228764800010
  3.5885636119720004  5.1409152056249994  5.0637028764800007
  5.1106254904560000  1.5777425484270000 10.1790039782400008
  6.3262255095439999  6.1167984515730005  4.2914839782400005
  6.3262255095439999  1.5777425484270000  1.5960360217600000
  5.1106254904560000  6.1167984515730005  7.4835560217600001
  6.3262255095439999  6.1167984515730005  1.5960360217600000
  5.1106254904560000  1.5777425484270000  7.4835560217600001
  5.1106254904560000  6.1167984515730005 10.1790039782400008
  6.3262255095439999  1.5777425484270000  4.2914839782400005
  7.3618552412960012  6.4167470488350000  8.8312799999999996
  4.0749957587040004  1.2777939511649998  2.9437600000000002
  4.0749957587040004  6.4167470488350000  2.9437600000000002
  7.3618552412960012  1.2777939511649998  8.8312799999999996
  7.7322605346330002  3.8472705000000000  4.2306541215999998
  3.7045904653670005  3.8472705000000000 10.1181741216000010
  3.7045904653670005  3.8472705000000000  7.5443858784000009
  7.7322605346330002  3.8472705000000000  1.6568658784000001
  1.3582289879090002  3.8472705000000000 11.4056334451200012
 10.0786220120910013  3.8472705000000000  5.5181134451200000
 10.0786220120910013  3.8472705000000000  0.3694065548800000
  1.3582289879090002  3.8472705000000000  6.2569265548799997
  9.0167904546980004  3.8472705000000000  8.8312799999999996
  2.4200605453020003  3.8472705000000000  2.9437600000000002
  5.7184255000000004  3.8472705000000000  0.0000000000000000
  5.7184255000000004  3.8472705000000000  5.8875200000000003
