Sc Co B 
 1.0000000000000000
     5.7690570000000001    0.0000000000000000    0.0000000000000000
     0.0000000000000000   11.1336610000000000    0.0000000000000000
     0.0000000000000000    0.0000000000000000    3.2162080000000000
 Sc  Co  B  
   4   4  16
Cartesian
  3.6367846875150005  3.9019139677210002  0.0000000000000000
  2.1322723124850000  7.2317470322789994  0.0000000000000000
  0.7522561875150001  1.6649165322790000  0.0000000000000000
  5.0168008124850001  9.4687444677210006  0.0000000000000000
  3.6678106760610003  1.0019404207120000  0.0000000000000000
  2.1012463239390002 10.1317205792880003  0.0000000000000000
  0.7832821760610000  4.5648900792879994  0.0000000000000000
  4.9857748239389998  6.5687709207119998  0.0000000000000000
  4.5527782508039998  2.0722637872860004  1.6081040000000000
  1.2162787491959999  9.0613972127140006  1.6081040000000000
  1.6682497508040000  3.4945667127139997  1.6081040000000000
  4.1008072491960004  7.6390942872860004  1.6081040000000000
  4.9906785223889996  0.3456779067280000  1.6081040000000000
  0.7783784776110000 10.7879830932720004  1.6081040000000000
  2.1061500223890000  5.2211525932719995  1.6081040000000000
  3.6629069776110001  5.9125084067279996  1.6081040000000000
  5.1152959226460002  5.0304886486470002  1.6081040000000000
  0.6537610773540000  6.1031723513529998  1.6081040000000000
  2.2307674226460001  0.5363418513530001  1.6081040000000000
  3.5382895773540004 10.5973191486469993  1.6081040000000000
  5.6445203665410002  3.4056866969510002  1.6081040000000000
  0.1245366334590000  7.7279743030489998  1.6081040000000000
  2.7599918665409997  2.1611438030490002  1.6081040000000000
  3.0090651334590004  8.9725171969510011  1.6081040000000000
