Ca Cd Au
 1.0000000000000000
     4.4250350000000003    0.0000000000000000    0.0000000000000000
     0.0000000000000000    7.4198300000000001    0.0000000000000000
     0.0000000000000000    0.0000000000000000    8.9240960000000005
 Ca  Cd  Au 
   4   4   4
Cartesian
  1.1062587500000001  4.0282553863200006  7.3088435480960001
  3.3187762500000000  7.1014896136800001  2.8467955480959999
  3.3187762500000000  3.3915746136800000  1.6152524519040001
  1.1062587500000001  0.3183403863200000  6.0773004519040006
  3.3187762500000000  2.6569001462299999  4.9903098627200002
  1.1062587500000001  4.7629298537700002  3.9337861372800003
  1.1062587500000001  1.0530148537699999  0.5282618627200000
  3.3187762500000000  6.3668151462299996  8.3958341372799996
  1.1062587500000001  5.5523700864499999  1.1634522437119998
  1.1062587500000001  1.8424550864500000  3.2985957562880004
  3.3187762500000000  1.8674599135500001  7.7606437562880002
  3.3187762500000000  5.5773749135500008  5.6255002437120005
