Ba Se
 1.0000000000000000
     4.7776220000000000   -0.0000000000000000    1.4327430000000001
     2.3060900000000002    4.8948130000000001    0.9922100000000000
    -0.0149470000000000    0.0275990000000000    8.7319340000000008
 Ba  Se 
   2   4
Cartesian
  1.1769529736840001  1.2444025000000001  6.9804256243460010
  5.8918120263159999  3.6780095000000004  4.1764613756540001
  2.9222863666009999  1.4072641838530000  1.1813931628230001
  4.2357265378970004  1.0539418161470000  5.4837271602140003
  2.8330384621029996  3.8684701838529998  5.6731598397860008
  4.1464786333990000  3.5151478161470004  9.9754938371769999
