Li Dy Se
 1.0000000000000000
     6.5636989999999997   -2.0254569999999998   -0.0030060000000000
     6.5636989999999997    2.0254569999999998   -0.0030060000000000
     5.9402559999999998    0.0000000000000000    3.4493480000000001
 Li  Dy  Se 
   1   1   2
Cartesian
  9.5338269999999987  0.0000000000000000  1.7216680000000000
  0.0000000000000000  0.0000000000000000  0.0000000000000000
  4.7496572731300004 -0.0000000000000000  0.8577177809200001
 14.3179967268699997 -0.0000000000000001  2.5856182190800001
