Mn As Ru
 1.0000000000000000
     3.2746749999999998   -5.6719030000000004    0.0000000000000000
     3.2746749999999998    5.6719030000000004    0.0000000000000000
     0.0000000000000000    0.0000000000000000    3.6101960000000002
 Mn  As  Ru 
   3   3   3
Cartesian
  1.9511921760249999 -3.3795636992290001  1.8050980000000001
  2.6469656479499997 -0.0000000000000002  1.8050980000000001
  1.9511921760249999  3.3795636992290001  1.8050980000000001
  3.2746749999999998  1.8906381146020004  0.0000000000000000
  3.2746749999999998 -1.8906381146020002  0.0000000000000000
  0.0000000000000000  0.0000000000000000  1.8050980000000001
  0.8437494858250000  1.4614168550770001  0.0000000000000000
  0.8437494858250000 -1.4614168550770001  0.0000000000000000
  4.8618510283500003  0.0000000000000002  0.0000000000000000
