Cs Pb Cl
 1.0000000000000000
     6.4598019999999998    0.0000000000000000    3.7295690000000001
     2.1532680000000002    6.0903609999999997    3.7295690000000001
     0.0000000000000000    0.0000000000000000    7.4591380000000003
 Cs  Pb  Cl 
   2   1   6
Cartesian
  6.4598025000000003  4.5677707499999993 11.1887070000000008
  2.1532675000000001  1.5225902499999999  3.7295690000000001
  0.0000000000000000  0.0000000000000000  0.0000000000000000
  3.1939806999060001  4.6185704511010002  9.3861391700580015
  3.1939806999060001  4.6185704511010002  5.5321368299420008
  5.4190893000939999  1.4717905488990000  9.3861391700580015
  5.4190893000939999  1.4717905488990000  5.5321368299420008
  6.5316441168699999  4.6185704511010002  7.4591380000000012
  2.0814258831300001  1.4717905488990000  7.4591380000000012
