Rb Br
 1.0000000000000000
     7.0177659999999999    0.0000000000000000    0.0000000000000000
     0.0000000000000000    7.0177659999999999    0.0000000000000000
     0.0000000000000000    0.0000000000000000    7.0177659999999999
 Rb  Br 
   4   4
Cartesian
  0.0000000000000000  0.0000000000000000  0.0000000000000000
  0.0000000000000000  3.5088830000000000  3.5088830000000000
  3.5088830000000000  0.0000000000000000  3.5088830000000000
  3.5088830000000000  3.5088830000000000  0.0000000000000000
  3.5088830000000000  0.0000000000000000  0.0000000000000000
  3.5088830000000000  3.5088830000000000  3.5088830000000000
  0.0000000000000000  0.0000000000000000  3.5088830000000000
  0.0000000000000000  3.5088830000000000  0.0000000000000000
