Al Pt
 1.0000000000000000
     4.0098430000000000    0.0000000000000000    0.0000000000000000
     0.0000000000000000    5.4695169999999997    0.0000000000000000
     0.0000000000000000    0.0000000000000000   10.8808819999999997
 Al  Pt 
   6  10
Cartesian
  2.0049215000000000  0.9909725595770000  6.9641453108700002
  2.0049215000000000  4.4785444404229997  3.9167366891299995
  2.0049215000000000  3.7257310595769999  9.3571776891299994
  2.0049215000000000  1.7437859404230001  1.5237043108699999
  0.0000000000000000  2.7347584999999999  5.4404409999999999
  0.0000000000000000  0.0000000000000000  0.0000000000000000
  2.0049215000000000  1.6026505237550002  4.2748482775139998
  2.0049215000000000  3.8668664762449998  6.6060337224859991
  2.0049215000000000  4.3374090237549998  1.1655927224859999
  2.0049215000000000  1.1321079762449999  9.7152892775139996
  0.0000000000000000  2.3449843100290000  7.9534133405459997
  0.0000000000000000  3.1245326899709998  2.9274686594539996
  0.0000000000000000  5.0797428100289999  8.3679096594539999
  0.0000000000000000  0.3897741899710000  2.5129723405459998
  0.0000000000000000  2.7347584999999999  0.0000000000000000
  0.0000000000000000  0.0000000000000000  5.4404409999999999
