Gd Mg
 1.0000000000000000
     3.8306360000000002    0.0000000000000000    0.0000000000000000
     0.0000000000000000    3.8306360000000002    0.0000000000000000
     0.0000000000000000    0.0000000000000000    3.8306360000000002
 Gd  Mg 
   1   1
Cartesian
  1.9153180000000001  1.9153180000000001  1.9153180000000001
  0.0000000000000000  0.0000000000000000  0.0000000000000000
