Rb Nd O 
 1.0000000000000000
     6.6395109999999997   -1.8219540000000001   -0.0017280000000000
     6.6395109999999997    1.8219540000000001   -0.0017280000000000
     6.1403580000000000    0.0000000000000000    3.1142620000000001
 Rb  Nd  O  
   1   1   2
Cartesian
  0.0000000000000000  0.0000000000000000  0.0000000000000000
  9.7096900000000002  0.0000000000000000  1.5554030000000001
 15.0025002771399993  0.0000000000000000  2.4032625077180003
  4.4168797228600001 -0.0000000000000000  0.7075434922820001
