Si Ni
 1.0000000000000000
     3.4637400000000000    0.0000000000000000    0.0000000000000000
     0.0000000000000000    3.4637400000000000    0.0000000000000000
     0.0000000000000000    0.0000000000000000    3.4637400000000000
 Si  Ni 
   1   3
Cartesian
  0.0000000000000000  0.0000000000000000  0.0000000000000000
  0.0000000000000000  1.7318700000000000  1.7318700000000000
  1.7318700000000000  1.7318700000000000  0.0000000000000000
  1.7318700000000000  0.0000000000000000  1.7318700000000000
