Lu Si
 1.0000000000000000
     0.0000000000000000    0.0000000000000000    3.7443510000000000
     4.1545740000000002    0.0000000000000000    0.0000000000000000
    -2.0772870000000001    5.1303270000000003    0.0000000000000000
 Lu  Si 
   2   2
Cartesian
 -0.0000000000000001  1.4437561030320001  0.9360877500000000
  2.0772870000000001  3.6865708969680000  2.8082632500000000
 -0.0000020772869999  4.3258558141109997  0.9360877500000000
  2.0772890772869999  0.8044711858890000  2.8082632500000000
