Be Pd
 1.0000000000000000
     2.7844329999999999    0.0000000000000000    0.0000000000000000
     0.0000000000000000    2.7844329999999999    0.0000000000000000
     0.0000000000000000    0.0000000000000000    9.8586869999999998
 Be  Pd 
   2   4
Cartesian
  0.0000000000000000  0.0000000000000000  0.0000000000000000
  1.3922165000000000  1.3922165000000000  4.9293434999999999
  1.3922165000000000  1.3922165000000000  8.4462723482579989
  1.3922165000000000  1.3922165000000000  1.4124146517420000
  0.0000000000000000  0.0000000000000000  3.5169288482579999
  0.0000000000000000  0.0000000000000000  6.3417581517419999
