Lu Si Ni
 1.0000000000000000
     3.6330420000000001    0.0000000000000000   -1.3818569999999999
    -0.5256000000000000    3.5948210000000000   -1.3818569999999999
    -0.0034340000000000   -0.0039720000000000    5.4577220000000004
 Lu  Si  Ni 
   1   2   2
Cartesian
  0.0000000000000000  0.0000000000000000  0.0000000000000000
  1.9417175252040000  2.2462615231770000 -0.3617685052679998
  1.1622904747959999  1.3445874768229999  3.0557765052680002
  2.5916644999999998  0.8967192500000000  1.3470040000000003
  0.5123435000000001  2.6941297500000001  1.3470040000000003
