Hf Cu Ge
 1.0000000000000000
     6.3239999999999998    0.0000000000000000    0.0000000000000000
    -3.1619999999999999    5.4767429999999999    0.0000000000000000
     0.0000000000000000    0.0000000000000000    3.9797549999999999
 Hf  Cu  Ge 
   3   4   2
Cartesian
 -1.8637112579999999  3.2280416148869997  1.9898775000000000
  1.2982887420000000  2.2487013851129998  1.9898775000000000
  3.7274225159999999  0.0000000000000000  1.9898775000000000
  0.0000000000000000  0.0000000000000000  1.9898775000000000
  1.5136999919999998  0.0000000000000000  0.0000000000000000
  2.4051500040000002  4.1658407490060005  0.0000000000000000
 -0.7568499959999999  1.3109022509939998  0.0000000000000000
  3.1620031619999995  1.8255791744190000  0.0000000000000000
 -0.0000031620000002  3.6511638255809999  0.0000000000000000
