Cs Na Te
 1.0000000000000000
     5.3192950000000003    0.0000000000000000    0.0000000000000000
     0.0000000000000000    5.3192950000000003    0.0000000000000000
     0.0000000000000000    0.0000000000000000    8.6044029999999996
 Cs  Na  Te 
   2   2   2
Cartesian
  1.3298237500000001  1.3298237500000001  5.6417349590399999
  3.9894712500000002  3.9894712500000002  2.9626680409600001
  1.3298237500000001  3.9894712500000002  0.0000000000000000
  3.9894712500000002  1.3298237500000001  0.0000000000000000
  1.3298237500000001  1.3298237500000001  1.7133173297629998
  3.9894712500000002  3.9894712500000002  6.8910856702369996
