Ba Na Ce C  O  F 
 1.0000000000000000
     2.5741390000000002   -4.4585400000000002    0.0000000000000000
     2.5741390000000002    4.4585400000000002    0.0000000000000000
     0.0000000000000000    0.0000000000000000   23.1874700000000011
 Ba  Na  Ce  C   O   F  
   2   2   4   8  24   2
Cartesian
  0.0000000000000000  0.0000000000000000  0.0000000000000000
  0.0000000000000000  0.0000000000000000 11.5937350000000006
  2.5741390000000002  1.4861829723600000 17.3906025000000000
  2.5741390000000002 -1.4861829723600000  5.7968675000000003
  2.5741390000000002  1.4861829723600000  8.1878898439899999
  2.5741390000000002 -1.4861829723600000 19.7816248439900022
  2.5741390000000002 -1.4861829723600000 14.9995801560100013
  2.5741390000000002  1.4861829723600000  3.4058451560100003
  0.0000000000000000  0.0000000000000000 15.7071226155900021
  0.0000000000000000  0.0000000000000000  4.1133876155899998
  0.0000000000000000  0.0000000000000000  7.4803473844099999
  0.0000000000000000  0.0000000000000000 19.0740823844100014
  2.5741390000000002 -1.4861829723600000 10.0398730728899999
  2.5741390000000002  1.4861829723600000 21.6336080728900022
  2.5741390000000002  1.4861829723600000 13.1475969271100013
  2.5741390000000002 -1.4861829723600000  1.5538619271100000
  1.1211559448940001  0.6472997542800000 15.6774426539899991
  2.5741390000000002 -3.1639404914400000  4.0837076539900004
  1.1211559448940001 -0.6472997542800001  4.0837076539900004
  4.0271220551060001  0.6472997542799995 15.6774426539899991
  2.5741390000000002  3.1639404914400000 15.6774426539899991
  4.0271220551060001 -0.6472997542799998  7.5100273460100002
  2.5741390000000002 -3.1639404914400000  7.5100273460100002
  4.0271220551060001 -0.6472997542799998  4.0837076539900004
  1.1211559448940001 -0.6472997542800001  7.5100273460100002
  4.0271220551060001  0.6472997542799995 19.1037623460100008
  1.1211559448940001  0.6472997542800000 19.1037623460100008
  2.5741390000000002  3.1639404914400000 19.1037623460100008
  1.4500820004530002 -2.1351546791400002 10.0710602200399997
  2.5741390000000002  0.1882306417200001 21.6647952200400020
  1.4500820004530002  2.1351546791400002 21.6647952200400020
  3.6981959995470004 -2.1351546791400002 10.0710602200399997
  2.5741390000000002 -0.1882306417200003 10.0710602200399997
  3.6981959995470004  2.1351546791400002 13.1164097799599997
  2.5741390000000002  0.1882306417200001 13.1164097799599997
  3.6981959995470004  2.1351546791400002 21.6647952200400020
  1.4500820004530002  2.1351546791400002 13.1164097799599997
  3.6981959995470004 -2.1351546791400002  1.5226747799600002
  1.4500820004530002 -2.1351546791400002  1.5226747799600002
  2.5741390000000002 -0.1882306417200003  1.5226747799600002
  2.5741390000000002  1.4861829723600000  5.7968675000000003
  2.5741390000000002 -1.4861829723600000 17.3906025000000000
