Ce Mg Si
 1.0000000000000000
     4.3438949999999998    0.0000000000000000    0.0000000000000000
     0.0000000000000000    7.3845060000000000   -0.0000790000000000
     0.0000000000000000   -0.0000790000000000    7.3845060000000000
 Ce  Mg  Si 
   4   2   4
Cartesian
  2.1719474999999999  1.3283229197490001  5.0206154197490003
  2.1719474999999999  2.3637218509900002  1.3284916490100001
  2.1719474999999999  5.0207051490100003  6.0559353509899996
  2.1719474999999999  6.0561040802510000  2.3638115802509998
  0.0000000000000000  0.0000000000000000  0.0000000000000000
  0.0000000000000000  3.6922134999999998  3.6922134999999998
  0.0000000000000000  2.8462288117340000  6.5385213117339998
  0.0000000000000000  0.8459311730150000  2.8462823269849999
  0.0000000000000000  6.5384958269850006  4.5381446730150001
  0.0000000000000000  4.5381981882660005  0.8459056882660000
