Dy H 
 1.0000000000000000
     3.1715490000000002    0.0000000000000000    1.8310940000000000
     1.0571830000000000    2.9901640000000000    1.8310940000000000
     0.0000000000000000    0.0000000000000000    3.6621880000000000
 Dy  H  
   1   2
Cartesian
  0.0000000000000000  0.0000000000000000  0.0000000000000000
  3.1715490000000002  2.2426230000000000  5.4932819999999998
  1.0571830000000000  0.7475410000000000  1.8310940000000000
