Ce Te
 1.0000000000000000
    -4.8407210000000003    4.8407210000000003    4.8407210000000003
     4.8407210000000003   -4.8407210000000003    4.8407210000000003
     4.8407210000000003    4.8407210000000003   -4.8407210000000003
 Ce  Te 
   6   8
Cartesian
  0.0000000000000004  7.2610814999999995  1.2101802500000001
  2.4203605000000001  3.6305407500000002  0.0000000000000002
  7.2610815000000004  1.2101802499999998 -0.0000000000000002
  1.2101802500000001  0.0000000000000000  7.2610815000000004
  3.6305407500000002  0.0000000000000000  2.4203605000000001
 -0.0000000000000002  2.4203605000000001  3.6305407500000002
  3.1495521892770002  3.1495521892770002  3.1495521892770002
 -0.7291916892770002  4.1115293107230002  0.7291916892770002
  4.1115293107230002  0.7291916892770001 -0.7291916892770001
  0.7291916892770001 -0.7291916892770001  4.1115293107230002
  6.5318898107230003 -1.6911688107230001  1.6911688107230001
 -1.6911688107230001  1.6911688107230001  6.5318898107230003
  0.7291916892770001  0.7291916892770000  0.7291916892770000
  1.6911688107230001  6.5318898107230003 -1.6911688107230001
