Ca Hg
 1.0000000000000000
     5.0283910000000001    0.0000000000000000    0.0000000000000000
    -2.5141950000000000    4.3547140000000004    0.0000000000000000
     0.0000000000000000    0.0000000000000000    3.6288040000000001
 Ca  Hg 
   1   2
Cartesian
  0.0000000000000000  0.0000000000000000  0.0000000000000000
 -0.0000021808620001  2.9031441182380004  1.8144020000000001
  2.5141981808620004  1.4515698817620002  1.8144020000000001
