Si Mo
 1.0000000000000000
     4.6167160000000003    0.0000000000000000    0.0000000000000000
    -2.3083580000000001    3.9981930000000001    0.0000000000000000
     0.0000000000000000    0.0000000000000000    6.6174320000000000
 Si  Mo 
   6   3
Cartesian
 -1.1731444693280002  3.3427772178960002  5.5145244608560002
  1.1352181473880003  0.6554157821040000  1.1029075391440000
  2.3083603083580004  2.6873574375990001  3.3087160000000000
  3.4815024693280003  0.6554157821040000  5.5145244608560002
  1.1731398526120003  3.3427772178960002  1.1029075391440000
 -0.0000023083580000  1.3108355624010000  3.3087160000000000
  2.3083580000000001  0.0000000000000000  3.3087160000000000
 -1.1541790000000001  1.9990965000000001  1.1029075391440000
  1.1541790000000001  1.9990965000000001  5.5145244608560002
