Cr Br
 1.0000000000000000
     6.3784369999999999    0.0009530000000000    0.0000360000000000
    -3.1900409999999999    5.5235029999999998    0.0000470000000000
     0.0000970000000000    0.0001740000000000   18.9478970000000011
 Cr  Br 
   6  18
Cartesian
  0.0000159489800000  0.0000718384760000  0.0026527065150000
  3.1884161222470002  5.5244174682949998 12.6479558286040010
 -0.0004906121799999  3.6828286542919995  6.2948378846160002
 -0.0005355427210001  3.6826935824290001  0.0078119716520000
  3.1889676110459999  1.8418178209559997 12.6428723553150011
  3.1889829622750003  1.8418866378300001  6.3005754295490002
  0.9261108230330000  1.8445902928779998 17.5169976960350020
  1.1282779338050004  5.4044773548300000 17.5170407284660001
 -2.0556658940419998  3.7995562378169998 17.5170417733670014
  2.0595041117939998  3.8029622275809998  1.4412144701710001
 -1.1347370680200000  5.4066376121939994  1.4412721627320002
 -0.9264281871280000  1.8384430503589999  1.4412502964490002
  1.1343711324749999  1.9585035584849999  4.8602787147510007
  4.1154237872669990  0.0042721941320000  4.8601777982870003
  4.3172370587539994  3.5630599317939997  4.8602776594760009
  2.0544624966509994  3.5659742486320001  7.7346040574290003
 -0.9269059807160005  5.5208076790550002  7.7346481355050001
 -1.1291688441009999  1.9614288082259999  7.7345293169260003
  1.1290395610170003  1.7216209908169999 11.2080108702020009
  4.3231053412160003  0.1178958641810000 11.2079531760659989
  4.1148953454999999  3.6859633901289994 11.2080697808970005
  2.2628615741090004  3.6799460386900003 14.0826068181170019
  2.0602032139579998  0.1207991174800000 14.0826585311090007
  5.2438665350460010  1.7247479716470000 14.0826006294930011
