Mn Al Fe
 1.0000000000000000
     5.6797219999999999    0.0000000000000000    0.0000000000000000
     0.0000000000000000    5.6797219999999999    0.0000000000000000
     0.0000000000000000    0.0000000000000000    5.6797219999999999
 Mn  Al  Fe 
   4   4   8
Cartesian
  0.0000000000000000  0.0000000000000000  2.8398610000000000
  0.0000000000000000  2.8398610000000000  0.0000000000000000
  2.8398610000000000  0.0000000000000000  0.0000000000000000
  2.8398610000000000  2.8398610000000000  2.8398610000000000
  0.0000000000000000  0.0000000000000000  0.0000000000000000
  0.0000000000000000  2.8398610000000000  2.8398610000000000
  2.8398610000000000  0.0000000000000000  2.8398610000000000
  2.8398610000000000  2.8398610000000000  0.0000000000000000
  4.2597915000000004  1.4199305000000000  4.2597915000000004
  4.2597915000000004  1.4199305000000000  1.4199305000000000
  4.2597915000000004  4.2597915000000004  1.4199305000000000
  4.2597915000000004  4.2597915000000004  4.2597915000000004
  1.4199305000000000  1.4199305000000000  1.4199305000000000
  1.4199305000000000  1.4199305000000000  4.2597915000000004
  1.4199305000000000  4.2597915000000004  4.2597915000000004
  1.4199305000000000  4.2597915000000004  1.4199305000000000
