Lu Cu Si
 1.0000000000000000
     3.6493289999999998    0.0000000000000000   -1.3275699999999999
    -0.4829500000000000    3.6172309999999999   -1.3275699999999999
     0.0015480000000000    0.0017680000000000    5.6838210000000000
 Lu  Cu  Si 
   1   2   2
Cartesian
  0.0000000000000000  0.0000000000000000  0.0000000000000000
  0.5508937500000000  2.7138072499999999  1.5143405000000001
  2.6170332499999995  0.9051917500000000  1.5143405000000001
  1.9506552604769998  2.2284036034449999 -0.3174569144429998
  1.2172717395230002  1.3905953965550000  3.3461379144430001
