Hf Ge
 1.0000000000000000
     4.6039110000000001    0.0000000000000000    2.6113740000000001
     2.3019579999999999    4.6531500000000001    1.3056890000000001
     0.0062370000000000    0.0000000000000000    5.3530910000000000
 Hf  Ge 
   4   2
Cartesian
  3.4560522211949998  0.8770164057000001  4.6350763769560004
  5.0428416814429999  2.3265750000000001  7.2016193888880000
  3.4560537788049999  3.7761335943000001  4.6350776230440003
  1.8692643185570001  2.3265750000000001  2.0685346111120002
  3.4529332500000001  0.0000000000000000  1.9585305000000002
  1.1509777500000000  0.0000000000000000  0.6528435000000000
