Li Pr Bi
 1.0000000000000000
     4.7078460000000000    0.0034750000000000   -0.0036330000000000
    -2.3509150000000001    4.0719000000000003    0.0000010000000000
    -0.0056100000000000   -0.0032370000000000    7.5185290000000000
 Li  Pr  Bi 
   3   1   2
Cartesian
  2.3404422378519998  1.3512559060120002  4.8524841220559995
  0.0108787621479999  2.7208820939880005  2.6624128779439999
 -0.0028050000000000 -0.0016185000000000  3.7592645000000000
  0.0000000000000000  0.0000000000000000  0.0000000000000000
  2.3584573697260001  1.3616480460340001  1.9173769825379998
 -0.0071363697260000  2.7104899539659999  5.5975200174620001
