Pa Tl O 
 1.0000000000000000
     4.3764170000000000    0.0000000000000000    0.0000000000000000
     0.0000000000000000    4.3764170000000000    0.0000000000000000
     0.0000000000000000    0.0000000000000000    4.3764170000000000
 Pa  Tl  O  
   1   1   3
Cartesian
  2.1882085000000000  2.1882085000000000  2.1882085000000000
  0.0000000000000000  0.0000000000000000  0.0000000000000000
  2.1882085000000000  2.1882085000000000  0.0000000000000000
  2.1882085000000000  0.0000000000000000  2.1882085000000000
  0.0000000000000000  2.1882085000000000  2.1882085000000000
