Sn Pd
 1.0000000000000000
     3.9844210000000002    0.0000000000000000    0.0000000000000000
     0.0000000000000000    6.2177980000000002    0.0000000000000000
     0.0000000000000000    0.0000000000000000    6.4652279999999998
 Sn  Pd 
   4   4
Cartesian
  2.9883157499999999  5.0320452680060006  2.6258329565159997
  0.9961052500000001  1.1857527319940000  3.8393950434839996
  2.9883157499999999  1.9231462680060001  0.6067810434840000
  0.9961052500000001  4.2946517319939996  5.8584469565160004
  2.9883157499999999  6.1546313901180003  5.2469721575039996
  0.9961052500000001  0.0631666098820000  1.2182558424959999
  2.9883157499999999  3.0457323901180002  4.4508698424960000
  0.9961052500000001  3.1720656098820004  2.0143581575040002
