Sc Sn Pd
 1.0000000000000000
     7.4822930000000003    0.0000000000000000    0.0000000000000000
    -3.7411449999999999    6.4798549999999997    0.0000000000000000
     0.0000000000000000    0.0000000000000000    7.2416640000000001
 Sc  Sn  Pd 
   6   6   6
Cartesian
  2.9438820146269999  0.0941846924250000  1.8104160000000000
  2.3507727490830002  3.8832863835299998  1.8104160000000000
  5.9287862362900006  2.5023839240449997  1.8104160000000000
 -0.7972630289779999  6.3856703075750003  5.4312480000000001
  2.1876400777530005  3.9774710759549996  5.4312480000000001
 -1.3903740487750000  2.5965686164699999  5.4312480000000001
  5.4279995276780006  0.0000000000000000  0.0000000000000000
  1.0271471479920000  1.7790701096700001  3.6208320000000001
 -2.7139986756700001  4.7007848903299996  3.6208320000000001
 -2.7139986756700001  4.7007848903299996  0.0000000000000000
  1.0271471479920000  1.7790701096700001  0.0000000000000000
  5.4279995276780006  0.0000000000000000  3.6208320000000001
 -0.0000027411459998  4.3199054932849998  0.2306180317440000
 -0.0000027411459998  4.3199054932849998  3.3902139682560000
  3.7411507411460008  2.1599495067149999  7.0110459682560000
  3.7411507411460008  2.1599495067149999  3.8514500317440001
  0.0000000000000000  0.0000000000000000  1.8104160000000000
  0.0000000000000000  0.0000000000000000  5.4312480000000001
