Zr Sb
 1.0000000000000000
     3.8441700000000001    0.0000000000000000    0.0000000000000000
    -1.9220850000000000    5.2468110000000001    0.0000000000000000
     0.0000000000000000    0.0000000000000000   14.1395560000000007
 Zr  Sb 
   6   6
Cartesian
  0.0000038441700000  3.9653193877380004 10.6046670000000010
  1.9220811558299999  1.2814916122619999  3.5348890000000002
 -0.0000038441700000  0.7554568350240001 12.6195113113320012
  1.9220888441699997  4.4913541649760003  1.5200446886680001
  1.9220888441699997  4.4913541649760003  5.5497333113320000
 -0.0000038441700000  0.7554568350240001  8.5898226886680007
  1.9220850000000000  1.7555514797339999 10.6046670000000010
 -0.0000000000000000  3.4912595202660004  3.5348890000000002
  1.9220869220849999  1.4840027764290000  6.3767135231040006
 -0.0000019220850001  3.7628082235710005  7.7628424768960000
 -0.0000019220850001  3.7628082235710005 13.4464915231040010
  1.9220869220849999  1.4840027764290000  0.6930644768960000
