Ba Si O 
 1.0000000000000000
     5.8278150000000002    0.0000000000000000    0.0000000000000000
     0.0000000000000000    7.5594089999999996    0.0000000000000000
     0.0000000000000000    0.0000000000000000   10.2839050000000007
 Ba  Si  O  
   8   4  16
Cartesian
  1.4569537500000000  7.4979963612839997  3.1504434450350001
  4.3708612499999999  0.0614126387160000  7.1334615549649998
  1.4569537500000000  3.7182918612839995  1.9915090549650001
  4.3708612499999999  3.8411171387160001  8.2923959450350004
  1.4569537500000000  1.2111458317529999  9.4085698581150012
  4.3708612499999999  6.3482631682469997  0.8753351418850001
  1.4569537500000000  4.9908503317530002  6.0172876418850008
  4.3708612499999999  2.5685586682469999  4.2666173581150000
  1.4569537500000000  1.7261608075139998  5.9652819343000010
  4.3708612499999999  5.8332481924859989  4.3186230656999998
  1.4569537500000000  5.5058653075140001  9.4605755657000010
  4.3708612499999999  2.0535436924860000  0.8233294343000002
  3.0295779721199998  5.2424199038639996  3.5898438539700002
  0.1156704721200000  2.3169890961360000  6.6940611460300001
  5.7121445278800005  1.4627154038640000  1.5521086460300002
  2.7982370278800004  6.0966935961359994  8.7317963539700010
  2.7982370278800004  2.3169890961360000  6.6940611460300001
  5.7121445278800005  5.2424199038639996  3.5898438539700002
  0.1156704721200000  6.0966935961359994  8.7317963539700010
  3.0295779721199998  1.4627154038640000  1.5521086460300002
  1.4569537500000000  2.3227493657939999  4.4256476650350001
  4.3708612499999999  5.2366596342059992  5.8582573349649998
  1.4569537500000000  6.1024538657939997  0.7163048349650001
  4.3708612499999999  1.4569551342059999  9.5676001650350013
  4.3708612499999999  3.6840552979229995  0.8623362859650000
  1.4569537500000000  3.8753537020770001  9.4215687140350006
  4.3708612499999999  7.4637597979229993  4.2796162140350003
  1.4569537500000000  0.0956492020770000  6.0042887859649996
