Ba Mg P 
 1.0000000000000000
     4.3742760000000001   -0.0000000000000000    0.0000000000000000
    -2.1871399999999999    3.7882349999999998    0.0000000000000000
     0.0000000000000000    0.0000000000000000    7.6266860000000003
 Ba  Mg  P  
   1   2   2
Cartesian
  0.0000000000000000  0.0000000000000000  0.0000000000000000
  2.1871395204719999  1.2627437372549999  2.8839321639820001
 -0.0000035204720000  2.5254912627449997  4.7427538360180010
  2.1871395204719999  1.2627437372549999  5.5007396508140003
 -0.0000035204720000  2.5254912627449997  2.1259463491860005
