Ce Ge Rh
 1.0000000000000000
    -2.2017880000000001    2.2017880000000001    5.0263439999999999
     2.2017880000000001   -2.2017880000000001    5.0263439999999999
     2.2017880000000001    2.2017880000000001   -5.0263439999999999
 Ce  Ge  Rh 
   1   3   1
Cartesian
  0.0000000000000000 -0.0000000000000000  4.2441845574719999
  2.2017880000000001  0.0000000000000000  1.5882342298080001
  0.0000000000000000  2.2017880000000001  1.5882342298080001
  0.0000000000000001 -0.0000000000000001 10.0460130151680005
 -0.0000000000000001  0.0000000000000001  7.6529907421439995
