Al Si Ru
 1.0000000000000000
    -0.0020960000000000    2.9356249999999999    2.9356249999999999
     2.9356249999999999   -0.0020960000000000    2.9356249999999999
     2.9356249999999999    2.9356249999999999   -0.0020960000000000
 Al  Si  Ru 
   1   1   2
Cartesian
  1.4672943691539999  1.4672943691539997  1.4672943691539997
  4.4018654999999995  4.4018654999999995  4.4018654999999995
  5.8690131403039993  5.8690131403040002  5.8690131403040002
  2.9347178596960002  2.9347178596960002  2.9347178596960002
