Co Sb S 
 1.0000000000000000
     5.8227349999999998    0.0000000000000000    0.0000000000000000
     0.0000000000000000    5.9447179999999999    0.0000000000000000
     0.0000000000000000    0.0000000000000000   11.6263150000000000
 Co  Sb  S  
   8   8   8
Cartesian
  0.0797015966800000  0.9898431047439999  4.4706320280050003
  0.0797015966800000  1.9825158952560000 10.2837895280050002
  2.8316659033200002  3.9622021047439997  4.4706320280050003
  5.7430334033199992  4.9548748952560002  7.1556829719950006
  2.9910690966800000  1.9825158952560000  7.1556829719950006
  2.8316659033200002  4.9548748952560002 10.2837895280050002
  5.7430334033199992  3.9622021047439997  1.3425254719950002
  2.9910690966800000  0.9898431047439999  1.3425254719950002
  0.6944543125100000  0.3002379825900000  2.0919926158400002
  3.6058218125099999  2.6721210174099999  9.5343223841599993
  5.1282806874900002  3.2725969825900001  3.7211648841600002
  2.2169131874899999  5.6444800174099994  7.9051501158399997
  5.1282806874900002  5.6444800174099994  9.5343223841599993
  2.2169131874899999  3.2725969825900001  2.0919926158400002
  0.6944543125100000  2.6721210174099999  7.9051501158399997
  3.6058218125099999  0.3002379825900000  3.7211648841600002
  3.6835145656149999  4.0864526556620007  6.5726000221149992
  5.0505879343849998  1.8582653443379999  0.7594425221150001
  2.1392204343849999  1.1140936556620000 10.8668724778849999
  0.7721470656150000  4.8306243443379993  5.0537149778849999
  0.7721470656150000  4.0864526556620007 10.8668724778849999
  3.6835145656149999  4.8306243443379993  0.7594425221150001
  5.0505879343849998  1.1140936556620000  6.5726000221149992
  2.1392204343849999  1.8582653443379999  5.0537149778849999
