Sb Pd Se
 1.0000000000000000
     6.3894339999999996    0.0000430000000000   -0.0000260000000000
     0.0000430000000000    6.3893529999999998   -0.0000510000000000
    -0.0000260000000000   -0.0000510000000000    6.3894419999999998
 Sb  Pd  Se 
   4   4   4
Cartesian
  5.5750540373659989  4.0091330677309998  2.3802872040979999
  2.3803728935860002  5.5747711837109994  4.0090650930380001
  0.8144313721119999  0.8144498075470000  0.8143756833759999
  4.0090628649799998  2.3802976050220002  5.5750020197160000
  4.7789493212739993  1.5842338255640001  1.6104842692619998
  1.5841876577470000  1.6104281080870002  4.7789127272209999
  1.6105208915079998  4.7788764338020000  1.5841407719959999
  4.8052569086319998  4.8051835795510005  4.8051730628879996
  2.3461936279500000  2.3461802617020000  2.3462898379059998
  0.8484192677680000  4.0431440615240000  5.5408117039119995
  5.5409255902260002  0.8484983158580000  4.0433054192539997
  4.0433187879999997  5.5408801391170002  0.8483485967760001
