Li Y  Si
 1.0000000000000000
     7.0337800000000001    0.0000000000000000    0.0000000000000000
    -3.5168900000000001    6.0914320000000002    0.0000000000000000
     0.0000000000000000    0.0000000000000000    4.2252580000000002
 Li  Y   Si 
   3   3   3
Cartesian
  1.6344957288399999  0.0000000000000000  2.1126290000000001
  2.6996421355800000  4.6759172147040005  2.1126290000000001
 -0.8172478644200000  1.4155147852959999  2.1126290000000001
 -2.0228869928800002  3.5037429549440002  0.0000000000000000
  4.0457739857600004  0.0000000000000000  0.0000000000000000
  1.4940030071200001  2.5876890450560004  0.0000000000000000
 -0.0000035168900003  4.0609566971440003  2.1126290000000001
  3.5168935168899997  2.0304753028559999  2.1126290000000001
  0.0000000000000000  0.0000000000000000  0.0000000000000000
