Hf H 
 1.0000000000000000
     2.9267660000000002    0.0157750000000000   -1.4229000000000001
    -1.7848610000000000    2.6903980000000001   -0.4085050000000000
     0.0104660000000000   -0.0157750000000000    3.2543039999999999
 Hf  H  
   1   2
Cartesian
  0.0000000000000000  0.0000000000000000  0.0000000000000000
  1.0250172500000001  0.6686557500000001  1.6271517499999999
  0.1273537500000001  2.0217422500000000 -0.2042527500000001
