Sr Zn Cl
 1.0000000000000000
    -3.2518129999999998    3.2518630000000002    7.2121610000000000
     3.2518729999999998   -3.2518370000000001    7.2121760000000004
     3.2518359999999999    3.2518609999999999   -7.2121490000000001
 Sr  Zn  Cl 
   2   2   8
Cartesian
  3.2518729999999998 -3.2518370000000001  7.2121760000000004
  0.0000265000000002  3.2518685000000001  3.6060902499999994
  3.2518857593139998  0.0000217519349997  3.6061049622419996
  3.2518464888500000  3.2518674962040000  0.0000194999070002
  1.0112179935230001  1.6809378591249999  6.0412297582310011
  1.5709455920099999  1.0111961864999999  2.4351538084380002
  2.2406815064769998 -1.6809063591249997  4.7770364917690005
  1.5709583370790001  4.2630559077800001  1.1709532164370000
  4.9327771629210000 -1.0111634077800002  2.4351640335630007
  4.2630704867790001  1.6809508322680000  4.7770438783910008
  1.6809506561169998 -1.0111614346629998  8.3831052293860004
  2.2406682650940000  1.5709384158949997 -1.1709194162149994
