Li Mg Sn Pt
 1.0000000000000000
     0.0000000000000000    3.2180830000000000    3.2180830000000000
     3.2180830000000000    0.0000000000000000    3.2180830000000000
     3.2180830000000000    3.2180830000000000    0.0000000000000000
 Li  Mg  Sn  Pt 
   1   1   1   1
Cartesian
  4.8271245000000000  4.8271245000000000  4.8271245000000000
  3.2180830000000000  3.2180830000000000  3.2180830000000000
  0.0000000000000000  0.0000000000000000  0.0000000000000000
  1.6090415000000000  1.6090415000000000  1.6090415000000000
