Tm Ga Pd
 1.0000000000000000
     4.3704890000000001    0.0000000000000000    0.0000000000000000
    -2.1852440000000000    5.0006019999999998    0.0000000000000000
     0.0000000000000000    0.0000000000000000    6.5169199999999998
 Tm  Ga  Pd 
   2   4   2
Cartesian
  0.0000000877110000  0.8772156040439999  4.8876900000000001
  2.1852449122890003  4.1233863959559995  1.6292300000000000
  0.0000003730070000  3.7305191004279994  6.1681344415999995
  2.1852446269930001  1.2700828995719999  0.3487855584000000
  2.1852446269930001  1.2700828995719999  2.9096744416000000
  0.0000003730070000  3.7305191004279994  3.6072455583999998
  2.1852447986199999  2.9865595384799999  4.8876900000000001
  0.0000002013800000  2.0140424615199999  1.6292300000000000
