Cs Cu F 
 1.0000000000000000
     4.3193349999999997    0.0000000000000000    0.0000000000000000
     0.0000000000000000    4.3194790000000003    0.0000000000000000
    -2.1596669999999998   -2.1597400000000002    7.0632469999999996
 Cs  Cu  F  
   2   1   4
Cartesian
 -0.0000018053080001 -0.0000025140990002  5.0058573505929997
  2.1596698053079999  2.1597415140990002  2.0573896494069999
  0.0000000000000000  0.0000000000000000  0.0000000000000000
  0.0000001339080000 -0.0000001339080000  1.8916505585519998
  2.1596678660919997  2.1597391339079999  5.1715964414479991
  0.0000000000000000  2.1597395000000001  0.0000000000000000
  2.1596674999999999  0.0000000000000000  0.0000000000000000
