Ba P  Rh
 1.0000000000000000
     3.7846150000000001    0.0000000000000000   -1.1312100000000000
    -0.3381150000000000    3.7694820000000000   -1.1312100000000000
     0.0245370000000000    0.0268360000000000    6.9786619999999999
 Ba  P   Rh 
   1   2   2
Cartesian
  0.0000000000000000  0.0000000000000000  0.0000000000000000
  2.2508439749679998  2.4617772795280000  0.6339252505280001
  1.2201930250319999  1.3345407204720001  4.0823167494719996
  0.7048360000000000  2.8405295000000002  2.3581209999999997
  2.7662009999999997  0.9557885000000000  2.3581209999999997
