Ge As
 1.0000000000000000
     3.7876449999999999   -0.0016100000000000   -0.0008840000000000
    -1.8966559999999999    8.0503780000000003   -1.8311900000000001
    -0.0022830000000000   -0.4182930000000000    9.8141409999999993
 Ge  As 
   6   6
Cartesian
 -0.0018058714700000  4.1008641280629998  1.0991173958629998
  1.8905838085520001  3.5297599165910003  6.8828184765549993
  0.0014823472000000  5.9102742171399996 -0.5592650362599999
  1.8870153381540000  1.7202533517780003  8.5412229536780000
  1.8930086957609997  6.7906924215120004  2.4332324926859998
 -0.0041814448460000  0.8395682185540001  5.5489998711499995
  1.8917693168670000  2.5350872645580003  1.1478216915199999
 -0.0030842934229998  5.0957982725199997  6.8341519001100002
  1.8974959847449999  7.3726708083650001  0.0165094606069998
 -0.0089528556820000  0.2578381323290000  7.9655109943130000
 -0.0015881414410000  5.3923183539200004  3.1757380541460001
  1.8904874415149999  2.2377177040979999  4.8065259503080000
