Ba Tl Hg
 1.0000000000000000
     0.0000050000000000    3.9426830000000002    3.9426830000000002
     3.9426820000000000    0.0000030000000000    3.9426850000000000
     3.9426830000000002    3.9426860000000001    0.0000020000000000
 Ba  Tl  Hg 
   1   1   2
Cartesian
  1.9713503853699998  1.9713508853719999  1.9713503853699998
  5.9140275000000004  5.9140290000000002  5.9140274999999995
  0.0000000000000000  0.0000000000000000  0.0000000000000000
  3.9426850000000000  3.9426860000000001  3.9426850000000000
