Be Ir Pd
 1.0000000000000000
     0.0000000000000000    2.7960140000000000    2.7960140000000000
     2.7960140000000000    0.0000000000000000    2.7960140000000000
     2.7960140000000000    2.7960140000000000    0.0000000000000000
 Be  Ir  Pd 
   2   1   1
Cartesian
  2.7960140000000000  2.7960140000000000  2.7960140000000000
  0.0000000000000000  0.0000000000000000  0.0000000000000000
  1.3980070000000000  1.3980070000000000  1.3980070000000000
  4.1940210000000002  4.1940210000000002  4.1940210000000002
