Er Sn Ru
 1.0000000000000000
     0.0000000000000000    3.2666320000000000    3.2666320000000000
     3.2666320000000000    0.0000000000000000    3.2666320000000000
     3.2666320000000000    3.2666320000000000    0.0000000000000000
 Er  Sn  Ru 
   1   1   2
Cartesian
  1.6333160000000000  1.6333160000000000  1.6333160000000000
  4.8999480000000002  4.8999480000000002  4.8999480000000002
  0.0000000000000000  0.0000000000000000  0.0000000000000000
  3.2666320000000000  3.2666320000000000  3.2666320000000000
