Al Ir Rh
 1.0000000000000000
     0.0000010000000000    2.9873170000000000    2.9873180000000001
     2.9873230000000000    0.0000000000000000    2.9873189999999998
     2.9873259999999999    2.9873210000000001   -0.0000030000000000
 Al  Ir  Rh 
   2   1   1
Cartesian
  2.9873309746499999  2.9873249746380002  2.9873229746340000
  0.0000000000010000  0.0000029873170000  0.0000029873180000
  1.4936625000000001  1.4936595000000001  1.4936584999999998
  4.4809904873250002  4.4809785000040003  4.4809725126790001
