Al Cu Te
 1.0000000000000000
     5.4996010000000002    0.0000000000000000   -2.4840740000000001
    -1.1220129999999999    5.3839300000000003   -2.4840740000000001
     0.0169130000000000    0.0208020000000000    7.3673890000000002
 Al  Cu  Te 
   2   2   4
Cartesian
  3.8526540000000007  1.3563835000000002  1.1996205000000000
  2.1887940000000001  2.6919650000000002 -2.4840740000000001
  0.5418470000000001  4.0483485000000003  1.1996205000000000
  0.0000000000000000  0.0000000000000000  0.0000000000000000
  1.5998690840440000  2.0241742500000002 -0.0004513276560001
 -0.0104987906280000  3.4255458690800000  3.6417293276559999
  3.3190592906280001  0.6436046309200001  3.6832431723440004
  3.8805724159560002  4.7161392500000003 -2.5260391723440003
