Cd Ag
 1.0000000000000000
     3.3527170000000002    0.0000000000000000    0.0000000000000000
     0.0000000000000000    3.3527170000000002    0.0000000000000000
     0.0000000000000000    0.0000000000000000    3.3527170000000002
 Cd  Ag 
   1   1
Cartesian
  1.6763585000000001  1.6763585000000001  1.6763585000000001
  0.0000000000000000  0.0000000000000000  0.0000000000000000
