Sr Ga N 
 1.0000000000000000
     7.5802160000000001    0.0000310000000000    0.0000000000000000
    -3.7901349999999998    6.5646449999999996    0.0000000000000000
     0.0000000000000000    0.0000000000000000    5.4181720000000002
 Sr  Ga  N  
   6   2   6
Cartesian
  2.1603119611360007  4.6871764318759999  4.0636290000000006
  4.6011586176760009  4.2145045992960002  1.3545430000000001
  5.1393693434600003  0.4727028325800000  1.3545430000000001
 -1.3492883434600003  6.0919731674199999  4.0636290000000006
 -0.8110776176760000  2.3501714007039998  4.0636290000000006
  1.6297690388640000  1.8774995681239997  1.3545430000000001
 -0.0000217901170000  4.3764425215379994  1.3545430000000001
  3.7901027901169999  2.1882334784619997  4.0636290000000006
  4.5941026337060009  3.9234406531859998  4.0636290000000006
 -1.1007551777680000  5.9403305262670001  1.3545430000000001
  1.9047114411230006  4.5477616915330001  1.3545430000000001
  1.8853695588770001  2.0169143084669998  4.0636290000000006
  4.8908361777679996  0.6243454737330000  4.0636290000000006
 -0.8040216337059999  2.6412353468139997  1.3545430000000001
