Th Si Au
 1.0000000000000000
     4.0727840000000004   -0.0001620000000000   -1.5613360000000001
    -0.5987760000000000    4.0285279999999997   -1.5613360000000001
    -0.0721450000000000   -0.0836580000000000    5.9038959999999996
 Th  Si  Au 
   1   2   2
Cartesian
  0.0000000000000000  0.0000000000000000  0.0000000000000000
  2.1183115067240004  2.4563367644340000 -0.5649070256480004
  1.2835514932760002  1.4883712355659999  3.3461310256479995
  2.8689149312000004  0.9651009262000000  1.3906119999999997
  0.5329480688000002  2.9796070738000000  1.3906119999999997
