Sc Ni Ge
 1.0000000000000000
     4.0685929999999999    0.0000000000000000    0.0000000000000000
     0.0000000000000000    6.4695970000000003    0.0000000000000000
     0.0000000000000000    0.0000000000000000    7.0381010000000002
 Sc  Ni  Ge 
   4   4   4
Cartesian
  3.0514447499999999  3.2756992922340005  4.9769579316449999
  1.0171482500000000  3.1938977077660002  2.0611430683549998
  3.0514447499999999  0.0409007922340000  5.5801935683549999
  1.0171482500000000  6.4286962077660004  1.4579074316450000
  3.0514447499999999  5.2503561581709999  2.9600563661760000
  1.0171482500000000  1.2192408418290002  4.0780446338240006
  3.0514447499999999  2.0155576581710002  0.5589941338240000
  1.0171482500000000  4.4540393418290005  6.4791068661760001
  3.0514447499999999  1.3156507763230001  2.8686173579840002
  1.0171482500000000  5.1539462236770008  4.1694836420160009
  3.0514447499999999  4.5504492763229996  0.6504331420160000
  1.0171482500000000  1.9191477236770000  6.3876678579839998
