Tm Co B 
 1.0000000000000000
     4.9396240000000002   -0.0000130000000000    0.0000000000000000
    -2.4698229999999999    4.2778570000000000    0.0000000000000000
     0.0000000000000000    0.0000000000000000    2.9679329999999999
 Tm  Co  B  
   1   3   2
Cartesian
  0.0000000000000000  0.0000000000000000  0.0000000000000000
  2.4698120000000001 -0.0000065000000000  1.4839665000000000
  1.2349005000000002  2.1389220000000000  1.4839665000000000
 -1.2349114999999999  2.1389285000000000  1.4839665000000000
 -0.0000073333259997  2.8518974814329998  0.0000000000000000
  2.4698083333260001  1.4259465185670002  0.0000000000000000
