Zr Mn Si
 1.0000000000000000
     3.8054250000000001    0.0000000000000000    0.0000000000000000
     0.0000000000000000    6.6737419999999998    0.0000000000000000
     0.0000000000000000    0.0000000000000000    7.7179739999999999
 Zr  Mn  Si 
   4   4   4
Cartesian
  0.9513562500000000  3.5480615655900003  5.2207154606640005
  0.9513562500000000  0.2111905655900000  6.3562455393359993
  2.8540687500000002  6.4625514344099999  1.3617284606640001
  2.8540687500000002  3.1256804344100000  2.4972585393360003
  2.8540687500000002  2.4413082135360002  7.2675221654640003
  0.9513562500000000  0.8955627864640000  3.4085351654639999
  2.8540687500000002  5.7781792135360002  4.3094388345359995
  0.9513562500000000  4.2324337864640000  0.4504518345360000
  0.9513562500000000  1.7453637240340001  0.9826910395499999
  0.9513562500000000  5.0822347240339996  2.8762959604499998
  2.8540687500000002  4.9283782759659998  6.7352829604499993
  2.8540687500000002  1.5915072759659998  4.8416780395500005
