Ti Mn Rh
 1.0000000000000000
     0.0000010000000000    3.0263719999999998    3.0263700000000000
     3.0263689999999999    0.0000000000000000    3.0263710000000001
     3.0263659999999999    3.0263700000000000    0.0000030000000000
 Ti  Mn  Rh 
   2   1   1
Cartesian
  0.0000000000000000  0.0000000000000000  0.0000000000000000
  3.0263679999999997  3.0263710000000001  3.0263720000000003
  1.5131779472639999  1.5131794472580000  1.5131799472560001
  4.5395459472639992  4.5395504472579997  4.5395519472560002
