Sc Pt
 1.0000000000000000
     4.5137000000000000    0.0000000000000000    0.0000000000000000
     0.0000000000000000    6.6336899999999996    0.0000000000000000
     0.0000000000000000    0.0000000000000000    8.2606129999999993
 Sc  Pt 
   8   4
Cartesian
  1.1284250000000000  3.2292537572400000  6.8247202058879992
  3.3852750000000000  3.4044362427599997  1.4358927941119999
  1.1284250000000000  6.5460987572399993  5.5661992941119998
  3.3852750000000000  0.0875912427600000  2.6944137058880000
  3.3852750000000000  0.9834843446399999  7.6286100205959988
  1.1284250000000000  5.6502056553599997  0.6320029794040000
  3.3852750000000000  4.3003293446399997  4.7623094794040002
  1.1284250000000000  2.3333606553599999  3.4983035205959996
  1.1284250000000000  5.0366291324999999  3.3235254707420001
  3.3852750000000000  1.5970608674999998  4.9370875292580001
  1.1284250000000000  1.7197841324999998  0.8067810292580000
  3.3852750000000000  4.9139058674999996  7.4538319707419989
