Ac Mg Tl
 1.0000000000000000
     0.0000000000000000    3.9016899999999999    3.9016899999999999
     3.9016899999999999    0.0000000000000000    3.9016899999999999
     3.9016899999999999    3.9016899999999999    0.0000000000000000
 Ac  Mg  Tl 
   1   1   2
Cartesian
  1.9508449999999999  1.9508449999999999  1.9508449999999999
  5.8525349999999996  5.8525349999999996  5.8525349999999996
  0.0000000000000000  0.0000000000000000  0.0000000000000000
  3.9016821966199999  3.9016821966199999  3.9016821966199999
