Mg
 1.0000000000000000
     3.1971330000000000    0.0000000000000000    0.0000000000000000
    -1.5985659999999999    2.7687979999999999    0.0000000000000000
     0.0000000000000000    0.0000000000000000    5.1681450000000000
 Mg 
   2
Cartesian
 -0.0000012652330000  1.8458662562660000  1.2920362500000000
  1.5985682652330000  0.9229317437339999  3.8761087500000002
