Nd Si Ru
 1.0000000000000000
     4.2219470000000001    0.0000000000000000    0.0000000000000000
     0.0000000000000000    4.2219470000000001    0.0000000000000000
     0.0000000000000000    0.0000000000000000    6.9397859999999998
 Nd  Si  Ru 
   2   2   2
Cartesian
  3.1664602500000001  3.1664602500000001  2.2102593829260000
  1.0554867500000000  1.0554867500000000  4.7295266170739998
  3.1664602500000001  3.1664602500000001  5.7484468169519998
  1.0554867500000000  1.0554867500000000  1.1913391830479998
  3.1664602500000001  1.0554867500000000  0.0000000000000000
  1.0554867500000000  3.1664602500000001  0.0000000000000000
