Er Mg Ge
 1.0000000000000000
     0.0000000000000000    0.0000000000000000    4.1753760000000000
     7.1878650000000004    0.0000000000000000    0.0000000000000000
     0.0000000000000000    7.1878650000000004    0.0000000000000000
 Er  Mg  Ge 
   4   2   4
Cartesian
  1.2750769359450000  4.8690094359450002  2.0876880000000000
  5.9127880640550003  2.3188555640550002  2.0876880000000000
  2.3188555640550002  1.2750769359450000  2.0876880000000000
  4.8690094359450002  5.9127880640550003  2.0876880000000000
  3.5939325000000002  3.5939325000000002  0.0000000000000000
  0.0000000000000000  0.0000000000000000  0.0000000000000000
  2.7064899356400001  6.3004224356399998  0.0000000000000000
  4.4813750643600008  0.8874425643600001  0.0000000000000000
  0.8874425643600001  2.7064899356400001  0.0000000000000000
  6.3004224356399998  4.4813750643600008  0.0000000000000000
