Sr Ac Hg
 1.0000000000000000
     0.0000000000000000    4.0001569999999997    4.0001569999999997
     4.0001569999999997    0.0000000000000000    4.0001569999999997
     4.0001569999999997    4.0001569999999997    0.0000000000000000
 Sr  Ac  Hg 
   1   1   2
Cartesian
  6.0002354999999996  6.0002354999999996  6.0002354999999996
  2.0000784999999999  2.0000784999999999  2.0000784999999999
  0.0000000000000000  0.0000000000000000  0.0000000000000000
  4.0001489996860000  4.0001489996860000  4.0001489996860000
