Pm Pt Au
 1.0000000000000000
     0.0000000000000000    3.6172909999999998    3.6172909999999998
     3.6172909999999998    0.0000000000000000    3.6172909999999998
     3.6172909999999998    3.6172909999999998    0.0000000000000000
 Pm  Pt  Au 
   2   1   1
Cartesian
  0.0000000000000000  0.0000000000000000  0.0000000000000000
  3.6172909999999998  3.6172909999999998  3.6172909999999998
  5.4259364999999997  5.4259364999999997  5.4259364999999997
  1.8086454999999999  1.8086454999999999  1.8086454999999999
