Li Y  Ir
 1.0000000000000000
     0.0000000000000000    3.4754930000000002    3.4754930000000002
     3.4754930000000002    0.0000000000000000    3.4754930000000002
     3.4754930000000002    3.4754930000000002    0.0000000000000000
 Li  Y   Ir 
   1   2   1
Cartesian
  5.2132395000000002  5.2132395000000002  5.2132395000000002
  0.0000000000000000  0.0000000000000000  0.0000000000000000
  3.4754930000000002  3.4754930000000002  3.4754930000000002
  1.7377465000000001  1.7377465000000001  1.7377465000000001
