Be Fe
 1.0000000000000000
     4.1781819999999996    0.0000000000000000    0.0000000000000000
    -2.0890919999999999    3.6184120000000002    0.0000000000000000
     0.0000000000000000    0.0000000000000000    6.8028209999999998
 Be  Fe 
   8   4
Cartesian
  0.0000000000000000  0.0000000000000000  0.0000000000000000
  0.0000000000000000  0.0000000000000000  3.4014104999999999
  2.0890882517159999  2.3852318615160004  1.7007052499999999
 -1.0211234413040000  3.0018201215520000  5.1021157499999994
  1.0211259602939999  3.0018201215520000  5.1021157499999994
  1.0679640397060000  0.6165918784480000  1.7007052499999999
  3.1102134413039999  0.6165918784480000  1.7007052499999999
  0.0000017482839999  1.2331801384840002  5.1021157499999994
 -0.0000027557580002  2.4122758728040004  0.4184279140680000
  2.0890927557580001  1.2061361271960001  3.8198384140679997
  2.0890927557580001  1.2061361271960001  6.3843930859319995
 -0.0000027557580002  2.4122758728040004  2.9829825859320001
