Th Sb
 1.0000000000000000
     3.9059309999999998    0.0000000000000000    2.2550919999999999
     1.3019760000000000    3.6825470000000000    2.2550919999999999
     0.0000000000000000    0.0000000000000000    4.5101810000000002
 Th  Sb 
   1   1
Cartesian
  2.6039534999999998  1.8412735000000000  4.5101825000000000
  0.0000000000000000  0.0000000000000000  0.0000000000000000
