Pm Pd Pt
 1.0000000000000000
     0.0000000000000000    3.5716589999999999    3.5716589999999999
     3.5716589999999999    0.0000000000000000    3.5716589999999999
     3.5716589999999999    3.5716589999999999    0.0000000000000000
 Pm  Pd  Pt 
   2   1   1
Cartesian
  0.0000000000000000  0.0000000000000000  0.0000000000000000
  3.5716589999999999  3.5716589999999999  3.5716589999999999
  1.7858295000000000  1.7858295000000000  1.7858295000000000
  5.3574884999999997  5.3574884999999997  5.3574884999999997
