Ta Zn Ru
 1.0000000000000000
    -0.0041720000000000    3.0737139999999998    3.0737139999999998
     3.0737139999999998   -0.0041720000000000    3.0737139999999998
     3.0737139999999998    3.0737139999999998   -0.0041720000000000
 Ta  Zn  Ru 
   1   1   2
Cartesian
  1.5357832837199998  1.5357832837199998  1.5357832837199998
  4.6074358567439990  4.6074358567439999  4.6074358567439999
  6.1416341804159993  6.1416341804159993  6.1416341804159993
  3.0733112521439998  3.0733112521439998  3.0733112521439998
