Li Al Au
 1.0000000000000000
     0.0000000000000000    3.1175760000000001    3.1175760000000001
     3.1175760000000001    0.0000000000000000    3.1175760000000001
     3.1175760000000001    3.1175760000000001    0.0000000000000000
 Li  Al  Au 
   1   1   2
Cartesian
  4.6763640000000004  4.6763640000000004  4.6763640000000004
  1.5587942351519999  1.5587942351519999  1.5587942351519999
  0.0000000000000000  0.0000000000000000  0.0000000000000000
  3.1175697648480001  3.1175697648480001  3.1175697648480001
