Sb Pd
 1.0000000000000000
     5.9618940000000000   -3.4421010000000001    3.7408560000000000
     0.0000000000000000    6.8842020000000002    3.7408560000000000
    -5.9618940000000000   -3.4421020000000002    3.7408560000000000
 Sb  Pd 
   7  20
Cartesian
  0.0000000000000000  0.0000000000000000  0.0000000000000000
 -2.5216307624520002  0.4073648909349997  7.7038290658559996
  0.9080262656700002 -2.3874798426189998  7.7038290658559996
  1.6136044967820000  1.9801128923080005  7.7038290658560005
  2.5216307624520002 -0.4073658909350001  3.5187389341439999
 -0.9080262656699999  2.3874788426190001  3.5187389341439999
 -1.6136044967820002 -1.9801138923080002  3.5187389341440003
 -0.0000000000000002 -0.0000003773860000  4.2352400472479994
  0.0000000000000002 -0.0000006226140004  6.9873279527519996
 -2.0311517049660002  0.3767685911610001  2.1333727682400001
  0.6892843748099999 -1.9474136146460002  2.1333727682400001
  1.3418673301560000  1.5706444531949999  2.1333727682399997
  2.0311517049660002 -0.3767695911610000  9.0891952317599998
 -0.6892843748100000  1.9474126146460000  9.0891952317599998
 -1.3418673301559998 -1.5706454531950003  9.0891952317599998
  3.2607863805720001  3.9261635195929996  6.8189557650479999
 -5.0305507668959999  0.8608409354710003  6.8189557650479999
  1.7697643863240000 -4.7870062778970004  6.8189557650479999
 -3.2607863805720001 -3.9261645195930002  4.4036122349519999
  5.0305507668959999 -0.8608419354710001  4.4036122349519999
 -1.7697643863240000  4.7870052778970003  4.4036122349519999
 -2.7285681031919999  0.2553550376400001  5.0577457968240003
  1.1431395174539998 -2.4906875485000004  5.0577457968240003
  1.5854285857380002  2.2353311588309999  5.0577457968240003
  2.7285681031919995 -0.2553560376399996  6.1648222031759996
 -1.1431395174540004  2.4906865484999998  6.1648222031759996
 -1.5854285857379995 -2.2353321588310000  6.1648222031759996
