Na Ag O 
 1.0000000000000000
     3.1673770000000001    1.4935350000000001   -0.2737670000000000
    -3.1673770000000001    1.4935350000000001    0.2737670000000000
    -2.8326539999999998    0.0000000000000000    5.6672789999999997
 Na  Ag  O  
   1   1   2
Cartesian
 -1.4163269999999999  1.4935350000000001  2.8336394999999999
  0.0000000000000000  0.0000000000000000  0.0000000000000000
 -3.2278078386360001  1.4935350000000001  4.3778476117259997
  0.3951538386360000  1.4935350000000001  1.2894313882740001
