Sc Co Si
 1.0000000000000000
     3.7735789999999998    0.0000000000000000    0.0000000000000000
     0.0000000000000000    3.7735789999999998    0.0000000000000000
     0.0000000000000000    0.0000000000000000    9.6179109999999994
 Sc  Co  Si 
   2   4   4
Cartesian
  0.0000000000000000  0.0000000000000000  0.0000000000000000
  1.8867894999999999  1.8867894999999999  4.8089554999999997
  1.8867894999999999  0.0000000000000000  2.4044777499999999
  0.0000000000000000  1.8867894999999999  2.4044777499999999
  0.0000000000000000  1.8867894999999999  7.2134332499999996
  1.8867894999999999  0.0000000000000000  7.2134332499999996
  1.8867894999999999  1.8867894999999999  1.1903992265590000
  1.8867894999999999  1.8867894999999999  8.4275213913520002
  0.0000000000000000  0.0000000000000000  5.9993451086479999
  0.0000000000000000  0.0000000000000000  3.6185562734409995
