Hf Ga Co
 1.0000000000000000
     3.6601979999999998    0.0000000000000000    2.1132160000000000
     1.2200670000000000    3.4508670000000001    2.1132160000000000
     0.0000000000000000    0.0000000000000000    4.2264320000000000
 Hf  Ga  Co 
   1   1   2
Cartesian
  2.4401324999999998  1.7254335000000001  4.2264320000000000
  0.0000000000000000  0.0000000000000000  0.0000000000000000
  1.2200662499999999  0.8627167500000000  2.1132160000000000
  3.6601987500000002  2.5881502500000000  6.3396480000000004
