Sn S 
 1.0000000000000000
     3.9568550000000000    0.0000000000000000    0.0000000000000000
     0.0000000000000000    4.5328109999999997    0.0000000000000000
     0.0000000000000000    0.0000000000000000   11.3920189999999995
 Sn  S  
   4   4
Cartesian
  0.9892137500000000  1.6750549769399998  7.0816549470269994
  2.9676412499999998  2.8577560230599999  4.3103640529730001
  2.9676412499999998  3.9414604769399997 10.0063735529729989
  0.9892137500000000  0.5913505230599999  1.3856454470270001
  0.9892137500000000  0.0480341981670000  3.9586924264429997
  2.9676412499999998  4.4847768018330001  7.4333265735570002
  2.9676412499999998  2.3144396981669999  1.7373170735569998
  0.9892137500000000  2.2183713018329998  9.6547019264429981
