Tb Co
 1.0000000000000000
     4.3855779999999998   -0.0049210000000000    2.5320469999999999
     1.4595160000000000    4.1355300000000002    2.5321030000000002
    -0.0069630000000000   -0.0048570000000000    5.0640660000000004
 Tb  Co 
   2   4
Cartesian
  5.1077412998530001  3.6096328563149997  8.8611837745690014
  0.7303897001470000  0.5161191436850000  1.2670322254310000
  2.1893075000000000 -0.0048890000000000  3.7980565000000004
  0.7262765000000000  2.0653364999999999  3.7980845000000003
  2.9190654999999999  2.0628759999999997  5.0641080000000001
  2.9225469999999998  2.0653044999999999  2.5320749999999999
