Hf Co Sn
 1.0000000000000000
     7.1255649999999999    0.0000000000000000    0.0000000000000000
    -3.5627830000000000    6.1709209999999999    0.0000000000000000
     0.0000000000000000    0.0000000000000000    7.1396150000000000
 Hf  Co  Sn 
   6   6   6
Cartesian
 -1.3718317880040001  2.4719660469430003  5.3547112500000003
  2.1079092741839993  3.7469030092270001  5.3547112500000003
 -0.7360891745279997  6.1229791147509998  5.3547112500000003
  5.6706990069359993  2.4240179907730002  1.7849037500000000
  2.1909577381440002  3.6989549530569996  1.7849037500000000
  2.8267009432679999  0.0479418852490000  1.7849037500000000
 -0.0000038961160002  4.1139493903069999  3.3133668084300001
  3.5627858961159999  2.0569716096930000  3.8262481915700000
 -0.0000038961160002  4.1139493903069999  0.2564406915700000
  0.0000000000000000  0.0000000000000000  5.3547112500000003
  0.0000000000000000  0.0000000000000000  1.7849037500000000
  3.5627858961159999  2.0569716096930000  6.8831743084300001
  0.9558872850360000  1.6556457624579999  3.5698075000000000
 -2.6068954466659999  4.5152752375419993  3.5698075000000000
 -2.6068954466659999  4.5152752375419993  0.0000000000000000
  5.2137901616299995  0.0000000000000000  3.5698075000000000
  5.2137901616299995  0.0000000000000000  0.0000000000000000
  0.9558872850360000  1.6556457624579999  0.0000000000000000
