Sr Tb Ir O 
 1.0000000000000000
     5.8908860000000001    0.0000000000000000    0.0000000000000000
     0.0000000000000000    5.8330960000000003    0.0000000000000000
     0.0000000000000000    5.7699179999999997    8.2808220000000006
 Sr  Tb  Ir  O  
   4   2   2  12
Cartesian
  2.7307732232739999  5.8674140098579999  2.0632744519860000
  5.6762162232740003  2.8506409901419998  2.0771365480139998
  0.2146697767260000  8.7523730098579993  6.2036854519860007
  3.1601127767259998  5.7355999901420001  6.2175475480140001
  2.9454430000000000  2.9165480000000001  0.0000000000000000
  0.0000000000000000  5.8015070000000000  4.1404110000000003
  0.0000000000000000  0.0000000000000000  0.0000000000000000
  2.9454430000000000  2.8849589999999998  4.1404110000000003
  1.1765689881219998  1.5752853862080001  0.3165923867040000
  4.1220119881219999  7.1427696137920007  3.8238186132960004
  4.7143170118780002 10.0277286137920001  7.9642296132960002
  1.7688740118780002  4.4602443862080001  4.4570033867040006
  4.2918285588440002  1.1432564496039999  0.3335018252280000
  1.3463855588440001  7.5747985503960003  3.8069091747720005
  1.5990574411560001 10.4597575503959987  7.9473201747719999
  4.5445004411559999  4.0282154496039997  4.4739128252280009
  3.0546953717559999  3.3296665080599999  2.2009928026679999
  0.1092523717560000  5.3883884919400007  1.9394181973320002
  2.8361906282440001  8.2733474919400010  6.0798291973320007
  5.7816336282440002  6.2146255080600001  6.3414038026680002
