Rb F 
 1.0000000000000000
     3.4490550000000000    0.0000000000000000    1.9913130000000001
     1.1496839999999999    3.2518009999999999    1.9913130000000001
     0.0000000000000000    0.0000000000000000    3.9826260000000002
 Rb  F  
   1   1
Cartesian
  0.0000000000000000  0.0000000000000000  0.0000000000000000
  2.2993695000000001  1.6259005000000000  3.9826260000000002
