Th Al Ni
 1.0000000000000000
     5.2910740000000001    0.0000000000000000    0.0000000000000000
    -2.6455380000000002    4.5822050000000001    0.0000000000000000
     0.0000000000000000    0.0000000000000000    4.0418969999999996
 Th  Al  Ni 
   1   3   2
Cartesian
  0.0000000000000000  0.0000000000000000  0.0000000000000000
  2.6455370000000000  0.0000000000000000  2.0209484999999998
  1.3227679999999999  2.2911025000000000  2.0209484999999998
 -1.3227690000000001  2.2911025000000000  2.0209484999999998
 -0.0000033122040001  3.0548048607350000  0.0000000000000000
  2.6455393122039998  1.5274001392650001  0.0000000000000000
