Li Mg Pt
 1.0000000000000000
     0.0045190000000000    3.1896930000000001    3.1897820000000001
     3.1899320000000002    0.0057210000000000    3.1892170000000002
     3.1899380000000002    3.1890679999999998    0.0055480000000000
 Li  Mg  Pt 
   1   2   1
Cartesian
  1.5956322019310001  1.5964071242100000  1.5963469852090000
  0.0000483506010000  0.0003605084320000  0.0003955367190000
  3.1924997350250002  3.1916703276370000  3.1917410089120000
  4.7884064023809998  4.7882882287889998  4.7883369747079998
