Nd Al Ni
 1.0000000000000000
     5.3100100000000001    0.0000000000000000    0.0000000000000000
    -2.6550039999999999    4.5986029999999998    0.0000000000000000
     0.0000000000000000    0.0000000000000000    4.0016140000000000
 Nd  Al  Ni 
   1   3   2
Cartesian
  0.0000000000000000  0.0000000000000000  0.0000000000000000
  2.6550050000000001  0.0000000000000000  2.0008070000000000
  1.3275030000000001  2.2993014999999999  2.0008070000000000
 -1.3275020000000000  2.2993014999999999  2.0008070000000000
  2.6550079883380002  1.5328661337989999  0.0000000000000000
 -0.0000019883380001  3.0657368662010001  0.0000000000000000
