Bi S  O 
 1.0000000000000000
     3.8426030000000000    0.0000000000000000    0.0000000000000000
     0.0000000000000000    3.8772959999999999    0.0000000000000000
     0.0000000000000000    0.0000000000000000   11.9636879999999994
 Bi  S   O  
   4   2   4
Cartesian
  1.9213015000000000  1.6258936727519999 10.2423645342479990
  1.9213015000000000  2.2514023272479999  1.7213234657520000
  0.0000000000000000  3.5645416727519996  7.7031674657519993
  0.0000000000000000  0.3127543272480000  4.2605205342480001
  0.0000000000000000  0.0000000000000000  0.0000000000000000
  1.9213015000000000  1.9386479999999999  5.9818439999999997
  0.0000000000000000  1.7098759041119997  8.9621063539920005
  0.0000000000000000  2.1674200958880001  3.0015816460079994
  1.9213015000000000  3.6485239041119999  8.9834256460079995
  1.9213015000000000  0.2287720958880000  2.9802623539919999
