Al Ni
 1.0000000000000000
     2.8937919999999999    0.0000000000000000    0.0000000000000000
     0.0000000000000000    2.8937919999999999    0.0000000000000000
     0.0000000000000000    0.0000000000000000    2.8937919999999999
 Al  Ni 
   1   1
Cartesian
  1.4468960000000000  1.4468960000000000  1.4468960000000000
  0.0000000000000000  0.0000000000000000  0.0000000000000000
