Sr Zn P 
 1.0000000000000000
     4.0812819999999999    0.0000000000000000    0.0000000000000000
    -2.0406409999999999    3.5344929999999999    0.0000000000000000
     0.0000000000000000    0.0000000000000000    7.0968260000000001
 Sr  Zn  P  
   1   2   2
Cartesian
  0.0000000000000000  0.0000000000000000  0.0000000000000000
  2.0406430406410001  1.1781631551689999  2.6240017357180001
 -0.0000020406410000  2.3563298448309999  4.4728242642820000
  2.0406430406410001  1.1781631551689999  5.1401672003660002
 -0.0000020406410000  2.3563298448309999  1.9566587996339999
