Cs S  O 
 1.0000000000000000
     6.2504280000000003    0.0000000000000000    0.0000000000000000
     0.0000000000000000    8.2539970000000000    0.0000000000000000
     0.0000000000000000    0.0000000000000000   10.9433170000000004
 Cs  S   O  
   8   4  16
Cartesian
  4.6878210000000005  6.8123208679919998  0.9939267665250001
  1.5626070000000001  1.4416761320080000  9.9493902334750004
  4.6878210000000005  2.6853223679920002  4.4777317334750002
  1.5626070000000001  5.5686746320080003  6.4655852665250011
  1.5626070000000001  4.0371785046459996  2.1743276547300003
  4.6878210000000005  4.2168102413569999  8.7689893452700005
  1.5626070000000001  8.1641770046459996  3.2973308452700003
  4.6878210000000005  0.0898117413570000  7.6459861547300010
  4.6878210000000005  2.1315452012679996  0.9136903662810000
  1.5626070000000001  6.1224517987319995 10.0296266337189994
  4.6878210000000005  6.2585437012680005  4.5579681337190001
  1.5626070000000001  1.9954532987319999  6.3853488662810003
  4.6878210000000005  3.6086062184149998  0.9540930926450000
  1.5626070000000001  4.6453907815850002  9.9892239073550009
  4.6878210000000005  7.7356047184149999  4.5175654073549998
  1.5626070000000001  0.5183922815849999  6.4257515926449997
  4.6878210000000005  1.6535975049829998 10.4496858567640007
  1.5626070000000001  6.6003994950169993  0.4936311432360000
  4.6878210000000005  5.7805960049830007  5.9652896432360007
  1.5626070000000001  2.4734009950170002  4.9780273567640005
  3.4777256383439998  1.6115846602530000  1.5978227718530000
  0.3525116383440000  6.6424123397469996  9.3454942281470004
  5.8979163616560006  5.7385831602530004  3.8738357281470002
  2.7727023616560000  2.5154138397470001  7.0694812718530011
  2.7727023616560000  6.6424123397469996  9.3454942281470004
  5.8979163616560006  1.6115846602530000  1.5978227718530000
  0.3525116383440000  2.5154138397470001  7.0694812718530011
  3.4777256383439998  5.7385831602530004  3.8738357281470002
