Ba Au
 1.0000000000000000
     4.8604300000000000    0.0000000000000000    0.0000000000000000
    -2.4302139999999999    4.2092549999999997    0.0000000000000000
     0.0000000000000000    0.0000000000000000    4.2140550000000001
 Ba  Au 
   1   2
Cartesian
  0.0000000000000000  0.0000000000000000  0.0000000000000000
  2.4302177635480002  1.4030835969150000  2.1070275000000001
 -0.0000017635479999  2.8061714030850000  2.1070275000000001
