Zn S  O 
 1.0000000000000000
     4.7527520000000001    0.0000000000000000    0.0000000000000000
     0.0000000000000000    6.6678559999999996    0.0000000000000000
     0.0000000000000000    0.0000000000000000    8.6020029999999998
 Zn  S   O  
   4   4  16
Cartesian
  2.3763760000000000  3.3339279999999998  4.3010014999999999
  0.0000000000000000  3.3339279999999998  0.0000000000000000
  2.3763760000000000  0.0000000000000000  4.3010014999999999
  0.0000000000000000  0.0000000000000000  0.0000000000000000
  4.6172985679999998  5.0008919999999994  5.8375600918839998
  2.2409225679999998  1.6669639999999999  7.0654444081159999
  0.1354534320000000  1.6669639999999999  2.7644429081160000
  2.5118294319999999  5.0008919999999994  1.5365585918840001
  0.7886906778880001  2.8890886548159997  3.2239877143849998
  3.1650666778879999  3.7787673451840003  1.0770137856150002
  3.9640613221120002  6.2230166548159991  5.3780152856149996
  1.5876853221120002  0.4448393451839999  7.5249892143850001
  3.9640613221120002  3.7787673451840003  5.3780152856149996
  1.5876853221120002  2.8890886548159997  7.5249892143850001
  0.7886906778880001  0.4448393451839999  3.2239877143849998
  3.1650666778879999  6.2230166548159991  1.0770137856150002
  1.1031422557120001  5.0008919999999994  1.0864157748940000
  3.4795182557120001  1.6669639999999999  3.2145857251059997
  3.6496097442880000  1.6669639999999999  7.5155872251059996
  1.2732337442880002  5.0008919999999994  5.3874172748940001
  2.5980966335520002  5.0008919999999994  3.0349673004629998
  0.2217206335520000  1.6669639999999999  1.2660341995369999
  2.1546553664479999  1.6669639999999999  5.5670356995369996
  4.5310313664480004  5.0008919999999994  7.3359688004630002
