Sr C  N 
 1.0000000000000000
     3.8207460000000002    0.0000000000000000    0.0000000000000000
     0.0000000000000000   12.2975560000000002    0.0000000000000000
     0.0000000000000000    0.0000000000000000   14.4164910000000006
 Sr  C   N  
  16   4  16
Cartesian
  0.9551865000000000  1.3867093072280001  5.8175586956850003
  0.9551865000000000  4.9980956850800000  9.8843498913480001
  2.8655595000000003  8.1187234956400012 10.6582559612100010
  0.9551865000000000  7.5354873072279993  1.3906868043150000
  0.9551865000000000 11.1468736850799992 11.7403866086520008
  2.8655595000000003  1.9699454956400000 10.9664805387900000
  2.8655595000000003  7.2994603149200010  4.5321411086519996
  0.9551865000000000  7.6861692608960004  7.6723267617810000
  2.8655595000000003 10.7601647391040007  0.4640812617810000
  2.8655595000000003  4.7620686927720000 13.0258041956849997
  0.9551865000000000  4.1788325043599999  3.7582350387899996
  0.9551865000000000 10.3276105043599991  3.4500104612100002
  2.8655595000000003  1.1506823149200001  2.6761043913479998
  2.8655595000000003  4.6113867391039998  6.7441642382189997
  2.8655595000000003 10.9108466927720009  8.5989323043150012
  0.9551865000000000  1.5373912608959999 13.9524097382190018
  0.9551865000000000  1.8362956570320002  8.6064288796350006
  0.9551865000000000  7.9850736570319993 13.0183076203650003
  2.8655595000000003  4.3124823429679999  1.3981833796350001
  2.8655595000000003 10.4612603429680000  5.8100621203650000
  0.9551865000000000  0.6825635482240000  9.0630568155690003
  2.8655595000000003  6.3177095267720000  8.9476672216050002
  2.8655595000000003  0.1689315267720000 12.6770692783950008
  2.8655595000000003  5.4662144517760005  1.8548113155690000
  0.9551865000000000 12.1286244732279993  1.7394217216050001
  0.9551865000000000  3.4461687129919998 11.9759088221190009
  0.9551865000000000  6.8313415482239996 12.5616796844310006
  2.8655595000000003  9.3282496160200008  6.3016067975010008
  0.9551865000000000  9.1180843839799994 13.5098522975010003
  0.9551865000000000  2.9693063839800002  8.1148842024990007
  2.8655595000000003  8.8513872870080004  2.4405821778810002
  0.9551865000000000  5.9798464732280001  5.4688237783950004
  2.8655595000000003  3.1794716160200003  0.9066387024990000
  2.8655595000000003  2.7026092870079998  4.7676633221189997
  2.8655595000000003 11.6149924517760006  5.3534341844310003
  0.9551865000000000  9.5949467129919999  9.6488276778810000
