Li H  S 
 1.0000000000000000
     6.1011350000000002    0.0000000000000000    0.0000000000000000
     0.0000000000000000    3.9234230000000001    0.0000000000000000
     0.0000000000000000    0.0000000000000000    7.8327660000000003
 Li  H   S  
   4   4   4
Cartesian
  1.5243075684000000  1.9492703256670001  1.9466225046180001
  4.5768274316000008  1.9492703256670001  1.9466225046180001
  4.5768274316000008  1.9741526743330002  5.8630055046180010
  1.5243075684000000  1.9741526743330002  5.8630055046180010
  0.0000000000000000  0.0412626396910000  7.3168295363460008
  0.0000000000000000  3.8821603603090002  3.4004465363460001
  3.0505675000000001  3.4331245979589999  3.9088870429380003
  3.0505675000000001  0.4902984020410000  7.8252700429380004
  0.0000000000000000  0.0123509356040000  5.9748182392680000
  0.0000000000000000  3.9110720643960000  2.0584352392679999
  3.0505675000000001  2.0910549860410002  3.9131793987060002
  3.0505675000000001  1.8323680139590000  7.8295623987060008
