Hf P  Ru
 1.0000000000000000
     6.3982060000000001   -0.0000000000000000    0.0000000000000000
    -3.1991049999999999    5.5410089999999999    0.0000000000000000
     0.0000000000000000    0.0000000000000000    3.7674850000000002
 Hf  P   Ru 
   3   3   3
Cartesian
 -1.8667225549699999  3.2332563256259998  1.8837425000000001
  1.3323807790860003  2.3077526743740000  1.8837425000000001
  3.7334427758839999  0.0000000000000000  1.8837425000000001
  3.1991055324370006  1.8470011529969999  0.0000000000000000
 -0.0000045324370000  3.6940078470029998  0.0000000000000000
  0.0000000000000000  0.0000000000000000  1.8837425000000001
  1.5765243566060001  0.0000000000000000  0.0000000000000000
  2.4108393144990004  4.1756988413910001  0.0000000000000000
 -0.7882626711050000  1.3653101586090000  0.0000000000000000
