Sc V  Ru
 1.0000000000000000
     0.0000000000000000    3.0851489999999999    3.0851549999999999
     3.0851449999999998    0.0000040000000000    3.0851510000000002
     3.0851510000000002    3.0851510000000002   -0.0000030000000000
 Sc  V   Ru 
   1   1   2
Cartesian
  1.5425770851450000  1.5425729148550000  1.5425757499959998
  4.6277219999999994  4.6277280000000003  4.6277272500000004
  3.0851480000000002  3.0851519999999999  3.0851514999999998
  0.0000000000000000  0.0000000000000000  0.0000000000000000
