U  Cl O 
 1.0000000000000000
     5.7634189999999998    0.0000000000000000    0.0000000000000000
     0.0000000000000000    8.4440519999999992    0.0000000000000000
     0.0000000000000000    0.0000000000000000    8.7380010000000006
 U   Cl  O  
   4   8   8
Cartesian
  3.2840364901329995  2.1110129999999998  3.7594025982360004
  5.3610920098669999  6.3330389999999994  8.1284030982359994
  2.4793825098669999  6.3330389999999994  4.9785984017640006
  0.4023269901329999  2.1110129999999998  0.6095979017640001
  4.6879938316950005  3.7298053208159994  7.6647035991690000
  4.6879938316950005  0.4922206791839999  7.6647035991690000
  3.9571346683049997  7.9518313208159990  3.2957030991690002
  1.8062843316949999  0.4922206791839999  5.4422979008310008
  1.0754251683050000  4.7142466791839999  1.0732974008310001
  1.0754251683050000  7.9518313208159990  1.0732974008310001
  1.8062843316949999  3.7298053208159994  5.4422979008310008
  3.9571346683049997  4.7142466791839999  3.2957030991690002
  1.1347076961389999  6.3330389999999994  3.8388310273260000
  1.9412981851889999  2.1110129999999998  2.5016896863000002
  4.8230076851890002  2.1110129999999998  1.8673108137000001
  4.0164171961389998  6.3330389999999994  0.5301694726740001
  4.6287113038610004  2.1110129999999998  4.8991699726740006
  0.9404113148110000  6.3330389999999994  6.8706901863000001
  3.8221208148110000  6.3330389999999994  6.2363113137000008
  1.7470018038610000  2.1110129999999998  8.2078315273260003
