Zr Mn Ge
 1.0000000000000000
     3.8698910000000000    0.0000000000000000    0.0000000000000000
     0.0000000000000000    6.7775949999999998    0.0000000000000000
     0.0000000000000000    0.0000000000000000    7.8374680000000003
 Zr  Mn  Ge 
   4   4   4
Cartesian
  0.9674727500000000  3.6244815885299997  5.3024624878040001
  0.9674727500000000  0.2356840885300000  6.4537395121960008
  2.9024182500000002  6.5419109114699996  1.3837284878039999
  2.9024182500000002  3.1531134114699997  2.5350055121959998
  2.9024182500000002  5.8835014451949998  4.3666766460720003
  0.9674727500000000  0.8940935548050001  3.4707913539280004
  2.9024182500000002  2.4947039451949999  7.3895253539279997
  0.9674727500000000  4.2828910548049999  0.4479426460720001
  2.9024182500000002  5.0469767823199998  6.8150702994000003
  0.9674727500000000  5.1194157176799999  2.8963362994000001
  0.9674727500000000  1.7306182176800000  1.0223977006000000
  2.9024182500000002  1.6581792823200001  4.9411317005999997
