Nd Si Ru
 1.0000000000000000
     3.9104899999999998    0.0000000000000000   -1.5427299999999999
    -0.6086230000000000    3.8628369999999999   -1.5427299999999999
    -0.0000750000000000   -0.0000880000000000    5.7272999999999996
 Nd  Si  Ru 
   1   2   2
Cartesian
  0.0000000000000000  0.0000000000000000  0.0000000000000000
  2.1032522204149999  2.4605837436949995 -0.3961996656999998
  1.1985397795850001  1.4021652563050000  3.0380396656999999
  2.7806742500000001  0.9656652499999999  1.3209199999999999
  0.5211177499999999  2.8970837500000002  1.3209199999999999
