Nd Ni B  C 
 1.0000000000000000
    -1.8405640000000001    1.8405640000000001    4.9860429999999996
     1.8405640000000001   -1.8405640000000001    4.9860429999999996
     1.8405640000000001    1.8405640000000001   -4.9860429999999996
 Nd  Ni  B   C  
   1   2   2   1
Cartesian
  0.0000000000000000  0.0000000000000000  0.0000000000000000
  0.0000000000000001  1.8405640000000001  2.4930214999999998
  1.8405640000000001  0.0000000000000000  2.4930214999999998
 -0.0000000000000001  0.0000000000000001  3.4898112723879997
 -0.0000000000000001  0.0000000000000001  6.4822747276119994
  0.0000000000000000  0.0000000000000000  4.9860429999999996
