Hf Si Te
 1.0000000000000000
     3.6541679999999999    0.0000000000000000    0.0000000000000000
     0.0000000000000000    3.6541679999999999    0.0000000000000000
     0.0000000000000000    0.0000000000000000   10.1669599999999996
 Hf  Si  Te 
   2   2   2
Cartesian
  2.7406259999999998  2.7406259999999998  8.0759721716000001
  0.9135420000000000  0.9135420000000000  2.0909878283999999
  2.7406259999999998  0.9135420000000000  0.0000000000000000
  0.9135420000000000  2.7406259999999998  0.0000000000000000
  0.9135420000000000  0.9135420000000000  6.6944043111199996
  2.7406259999999998  2.7406259999999998  3.4725556888800000
