Sc Fe Sb
 1.0000000000000000
     7.6596880000000001    0.0000000000000000    0.0000000000000000
    -3.8298429999999999    6.6334840000000002    0.0000000000000000
     0.0000000000000000    0.0000000000000000    3.9069400000000001
 Sc  Fe  Sb 
   6   1   2
Cartesian
  4.6783152994479993  0.0000000000000000  1.9534700000000000
  1.4906867395049999  2.5819443438360001  1.9534700000000000
 -2.3391570389529996  4.0515396561639996  1.9534700000000000
  1.7783804017120000  0.0000000000000000  0.0000000000000000
  2.9406545669700002  5.0933614857840004  0.0000000000000000
 -0.8891899686820000  1.5401225142160000  0.0000000000000000
  0.0000000000000000  0.0000000000000000  1.9534700000000000
 -0.0000031631769999  4.4223248778280002  0.0000000000000000
  3.8298481631770005  2.2111591221719999  0.0000000000000000
