Sc Ru Rh
 1.0000000000000000
     0.0000000000000000    3.2047059999999998    3.2047059999999998
     3.2047059999999998    0.0000000000000000    3.2047059999999998
     3.2047059999999998    3.2047059999999998    0.0000000000000000
 Sc  Ru  Rh 
   2   1   1
Cartesian
  0.0000000000000000  0.0000000000000000  0.0000000000000000
  3.2047059999999998  3.2047059999999998  3.2047059999999998
  4.8070589999999997  4.8070589999999997  4.8070589999999997
  1.6023529999999999  1.6023529999999999  1.6023529999999999
