Rh W 
 1.0000000000000000
     5.5283259999999999    0.0000000000000000    0.0000000000000000
    -2.7641629999999999    4.7876709999999996    0.0000000000000000
     0.0000000000000000    0.0000000000000000    4.3876340000000003
 Rh  W  
   6   2
Cartesian
 -0.0000027641629999  1.5998816550569999  3.2907255000000002
  1.3855394679130000  0.7999384336930000  1.0969085000000001
  4.1427920604130000  0.7999384336930000  1.0969085000000001
 -1.3786290604129998  3.9877325663069998  3.2907255000000002
  1.3786235320870002  3.9877325663069998  3.2907255000000002
  2.7641657641630002  3.1877893449429999  1.0969085000000001
  2.7641657641630002  1.5958887374429997  3.2907255000000002
 -0.0000027641630000  3.1917822625569996  1.0969085000000001
