Sm Cd Ag
 1.0000000000000000
     0.0000000000000000    3.5130539999999999    3.5130539999999999
     3.5130539999999999    0.0000000000000000    3.5130539999999999
     3.5130539999999999    3.5130539999999999    0.0000000000000000
 Sm  Cd  Ag 
   1   1   2
Cartesian
  5.2695809999999996  5.2695809999999996  5.2695809999999996
  1.7565199738919999  1.7565199738919999  1.7565199738919999
  3.5130539999999999  3.5130539999999999  3.5130539999999999
  0.0000000000000000  0.0000000000000000  0.0000000000000000
