Ca Sb
 1.0000000000000000
     4.2708040000000000    0.0000000000000000    0.0000000000000000
     0.0000000000000000    4.6959229999999996    0.0871820000000000
     0.0000000000000000    2.5041970000000000    8.8173060000000003
 Ca  Sb 
   2   4
Cartesian
  1.0677010000000000  1.2912409451689999  2.5480550042019998
  3.2031030000000000  5.9088790548310000  6.3564329957980004
  1.0677010000000000  3.7158997214179998  0.2397814799960000
  3.2031030000000000  3.4842202785819998  8.6647065200040014
  1.0677010000000000  3.5784386170980000  5.4777822927079995
  3.2031030000000000  3.6216813829019996  3.4267057072919997
