Ti Co
 1.0000000000000000
     3.6066690000000001    0.0000000000000000    0.0000000000000000
     0.0000000000000000    3.6066690000000001    0.0000000000000000
     0.0000000000000000    0.0000000000000000    3.6066690000000001
 Ti  Co 
   1   3
Cartesian
  0.0000000000000000  0.0000000000000000  0.0000000000000000
  1.8033345000000001  1.8033345000000001  0.0000000000000000
  1.8033345000000001  0.0000000000000000  1.8033345000000001
  0.0000000000000000  1.8033345000000001  1.8033345000000001
