Ge Rh
 1.0000000000000000
     4.0126289999999996    0.0000000000000000    0.0000000000000000
     0.0000000000000000    5.4989970000000001    0.0000000000000000
     0.0000000000000000    0.0000000000000000    7.5841659999999997
 Ge  Rh 
   4   8
Cartesian
  3.0094717499999994  1.5681874674690002  4.5870249434560000
  1.0031572499999999  3.9308095325310002  2.9971410565439998
  3.0094717499999994  4.3176859674690000  6.7892240565439996
  1.0031572499999999  1.1813110325309999  0.7949419434560000
  3.0094717499999994  5.3344615107630000  1.5425814435699998
  1.0031572499999999  0.1645354892370000  6.0415845564300001
  3.0094717499999994  2.5849630107630004  2.2495015564299998
  1.0031572499999999  2.9140339892369997  5.3346644435699995
  3.0094717499999994  4.6100291449800004  4.3206766177019995
  1.0031572499999999  0.8889678550200000  3.2634893822979998
  3.0094717499999994  1.8605306449799999  7.0555723822980001
  1.0031572499999999  3.6384663550200003  0.5285936177020000
