Sc Sn Ru
 1.0000000000000000
     0.0000000000000000    3.1959330000000001    3.1959330000000001
     3.1959330000000001    0.0000000000000000    3.1959330000000001
     3.1959330000000001    3.1959330000000001    0.0000000000000000
 Sc  Sn  Ru 
   1   1   2
Cartesian
  1.5979665000000001  1.5979665000000001  1.5979665000000001
  4.7939058918660002  4.7939058918660002  4.7939058918660002
  0.0000000000000000  0.0000000000000000  0.0000000000000000
  3.1959393918660002  3.1959393918660002  3.1959393918660002
