Re Ir
 1.0000000000000000
     5.5025659999999998    0.0000010000000000   -0.0000020000000000
    -2.7512829999999999    4.7653610000000004    0.0000020000000000
    -0.0000020000000000    0.0000000000000000    4.3780760000000001
 Re  Ir 
   2   6
Cartesian
  0.0000012512850002  3.1769092551210005  3.2835532885899998
  2.7512797487189999  1.5884527448790000  1.0945139552580001
  0.0000022512830000  1.5912924003340001  1.0945193339279999
  1.3731868555660001  3.9697179320680003  1.0945149558520000
 -1.3731796017150000  3.9697126676000001  1.0945203321400001
  2.7512814999999993  3.1740743650280003  3.2835566660720001
  1.3780941444360000  0.7956440679320000  3.2835566660720001
  4.1244606017170007  0.7956493324000001  3.2835512897840000
