Na Th F 
 1.0000000000000000
    -4.3868689999999999    4.3868229999999997    4.3027910000000000
     4.3868229999999997   -4.3868710000000002    4.3027930000000003
     4.3868159999999996    4.3868179999999999   -4.3028399999999998
 Na  Th  F  
   2   4  18
Cartesian
  4.3867657936150000 -0.0000724326450003  4.3025404523110007
 -0.0000626590010006  4.3867570199669998  4.3025394523150000
  1.6305246828159998 -1.6305345625520000  1.6736616786699998
  2.7562737899439993  2.7562738072219997  2.6291349561840005
  1.6304724890709996  1.6304800234129995  6.9319435771190001
 -1.6305338018959998  1.6305246655319996  1.6736609352979999
  1.8567116475429997 -1.8567460506610001  3.9140265604170001
  2.5300983315499996  2.5300988179399999  0.3887898120960002
  1.8566850589239998  1.8566843918119995  4.6915805747040000
 -1.8567403309419996  1.8567067742739998  3.9140300167120001
  3.9706300987439995 -1.7242162402679999  1.7005851438740001
  4.8029951078419995  1.7241135616259990  1.7005227010500008
 -0.0000083561650001  2.1094596659449998  0.0000097327930000
  2.1094679587259999 -0.0000083562220002  0.0000102136080002
  6.6641798147289997 -0.0000446440230000 -0.0000227913189998
 -0.0000402571500006  6.6641769470400005 -0.0000286132479996
 -0.0000400496110003 -0.0000328264730001  6.6717156495590002
 -0.0000103374950000 -0.0000020132550001  1.9339070755190002
 -1.7242154519999997  3.9706306086399996  1.7005838457099998
 -0.4162415520189999  6.1110088154829993  2.6022235541469998
  0.4161695054879997  2.6626207021139998  2.6022469595640003
  1.7241179506409994  4.8029914206230000  1.7005263019990011
  2.6626163131200000  0.4161646087599997  2.6022517744919997
  6.1110080272249991 -0.4162422516750006  2.6022250420610007
