Si Ru
 1.0000000000000000
     4.0307430000000002    0.0000000000000000    0.0000000000000000
     0.0000000000000000    5.2418699999999996    0.0000000000000000
     0.0000000000000000    0.0000000000000000   17.3333230000000000
 Si  Ru 
  12  16
Cartesian
  3.0230572499999999  5.2349297641199994 10.4598457643190006
  1.0076857500000000  0.0069402358800000  6.8734772356809994
  3.0230572499999999  2.6139947641199996 15.5401387356809995
  1.0076857500000000  2.6278752358799999  1.7931842643190001
  3.0230572499999999  4.4617749065999996  0.5887263156950000
  1.0076857500000000  0.7800950933999999 16.7445966843049980
  3.0230572499999999  1.8408399065999999  8.0779351843049998
  1.0076857500000000  3.4010300933999993  9.2553878156950002
  3.0230572499999999  3.2340503245499996  5.3447301470499999
  1.0076857500000000  2.0078196754500000 11.9885928529499992
  3.0230572499999999  0.6131153245500000  3.3219313529499996
  1.0076857500000000  4.6287546754499997 14.0113916470500008
  3.0230572499999999  3.4358885288999996 13.2481187687449999
  1.0076857500000000  1.8059814711000000  4.0852042312550001
  3.0230572499999999  0.8149535288999999 12.7518657312550001
  1.0076857500000000  4.4269164710999993  4.5814572687450008
  3.0230572499999999  5.1919044951599993 15.4746707747099990
  1.0076857500000000  0.0499655048400000  1.8586522252900002
  3.0230572499999999  2.5709694951600000 10.5253137252900011
  1.0076857500000000  2.6709005048399996  6.8080092747099998
  3.0230572499999999  4.3274152947599998  8.1699751294350005
  1.0076857500000000  0.9144547052399999  9.1633478705649996
  3.0230572499999999  1.7064802947600000  0.4966863705650000
  1.0076857500000000  3.5353897052400001 16.8366366294349987
  3.0230572499999999  3.4457642119799998  2.8319356450630000
  1.0076857500000000  1.7961057880200000 14.5013873549370000
  3.0230572499999999  0.8248292119799999  5.8347258549370000
  1.0076857500000000  4.4170407880199996 11.4985971450630000
