Ru W 
 1.0000000000000000
     5.4714770000000001   -0.0000000000000000    0.0000000000000000
    -2.7357399999999998    4.7384389999999996    0.0000000000000000
     0.0000000000000000    0.0000000000000000    4.3541220000000003
 Ru  W  
   6   2
Cartesian
 -0.0000087061710000  1.5761801336429999  1.0885261458780000
  1.3707186389940000  3.9503513023979999  1.0885261458780000
 -1.3707266115170000  3.9503513023979999  1.0885261458780000
  2.7357374989600007  3.1622446510399995  3.2655915000000002
  1.3650183610060000  0.7880876976019999  3.2655915000000002
  4.1064636115169995  0.7880876976019999  3.2655915000000002
 -0.0000010000019998  3.1589656512520001  3.2655915000000002
  2.7357407357390002  1.5794780871869998  1.0885261458780000
