Li Be Pt
 1.0000000000000000
     0.0000000000000000    2.8570519999999999    2.8570519999999999
     2.8570519999999999    0.0000000000000000    2.8570519999999999
     2.8570519999999999    2.8570519999999999    0.0000000000000000
 Li  Be  Pt 
   1   1   2
Cartesian
  4.2855780000000001  4.2855780000000001  4.2855780000000001
  1.4285260000000000  1.4285260000000000  1.4285260000000000
  0.0000000000000000  0.0000000000000000  0.0000000000000000
  2.8570519999999999  2.8570519999999999  2.8570519999999999
