Sr Sc O 
 1.0000000000000000
     3.1947630000000000    0.0000000000000000    0.0000000000000000
     0.0000000000000000    9.7119900000000001    0.0000000000000000
     0.0000000000000000    0.0000000000000000   11.3199459999999998
 Sr  Sc  O  
   4   8  16
Cartesian
  2.3960722500000000  2.3814673559099999  7.3964640363459999
  0.7986907500000000  2.4745276440900001  1.7364910363460000
  2.3960722500000000  7.2374623559100000  9.5834549636539990
  0.7986907500000000  7.3305226440900002  3.9234819636539999
  2.3960722500000000  0.6832190725199999 10.0731671475599995
  2.3960722500000000  0.7611869282400000  4.4566627401999996
  0.7986907500000000  4.0948080717600002 10.1166357401999996
  0.7986907500000000  4.1727759274800000  4.4131941475599996
  2.3960722500000000  5.5392140725200001  6.9067518524400002
  2.3960722500000000  5.6171819282400000  1.2033102598000001
  0.7986907500000000  8.9508030717599993  6.8632832597999993
  0.7986907500000000  9.0287709274800001  1.2467788524400001
  0.7986907500000000  0.2041654537800000  3.2061935853639998
  2.3960722500000000  0.7207170659100000  0.8369402075100000
  0.7986907500000000  1.1358463664700000  5.8887151488219995
  0.7986907500000000  2.0209971350700000  9.5073056869119998
  2.3960722500000000  2.8349978649300005  3.8473326869119999
  2.3960722500000000  3.7201486335300005  0.2287421488220000
  0.7986907500000000  4.1352779340899994  6.4969132075099996
  2.3960722500000000  4.6518295462200001  8.8661665853640006
  0.7986907500000000  5.0601604537800000  2.4537794146359997
  2.3960722500000000  5.5767120659099998  4.8230327924900003
  0.7986907500000000  5.9918413664700001 11.0912038511779993
  0.7986907500000000  6.8769921350700001  7.4726133130880008
  2.3960722500000000  7.6909928649300001  1.8126403130880000
  2.3960722500000000  8.5761436335300001  5.4312308511780003
  0.7986907500000000  8.9912729340900004 10.4830057924899993
  2.3960722500000000  9.5078245462200002  8.1137524146360001
