Zn In Te
 1.0000000000000000
     5.6680330000000003    0.0000720000000000   -2.5355219999999998
    -1.1342760000000001    5.5534090000000003   -2.5354580000000002
     0.0147910000000000    0.0180280000000000    7.6361270000000001
 Zn  In  Te 
   1   2   4
Cartesian
  0.0000000000000000  0.0000000000000000  0.0000000000000000
  2.2668785000000002  2.7767405000000003 -2.5354900000000002
  0.5736967500000000  4.1740887500000001  1.2825894999999998
  1.8345074079620003  1.9362129358700000  0.1220937372380000
 -0.1907589370510000  3.3865879716000000  3.8787314124640000
  3.5593097253599999  0.7394852719140002  3.6516271618300000
  3.8940310014200001  5.0807373739530002 -2.5221583114680000
