Ca Sb Au
 1.0000000000000000
     4.6977750000000000    0.0000000000000000    0.0000000000000000
    -2.3488869999999999    4.0683920000000002    0.0000000000000000
     0.0000000000000000    0.0000000000000000    8.2504670000000004
 Ca  Sb  Au 
   2   2   2
Cartesian
  0.0000000000000000  0.0000000000000000  0.0000000000000000
  0.0000000000000000  0.0000000000000000  4.1252335000000002
 -0.0000020155540001  2.7122626894640001  6.1878502500000003
  2.3488900155539998  1.3561293105359999  2.0626167500000001
 -0.0000020155540001  2.7122626894640001  2.0626167500000001
  2.3488900155539998  1.3561293105359999  6.1878502500000003
