In Ag O 
 1.0000000000000000
     3.2880060000000002    0.0000000000000000    0.0000000000000000
    -1.6440030000000001    2.8474970000000002    0.0000000000000000
     0.0000000000000000    0.0000000000000000   12.6334199999999992
 In  Ag  O  
   2   2   4
Cartesian
  0.0000000000000000  0.0000000000000000  0.0000000000000000
  0.0000000000000000  0.0000000000000000  6.3167099999999996
  1.6440046440030001  0.9491647175010001  9.4750649999999990
 -0.0000016440030000  1.8983322824990001  3.1583549999999998
 -0.0000016440030000  1.8983322824990001  5.2398625460400003
  1.6440046440030001  0.9491647175010001 11.5565725460399982
 -0.0000016440030000  1.8983322824990001  1.0768474539599999
  1.6440046440030001  0.9491647175010001  7.3935574539599997
