Os F 
 1.0000000000000000
     4.9215049999999998   -0.0000260000000000    0.0002650000000000
    -0.0000470000000000    8.4653580000000002   -0.0001490000000000
     0.0005020000000000   -0.0001620000000000    9.2831519999999994
 Os  F  
   4  24
Cartesian
  2.8936429023599999  6.3488193619679993  8.1099912883899989
  0.4276814008090000  2.1165404772879999  5.8173008072269994
  2.0332288913870000  2.1160373518800002  1.1756813179609999
  4.4894162314279997  6.3489258098479997  3.4674615132100000
  1.2788389339800001  0.8148754089440000  0.0952625234780000
  3.7042154475319999  7.6491312418219994  4.5245152797779999
  3.6790465961109993  5.0484331256940003  9.1670175835409999
  1.1819495675819998  3.4178332537600000  4.7365461152939989
  2.9626581758419999  6.3486816980920002  2.3949895932879999
  0.5324264577300000  2.1158143714820001  2.2801470648539999
  1.9284999361580000  2.1162931770740001  6.9217610807679995
  4.4205310491529994  6.3488215452240002  7.0376188063349998
  0.3485398794340000  5.0488395394339998  2.4090842194900000
  2.7847987730439998  3.4171400695420004  2.2551066643779998
  4.5978120222670000  0.8153994760280000  6.8972902219789995
  2.1127177222000002  7.6489770283840004  7.0519069590839996
  4.5975711720890002  3.4173965703820000  6.8969752002510001
  2.1125894329879995  5.0486814784460003  7.0519063038199992
  0.3490028334640000  7.6490504333759999  2.4091220268719997
  2.7847492552729998  0.8149906002780001  2.2554216731529997
  1.0930992200720000  6.3492721524640006  4.5377003190319991
  3.5251968102349998  2.1162943737059998  0.0635750607010000
  3.8571818627490000  2.1167618658820002  4.7053731426849996
  1.3681228302780000  6.3487748782280002  9.1804422323960004
  3.7036835920389999  5.0488102989139998  4.5244589043190002
  1.2788933767719999  3.4172957680180001  0.0950403417200000
  1.1821805868880000  0.8152774429140001  4.7370282430619994
  3.6791650403239995  7.6491773394960001  9.1670275135299999
