Ni W 
 1.0000000000000000
     3.2212280000000000    0.0000000000000000    1.4123650000000001
     1.6106110000000000    4.0199340000000001    0.7061890000000000
    -0.0036030000000000   -0.0000070000000000    4.3877819999999996
 Ni  W  
   4   1
Cartesian
  0.9640097272220000  0.8103194120220000  2.1809059831959998
  2.8958355744779998  2.4096837063240000  2.1544895847680001
  1.9324004255219998  1.6102432936760001  4.3518464152320000
  3.8642262727780001  3.2096075879780002  4.3254300168039999
  0.0000000000000000  0.0000000000000000  0.0000000000000000
