Li In Pd
 1.0000000000000000
     3.8868090000000000    0.0000000000000000    2.2440509999999998
     1.2956030000000001    3.6645189999999999    2.2440509999999998
     0.0000000000000000    0.0000000000000000    4.4881010000000003
 Li  In  Pd 
   2   1   1
Cartesian
  2.5912060000000001  1.8322594999999999  4.4881015000000000
  1.2956030000000001  0.9161297500000000  2.2440507500000000
  3.8868090000000000  2.7483892499999998  6.7321522500000004
  0.0000000000000000  0.0000000000000000  0.0000000000000000
