Er Cu
 1.0000000000000000
     3.3997679999999999    0.0000000000000000    0.0000000000000000
     0.0000000000000000    3.3997679999999999    0.0000000000000000
     0.0000000000000000    0.0000000000000000    3.3997679999999999
 Er  Cu 
   1   1
Cartesian
  1.6998840000000000  1.6998840000000000  1.6998840000000000
  0.0000000000000000  0.0000000000000000  0.0000000000000000
