Pr Al
 1.0000000000000000
     4.9383439999999998    0.0000000000000000    2.8511549999999999
     1.6461150000000000    4.6559140000000001    2.8511549999999999
     0.0000000000000000    0.0000000000000000    5.7023089999999996
 Pr  Al 
   2   4
Cartesian
  0.8230573750000000  0.5819892500000000  1.4255773750000000
  5.7614016249999995  4.0739247499999998  9.9790416250000007
  2.4691719999999999  0.0000000000000000  4.2767320000000000
  0.8230575000000000  2.3279570000000001  4.2767320000000000
  3.2922294999999999  2.3279570000000001  5.7023095000000001
  3.2922294999999999  2.3279570000000001  2.8511549999999999
