Li Cd Pd
 1.0000000000000000
     0.0000000000000000    3.1416650000000002    3.1416650000000002
     3.1416650000000002    0.0000000000000000    3.1416650000000002
     3.1416650000000002    3.1416650000000002    0.0000000000000000
 Li  Cd  Pd 
   1   1   2
Cartesian
  4.7124912166700001  4.7124912166700001  4.7124912166700001
  1.5708325000000001  1.5708325000000001  1.5708325000000001
  0.0000000000000000  0.0000000000000000  0.0000000000000000
  3.1416587166700003  3.1416587166700003  3.1416587166700003
