Zr Co Sn
 1.0000000000000000
     7.1135000000000002   -0.0000000000000000    0.0000000000000000
    -3.5567510000000002    6.1604729999999996    0.0000000000000000
     0.0000000000000000    0.0000000000000000    3.6089270000000000
 Zr  Co  Sn 
   3   3   3
Cartesian
  1.4066693322569999  2.4364239481889998  1.8044635000000000
 -2.1500808767570003  3.7240490518109999  1.8044635000000000
  4.3001605445000006  0.0000000000000000  1.8044635000000000
  0.0000000000000000  0.0000000000000000  1.8044635000000000
 -0.0000042234170003  4.1069840534909998  0.0000000000000000
  3.5567532234170001  2.0534889465089998  0.0000000000000000
 -0.9416284867440000  1.6309482639119999  0.0000000000000000
  1.8832564439999999  0.0000000000000000  0.0000000000000000
  2.6151210427440001  4.5295247360879998  0.0000000000000000
