Lu Ti Ga
 1.0000000000000000
    -3.3245900000000002    3.3245900000000002   -2.7135669999999998
     3.3245900000000002   -3.3245900000000002   -2.7135669999999998
    -3.3245900000000002   -3.3245900000000002    2.7135669999999998
 Lu  Ti  Ga 
   1   2   4
Cartesian
  0.0000000000000000  0.0000000000000000  0.0000000000000000
 -3.3245899999999997 -0.0000000000000002 -1.3567834999999999
  0.0000000000000000 -3.3245900000000002 -1.3567834999999999
 -1.3113712271400000 -1.3113712271400002 -2.7135670000000003
 -2.0132187728600002 -2.0132187728600002  0.0000000000000000
  1.3113712271400002 -1.3113712271400002 -2.7135669999999998
 -1.3113712271400000  1.3113712271400000 -2.7135670000000003
