Li Sn
 1.0000000000000000
     4.6969719999999997    0.0000000000000000    0.0000000000000000
    -2.3484850000000002    4.0676959999999998    0.0000000000000000
     0.0000000000000000    0.0000000000000000   17.1105480000000014
 Li  Sn 
  13   5
Cartesian
  0.0000000000000000  0.0000000000000000  8.5552740000000007
  0.0000000000000000  0.0000000000000000  5.6033451484920009
  0.0000000000000000  0.0000000000000000 11.5072028515080014
  0.0000000000000000  0.0000000000000000  2.7929376394920005
  0.0000000000000000  0.0000000000000000 14.3176103605080023
  2.3484886818190001  1.3558973107679999  0.9124028615520001
 -0.0000016818190002  2.7117986892319998 16.1981451384480017
  2.3484886818190001  1.3558973107679999  9.4786447228200021
 -0.0000016818190002  2.7117986892319998  7.6319032771800011
  2.3484886818190001  1.3558973107679999 12.2723694475200009
 -0.0000016818190002  2.7117986892319998  4.8381785524800005
  2.3484886818190001  1.3558973107679999 15.2169065422920013
 -0.0000016818190002  2.7117986892319998  1.8936414577080003
  0.0000000000000000  0.0000000000000000  0.0000000000000000
  2.3484886818190001  1.3558973107679999  3.7913210047440002
 -0.0000016818190002  2.7117986892319998 13.3192269952560007
  2.3484886818190001  1.3558973107679999  6.7024583098199999
 -0.0000016818190002  2.7117986892319998 10.4080896901800006
