Ge H  Cl
 1.0000000000000000
     4.5862579999999999   -0.0233290000000000    0.0000000000000000
    -1.1509959999999999    4.4395420000000003    0.0000000000000000
     0.0000000000000000    0.0000000000000000    8.3573629999999994
 Ge  H   Cl 
   2   6   2
Cartesian
  1.9187312374800003  2.4666316090200002  7.9512787318299996
  1.5165307625200002  1.9495813909800002  3.7725972318299994
  0.3171234548699999  2.4798639749930005  4.5306518427449998
  3.1181385451299999  1.9363490250070001  0.3519703427450000
  1.1096521393180001  3.4987019789450002  0.3519703427450000
  2.3256098606820004  0.9175110210550000  4.5306518427449998
  2.3462083702359999  3.0161763223140001  3.0872433216519997
  1.0890536297640001  1.4000366776860003  7.2659248216519989
  2.8100511865239999  3.6124710664260005  6.2857482169230003
  0.6252108134759999  0.8037419335740000  2.1070667169229997
