Li Mg Sn Pd
 1.0000000000000000
     0.0000000000000000    3.2610709999999998    3.2610709999999998
     3.2610709999999998    0.0000000000000000    3.2610709999999998
     3.2610709999999998    3.2610709999999998    0.0000000000000000
 Li  Mg  Sn  Pd 
   1   1   1   1
Cartesian
  4.8916065000000000  4.8916065000000000  4.8916065000000000
  3.2610709999999998  3.2610709999999998  3.2610709999999998
  0.0000000000000000  0.0000000000000000  0.0000000000000000
  1.6305354999999999  1.6305354999999999  1.6305354999999999
