Ba As Pt
 1.0000000000000000
     6.7804159999999998    0.0000000000000000    0.0000000000000000
     0.0000000000000000    6.7804159999999998    0.0000000000000000
     0.0000000000000000    0.0000000000000000    6.7804159999999998
 Ba  As  Pt 
   4   4   4
Cartesian
  4.1506316543999997  2.6297843455999996  6.0199923456000004
  2.6297843455999996  6.0199923456000004  4.1506316543999997
  0.7604236543999999  0.7604236543999999  0.7604236543999999
  6.0199923456000004  4.1506316543999997  2.6297843455999996
  1.1497687019520000  2.2404392980479999  4.5399767019519999
  4.5399767019519999  1.1497687019520000  2.2404392980479999
  2.2404392980479999  4.5399767019519999  1.1497687019520000
  5.6306472980480002  5.6306472980480002  5.6306472980480002
  4.0454538414079995  6.1251701585919998  0.6552458414080000
  0.6552458414080000  4.0454538414079995  6.1251701585919998
  2.7349621585919999  2.7349621585919999  2.7349621585919999
  6.1251701585919998  0.6552458414080000  4.0454538414079995
