Pr Al Si
 1.0000000000000000
     4.1558780000000004    0.0000000000000000    0.0000000000000000
    -2.0779399999999999    3.5990970000000000    0.0000000000000000
     0.0000000000000000    0.0000000000000000   11.2996210000000001
 Pr  Al  Si 
   2   2   4
Cartesian
  0.0000000000000000  0.0000000000000000  2.0540790042429999
  0.0000000000000000  0.0000000000000000  9.2455419957569998
  2.0779407446060003  1.1996978003009999  4.7260212847660004
 -0.0000027446059998  2.3993991996989998  6.5735997152339998
  2.0779407446060003  1.1996978003009999  7.2633737795580000
 -0.0000027446059998  2.3993991996989998 11.2439477673329993
  2.0779407446060003  1.1996978003009999  0.0556732326670000
 -0.0000027446059998  2.3993991996989998  4.0362472204420001
