Mg Si N 
 1.0000000000000000
     4.9846240000000002    0.0000000000000000    0.0000000000000000
     0.0000000000000000    5.2693519999999996    0.0000000000000000
     0.0000000000000000    0.0000000000000000    6.4610659999999998
 Mg  Si  N  
   4   4   8
Cartesian
  4.9209055514080005  3.0738185263280000  5.6666327078379997
  2.4285935514079999  4.8302094736719994  2.4360997078380002
  2.4285935514079999  2.1955334736720000  0.7944332921620000
  4.9209055514080005  0.4391425263279999  4.0249662921619995
  0.0021533575680000  0.3690285286159999  0.8105471907660000
  2.4944653575680000  4.9003234713839996  5.6505188092339997
  2.4944653575680000  2.2656474713839998  4.0410801907659994
  0.0021533575680000  3.0037045286159998  2.4199858092339999
  2.0492437265120000  3.2116436972400000  5.4530686322739994
  4.5415557265119997  2.0577083027599996  1.0079973677260001
  4.5415557265119997  4.6923843027599998  2.2225356322740000
  2.0492437265120000  0.5769676972400000  4.2385303677259998
  1.7309555456160000  2.8894755159600001  2.6171581603559999
  1.7309555456160000  0.2547995159600000  0.6133683785780000
  4.2232675456160003  5.0145524840399993  5.8476911603559998
  4.2232675456160003  2.3798764840400000  3.8439078396439994
