Cs Pt
 1.0000000000000000
     5.8071450000000002    0.0000000000000000    0.0000000000000000
    -2.9035720000000000    5.0291350000000001    0.0000000000000000
     0.0000000000000000    0.0000000000000000    7.8972889999999998
 Cs  Pt 
   4   2
Cartesian
  2.9035755702390000  1.6763766569550000  1.9743222499999999
 -0.0000025702390000  3.3527583430450001  5.9229667499999996
  0.0000000000000000  0.0000000000000000  0.0000000000000000
  0.0000000000000000  0.0000000000000000  3.9486444999999999
  2.9035755702390000  1.6763766569550000  5.9229667499999996
 -0.0000025702390000  3.3527583430450001  1.9743222499999999
