Li Ga Rh
 1.0000000000000000
    -0.0000020000000000    2.9482240000000002    2.9482240000000002
     2.9482210000000002   -0.0000010000000000    2.9482230000000000
     2.9482140000000001    2.9482159999999999    0.0000050000000000
 Li  Ga  Rh 
   1   1   2
Cartesian
  4.4223188535669999  4.4223233535610005  4.4223331035479996
  1.4741082500020002  1.4741068017760000  1.4741100517760000
  0.0000000000000000  0.0000000000000000  0.0000000000000000
  2.9482106035670004  2.9482136035610003  2.9482201035480005
