Ti Tc
 1.0000000000000000
     3.1087620000000000    0.0000000000000000    0.0000000000000000
     0.0000000000000000    3.1087620000000000    0.0000000000000000
     0.0000000000000000    0.0000000000000000    3.1087620000000000
 Ti  Tc 
   1   1
Cartesian
  1.5543810000000000  1.5543810000000000  1.5543810000000000
  0.0000000000000000  0.0000000000000000  0.0000000000000000
