Ca Ti Si O 
 1.0000000000000000
     8.7727450000000005    0.0000000000000000    0.0000000000000000
     0.0000000000000000    6.6646280000000004    0.0000000000000000
     0.0000000000000000    2.9196460000000002    6.5183520000000001
 Ca  Ti  Si  O  
   4   4   4  20
Cartesian
  8.0843213816150001  2.4091377412960004  1.6532756911680002
  5.0747961183850006  3.8689607412960005  4.9124516911680001
  3.6979488816149999  5.7153132587040014  1.6059003088320001
  0.6884236183850000  7.1751362587040006  4.8650763088320002
  2.2113546048949999  3.1480301660980001  3.3051760100639997
  6.5613903951049997  6.4362438339020001  3.2131759899360004
  2.1750178951050003  1.6882071660980003  0.0460000100640000
  6.5977271048950010  7.8960668339020001  6.4723519899360005
  0.6104251425900000  5.7284966525940000  1.6233108270240000
  4.9967976425900007  2.3959543474060001  1.6358651729760001
  8.1623198574100009  3.8557773474060006  4.8950411729760006
  3.7759473574100002  7.1883196525940001  4.8824868270239996
  4.0642285308549999  1.3454654569360001  0.7594792649280001
  8.4506010308550010  6.7789855430640005  2.4996967350719999
  4.7085164691450005  8.2388085430640015  5.7588727350719999
  0.3221439691450000  2.8052884569360002  4.0186552649280003
  0.3192665087850000  4.9096355464080004  5.7677898406080006
  4.7056390087850000  6.1344614535920003  4.0097381593919996
  8.4534784912149998  4.6746384535920003  0.7505621593920000
  4.0671059912150005  3.4498125464080003  2.5086138406080001
  2.7475360065500003  7.9689010987320001  3.8567654746560005
  7.1339085065500001  3.0751959012680001  5.9207625253440002
  6.0252089934500006  1.6153729012680003  2.6615865253440001
  1.6388364934500002  6.5090780987320001  0.5975894746560000
  2.8000935218450000  3.8541340186960000  4.8878905408320001
  7.1864660218450007  7.1899629813040002  4.8896374591680001
  5.9726514781550000  5.7301399813040002  1.6304614591680002
  1.5862789781550002  2.3943110186959999  1.6287145408320001
  2.7501239663250003  6.4075652056540005  5.9107829284319999
  7.1364964663250001  4.6365317943460003  3.8667450715679998
  6.0226210336750006  3.1767087943460006  0.6075690715680000
  1.6362485336749999  4.9477422056540004  2.6516069284320003
