Li Au
 1.0000000000000000
     4.0753259999999996    0.0000000000000000    0.0000000000000000
     0.0000000000000000    4.0753259999999996    0.0000000000000000
     0.0000000000000000    0.0000000000000000    4.0753259999999996
 Li  Au 
   1   3
Cartesian
  0.0000000000000000  0.0000000000000000  0.0000000000000000
  2.0376629999999998  2.0376629999999998  0.0000000000000000
  2.0376629999999998  0.0000000000000000  2.0376629999999998
  0.0000000000000000  2.0376629999999998  2.0376629999999998
