Na Al Si Cl O 
 1.0000000000000000
     8.8665920000000007    0.0000000000000000    0.0000000000000000
     0.0000000000000000    8.8665920000000007    0.0000000000000000
     0.0000000000000000    0.0000000000000000    8.8665920000000007
 Na  Al  Si  Cl  O  
   8   6   6   2  24
Cartesian
  2.8551046901440000  2.8551046901440000  6.0114873098560002
  6.0114873098560002  2.8551046901440000  2.8551046901440000
  6.0114873098560002  6.0114873098560002  6.0114873098560002
  1.5781913098560003  1.5781913098560003  1.5781913098560003
  1.5781913098560003  7.2884006901440008  7.2884006901440008
  7.2884006901440008  7.2884006901440008  1.5781913098560003
  2.8551046901440000  6.0114873098560002  2.8551046901440000
  7.2884006901440008  1.5781913098560003  7.2884006901440008
  4.4332960000000003  6.6499440000000005  0.0000000000000000
  2.2166480000000002  0.0000000000000000  4.4332960000000003
  0.0000000000000000  4.4332960000000003  2.2166480000000002
  4.4332960000000003  2.2166480000000002  0.0000000000000000
  0.0000000000000000  4.4332960000000003  6.6499440000000005
  6.6499440000000005  0.0000000000000000  4.4332960000000003
  4.4332960000000003  0.0000000000000000  2.2166480000000002
  0.0000000000000000  2.2166480000000002  4.4332960000000003
  2.2166480000000002  4.4332960000000003  0.0000000000000000
  0.0000000000000000  6.6499440000000005  4.4332960000000003
  4.4332960000000003  0.0000000000000000  6.6499440000000005
  6.6499440000000005  4.4332960000000003  0.0000000000000000
  4.4332960000000003  4.4332960000000003  4.4332960000000003
  0.0000000000000000  0.0000000000000000  0.0000000000000000
  3.2023292994560002  0.5675062209600001  5.7539748784000011
  7.6356252994560014  7.5459131215999999  3.8657897790400004
  5.7539748784000011  3.2023292994560002  0.5675062209600001
  3.8657897790400004  1.2309667005440001  1.3206788784000001
  1.2309667005440001  7.5459131215999999  5.0008022209599998
  0.5675062209600001  3.1126171216000000  5.6642627005439996
  5.6642627005439996  8.2990857790400003  5.7539748784000011
  1.2309667005440001  1.3206788784000001  3.8657897790400004
  5.0008022209599998  7.6356252994560014  1.3206788784000001
  5.7539748784000011  5.6642627005439996  8.2990857790400003
  3.2023292994560002  8.2990857790400003  3.1126171216000000
  1.3206788784000001  5.0008022209599998  7.6356252994560014
  3.1126171216000000  5.6642627005439996  0.5675062209600001
  1.3206788784000001  3.8657897790400004  1.2309667005440001
  0.5675062209600001  5.7539748784000011  3.2023292994560002
  5.0008022209599998  1.2309667005440001  7.5459131215999999
  8.2990857790400003  5.7539748784000011  5.6642627005439996
  7.6356252994560014  1.3206788784000001  5.0008022209599998
  7.5459131215999999  3.8657897790400004  7.6356252994560014
  8.2990857790400003  3.1126171216000000  3.2023292994560002
  7.5459131215999999  5.0008022209599998  1.2309667005440001
  3.1126171216000000  3.2023292994560002  8.2990857790400003
  5.6642627005439996  0.5675062209600001  3.1126171216000000
  3.8657897790400004  7.6356252994560014  7.5459131215999999
