Al Ag S 
 1.0000000000000000
     5.1302599999999998    0.0000000000000000   -2.4897520000000002
    -1.2082940000000000    4.9859400000000003   -2.4897510000000000
     0.0280600000000000    0.0356710000000000    6.5882759999999996
 Al  Ag  S  
   2   2   4
Cartesian
  1.9609829999999999  2.4929700000000001 -2.4897515000000001
  3.5596514999999997  1.2643205000000000  0.8043862499999999
  0.3903745000000000  3.7572905000000003  0.8043867499999995
  0.0000000000000000  0.0000000000000000  0.0000000000000000
  3.2073656542599993  4.3716152500000005 -2.5977107995519999
  3.0219278988939999  0.8748566580600000  2.9616078446509997
  1.7091218457399999  1.8786452500000002 -0.3325299504480002
 -0.0383633988940000  2.9181048419400004  3.1861789053489997
