Li Nb S 
 1.0000000000000000
     3.3795109999999999    0.0000000000000000    0.0000000000000000
    -1.6897560000000000    2.9267430000000001    0.0000000000000000
     0.0000000000000000    0.0000000000000000   12.8827210000000001
 Li  Nb  S  
   2   2   4
Cartesian
  0.0000000000000000  0.0000000000000000  0.0000000000000000
  0.0000000000000000  0.0000000000000000  6.4413605000000000
  0.0000000000000000  0.0000000000000000  3.2206802500000000
  0.0000000000000000  0.0000000000000000  9.6620407499999992
 -0.0000020230890000  1.9511629755810000  1.6397900252060000
 -0.0000020230890000  1.9511629755810000  4.8015704747939996
  1.6897570230890000  0.9755800244190000  8.0811505252060005
  1.6897570230890000  0.9755800244190000 11.2429309747939996
