Pr Sb Os
 1.0000000000000000
     7.6479980000000003    0.0000000000000000   -2.7039759999999999
    -3.8239990000000001    6.6233599999999999   -2.7039749999999998
    -0.0000010000000000   -0.0000010000000000    8.1119280000000007
 Pr  Sb  Os 
   1  12   4
Cartesian
  0.0000000000000000  0.0000000000000000  0.0000000000000000
  0.6237394648090002  5.5831738986410002  1.7150057328800006
 -1.8248356067150002  5.5831742187990008 -0.0163906595600000
  5.6488336067149998  1.0401847812010001  2.7203676595599999
 -0.0987552711429999  2.2514186575919997  2.6875767254810006
  0.6993060120800000  3.2916044387930001 -0.9889760210549998
  3.2002585351910007  1.0401851013590000  0.9889712671200002
 -1.3230471111419999  4.3719400283130003  4.4189869579590013
  1.9004119400769999  1.2112262469669999  5.4243545012880006
  3.9227532711430007  4.3719403424080001  0.0164002745190004
  1.9235860599229999  5.4121327530329992 -2.7203775012879996
  5.1470451111419999  2.2514189716869999 -1.7150099579589992
  3.1246919879199999  3.3317545612070001  3.6929530210550006
 -0.0000005000000000 -0.0000005000000000  4.0559640000000003
 -1.9119995000000001  3.3116800000000000 -1.3519874999999999
  1.9119990000000000  3.3116794999999999  1.3519885000000005
  3.8239990000000001  0.0000000000000000 -1.3519880000000000
