Gd As
 1.0000000000000000
     3.6061369999999999    0.0000000000000000    2.0820050000000001
     1.2020459999999999    3.3999000000000001    2.0820050000000001
     0.0000000000000000    0.0000000000000000    4.1640090000000001
 Gd  As 
   1   1
Cartesian
  2.4040914999999998  1.6999500000000001  4.1640095000000006
  0.0000000000000000  0.0000000000000000  0.0000000000000000
