Fe Re
 1.0000000000000000
     6.4295609999999996    0.0000000000000000    0.0000000000000000
     0.0000000000000000    6.4295609999999996    0.0000000000000000
     0.0000000000000000    0.0000000000000000    6.4295609999999996
 Fe  Re 
   8  12
Cartesian
  2.8357064425619996  6.0504869425620003  3.5938545574379996
  1.9864643074380000  1.2283161925619999  5.2012448074379991
  4.4430966925620003  4.4430966925620003  4.4430966925620003
  3.5938545574379996  2.8357064425619996  6.0504869425620003
  5.2012448074379991  1.9864643074380000  1.2283161925619999
  0.3790740574380000  0.3790740574380000  0.3790740574380000
  6.0504869425620003  3.5938545574379996  2.8357064425619996
  1.2283161925619999  5.2012448074379991  1.9864643074380000
  0.3361245899580000  5.6258658749999997  4.4860461600419992
  4.4860461600419992  0.3361245899580000  5.6258658749999997
  0.8036951250000000  1.2712656600420000  2.8786559100419997
  5.1582953399580003  6.0934364100419991  2.4110853749999999
  2.4110853749999999  5.1582953399580003  6.0934364100419991
  3.5509050899579999  4.0184756249999998  1.9435148399579998
  1.2712656600420000  2.8786559100419997  0.8036951250000000
  6.0934364100419991  2.4110853749999999  5.1582953399580003
  1.9435148399579998  3.5509050899579999  4.0184756249999998
  2.8786559100419997  0.8036951250000000  1.2712656600420000
  5.6258658749999997  4.4860461600419992  0.3361245899580000
  4.0184756249999998  1.9435148399579998  3.5509050899579999
