Ce Fe P 
 1.0000000000000000
     4.4934979999999998   -7.7825210000000000    0.0000010000000000
     4.4933709999999998    7.7826700000000004    0.0000000000000000
     0.0000000000000000   -0.0000000000000000    3.7356929999999999
 Ce  Fe  P  
   2  12   7
Cartesian
  8.9866892618580003  0.0002423881660003  0.0000009999740000
  4.4934447862529998  2.5944104930420000  1.8678468333280001
  2.1681885800570000  2.3755487031830000  0.0000000886470000
  5.4661886331539993  4.7172774131140001  0.0000003051860000
  5.8458672780009993  0.6902652746200008  0.0000006061500000
  6.4239035844469994 -1.6219653954299997  0.0000008190200000
  4.3701644436780001 -4.7519959219199999  3.7356937915800001
  2.6862854931590001 -1.4086052477610000  3.7356933894109998
  3.6476256599990000  5.5902365643470002  1.8678465467429999
  7.5110529190799991  1.8288399092050001  1.8678472182949999
  2.3214895245719998  0.3639137423570001  1.8678467349429999
  5.8861131292549995 -3.4897738843249999  1.8678473791749999
  3.0215160626569997 -3.3526998284820002  1.8678470516120000
  4.5729310295180001 -0.9403574571239998  1.8678470692639999
  3.2397933312449996  4.3940137436970002  3.7356930782130000
  6.6790408248199995  2.7801705887050008  0.0000005645950000
  3.5616574755049997  0.6087280629160006  0.0000003572140000
  6.7861715330929995 -0.3087864850360003  1.8678472749660000
  5.3261101075999999 -5.7220416888130003  1.8678474602730000
  1.3677932851119998 -1.7514270920610000  1.8678467647210000
  4.4935365503079998 -2.5943470997299998  0.0000006666900000
