Sb I 
 1.0000000000000000
     6.7955340000000000    0.0694150000000000    4.8630279999999999
     2.5375700000000001    6.3044479999999998    4.8629020000000001
     0.1017270000000000    0.0696390000000000    8.3557129999999997
 Sb  I  
   2   6
Cartesian
  1.5816645036710002  1.0801951187820003  3.0312247141630002
  7.8531664963289991  5.3633068812179996 15.0504182858369990
  3.1148168764529998  0.5244566167479999  8.7418377869090005
  6.2428131649130005  2.7104666630380003  6.3306813866129996
  2.4493344731470001  4.8286233235599996  7.5552647544670002
  6.3200141235469998  5.9190453832520005  9.3398052130910010
  3.1920178350870003  3.7330353369620002 11.7509616133870001
  6.9854965268530007  1.6148786764400000 10.5263782455329995
