Sc Ir
 1.0000000000000000
     3.9489600000000000    0.0000000000000000    0.0000000000000000
     0.0000000000000000    3.9489600000000000    0.0000000000000000
     0.0000000000000000    0.0000000000000000    3.9489600000000000
 Sc  Ir 
   1   3
Cartesian
  0.0000000000000000  0.0000000000000000  0.0000000000000000
  0.0000000000000000  1.9744800000000000  1.9744800000000000
  1.9744800000000000  1.9744800000000000  0.0000000000000000
  1.9744800000000000  0.0000000000000000  1.9744800000000000
