Ce Si
 1.0000000000000000
     3.9636429999999998    0.0000010000000000    0.0000110000000000
     0.0000010000000000    5.9654119999999997    0.0001730000000000
     0.0000380000000000   -0.0000460000000000    8.2712800000000009
 Ce  Si 
   4   4
Cartesian
  0.9909369653629999  2.2976488256719998  5.6224057936510006
  2.9727450347130002  3.6677181742359997  2.6490747489090003
  2.9727643020540002  5.2804025541859989  6.7841080871280015
  0.9909176980020000  0.6850718231840001  1.4873641872660002
  0.9909319003160000  5.2799976721019988  4.4111881409380000
  2.9727500994120000  0.6853335357480000  3.8602179590640002
  2.9727693694010000  2.2974929561299997  7.9958468142190009
  0.9909086669419999  3.6677905281009999  0.2756171833480000
