Nd B  Rh
 1.0000000000000000
     5.4425920000000003    0.0000000000000000    0.0000000000000000
    -2.7212960000000002    4.7134219999999996    0.0000000000000000
     0.0000000000000000    0.0000000000000000    3.1501340000000000
 Nd  B   Rh 
   1   2   3
Cartesian
  0.0000000000000000  0.0000000000000000  0.0000000000000000
  2.7212987212960003  1.5711390955259998  0.0000000000000000
 -0.0000027212960002  3.1422829044739999  0.0000000000000000
  2.7212960000000002  0.0000000000000000  1.5750670000000000
 -1.3606480000000001  2.3567109999999998  1.5750670000000000
  1.3606480000000001  2.3567109999999998  1.5750670000000000
