Nb B 
 1.0000000000000000
     3.1110940000000000    0.0000000000000000    0.0000000000000000
    -1.5555479999999999    2.6942860000000000    0.0000000000000000
     0.0000000000000000    0.0000000000000000    3.3452060000000001
 Nb  B  
   1   2
Cartesian
  0.0000000000000000  0.0000000000000000  0.0000000000000000
 -0.0000022222140000  1.7961915647619999  1.6726030000000001
  1.5555482222140000  0.8980944352379999  1.6726030000000001
