Nb Fe Sb
 1.0000000000000000
     3.6383150000000000    0.0000000000000000    2.1005820000000002
     1.2127710000000000    3.4302359999999998    2.1005820000000002
     0.0000000000000000    0.0000000000000000    4.2011640000000003
 Nb  Fe  Sb 
   1   1   1
Cartesian
  0.0000000000000000  0.0000000000000000  0.0000000000000000
  1.2127715000000001  0.8575590000000000  2.1005820000000002
  2.4255430000000002  1.7151179999999999  4.2011640000000003
