Ti Ni Mo
 1.0000000000000000
    -0.0000010000000000    3.0656490000000001    3.0656469999999998
     3.0656450000000000    0.0000000000000000    3.0656460000000001
     3.0656450000000000    3.0656460000000001    0.0000020000000000
 Ti  Ni  Mo 
   2   1   1
Cartesian
  0.0000000000000000  0.0000000000000000  0.0000000000000000
  3.0656444999999999  3.0656474999999999  3.0656474999999999
  4.5984728812890001  4.5984773812949999  4.5984773812949999
  1.5328283812889998  1.5328298812949999  1.5328298812949999
