Ir W 
 1.0000000000000000
     5.5546350000000002    0.0000000000000000    0.0000000000000000
    -2.7773170000000000    4.8104550000000001    0.0000000000000000
     0.0000000000000000    0.0000000000000000    4.4314000000000000
 Ir  W  
   6   2
Cartesian
  1.3911976350140003  4.0101780852899997  3.3235500000000000
  1.3861203649860001  0.8002769147100001  1.1078500000000000
  4.1685148013759994  0.8002769147100001  1.1078500000000000
  0.0000001663620001  1.6005538294200001  3.3235500000000000
 -1.3911968013759999  4.0101780852899997  3.3235500000000000
  2.7773178336380000  3.2099011705799998  1.1078500000000000
  2.7773204439839998  1.6034833965149999  3.3235500000000000
 -0.0000024439840000  3.2069716034850000  1.1078500000000000
