Li C  O 
 1.0000000000000000
     4.5219980000000000   -0.0067440000000000    1.6950160000000001
     1.7980740000000000    4.1491499999999997    1.6950160000000001
    -0.0368840000000000   -0.0241760000000000    6.0761570000000003
 Li  C   O  
   4   2   6
Cartesian
  4.2496924720460001  3.1028773424259999  3.3488333592980002
  1.7608290461500000  1.4715852052479996  3.0792771407020001
  2.0334955279539999  1.0153526575740000  6.1173556407019998
  4.5223589538499995  2.6466447947519995  6.3869118592980003
  1.9507238731040000  3.8559144407759995  6.2521337500000005
  4.3324641268959994  0.2623155592240000  3.2140552499999999
  2.6507614454080000  2.7878663063519995  6.2521337500000005
  3.6324265545919996  1.3303636936479999  3.2140552500000004
  0.7296992523920001  0.8641731593700001  4.6666652790049996
  5.1811926764639997  3.7818444065939998  7.8376022209950005
  5.5534887476080002  3.2540568406299997  4.7995237209950004
  1.1019953235360000  0.3363855934060000  1.6285867790050002
