Cs Sm O 
 1.0000000000000000
     3.6264639999999999    0.0000000000000000    0.0000000000000000
    -1.8132320000000000    3.1406079999999998    0.0000000000000000
     0.0000000000000000    0.0000000000000000   13.7493010000000009
 Cs  Sm  O  
   2   2   4
Cartesian
 -0.0000018132320002  2.0937397135359999 10.3119757500000002
  1.8132338132319998  1.0468682864640000  3.4373252500000002
  0.0000000000000000  0.0000000000000000  6.8746505000000004
  0.0000000000000000  0.0000000000000000  0.0000000000000000
 -0.0000018132320002  2.0937397135359999  1.1596435449420002
  1.8132338132319998  1.0468682864640000  8.0342802956410004
 -0.0000018132320002  2.0937397135359999  5.7150207043590004
  1.8132338132319998  1.0468682864640000 12.5896712043590000
