Al Cu
 1.0000000000000000
     6.9303160000000004    0.0000000000000000   -9.9487509999999997
     0.0000000000000000    4.1074060000000001    0.0000000000000000
    -0.0094770000000000    0.0000000000000000    9.9428280000000004
 Al  Cu 
  10  10
Cartesian
 -0.0047385000000000  0.0000000000000000  4.9714140000000002
  2.1099578668220005  0.0000000000000000  1.5502883239240000
  4.8108811331780004  0.0000000000000000 -1.5562113239239987
  0.7993599439860001  2.0537030000000001  8.7311301462149995
  6.1214790560140004  2.0537030000000001 -8.7370531462150005
  3.4604195000000000  2.0537030000000001 -0.0029614999999996
  5.5751158668220002  2.0537030000000001 -3.4240871760759992
  1.3457231331780000  2.0537030000000001  3.4181641760760004
  4.2645179439860001  0.0000000000000000  3.7567546462150005
  2.6563210560140003  0.0000000000000000 -3.7626776462150002
  0.0000000000000000  0.0000000000000000  0.0000000000000000
  6.8046031408420005  0.0000000000000000 -7.3826302836909985
  0.1162358591580000  0.0000000000000000  7.3767072836910001
  4.5843734069790001  0.0000000000000000  1.0751012393940007
  2.3364655930210003  0.0000000000000000 -1.0810242393939999
  3.4651580000000002  2.0537030000000001 -4.9743754999999998
  3.3394451408419998  2.0537030000000001 -2.4082547836909991
  3.5813938591580006  2.0537030000000001  2.4023317836910003
  1.1192154069790001  2.0537030000000001  6.0494767393940005
  5.8016235930210005  2.0537030000000001 -6.0553997393939998
