La Cd
 1.0000000000000000
     3.9322819999999998    0.0000000000000000    0.0000000000000000
     0.0000000000000000    3.9322819999999998    0.0000000000000000
     0.0000000000000000    0.0000000000000000    3.9322819999999998
 La  Cd 
   1   1
Cartesian
  1.9661409999999999  1.9661409999999999  1.9661409999999999
  0.0000000000000000  0.0000000000000000  0.0000000000000000
