Ti Sb
 1.0000000000000000
     5.2194399999999996    0.0000000000000000    0.0000000000000000
     0.0000000000000000    5.2194399999999996    0.0000000000000000
     0.0000000000000000    0.0000000000000000    5.2194399999999996
 Ti  Sb 
   6   2
Cartesian
  2.6097199999999998  1.3048599999999999  0.0000000000000000
  2.6097199999999998  3.9145799999999999  0.0000000000000000
  1.3048599999999999  0.0000000000000000  2.6097199999999998
  3.9145799999999999  0.0000000000000000  2.6097199999999998
  0.0000000000000000  2.6097199999999998  1.3048599999999999
  0.0000000000000000  2.6097199999999998  3.9145799999999999
  2.6097199999999998  2.6097199999999998  2.6097199999999998
  0.0000000000000000  0.0000000000000000  0.0000000000000000
