Zr Cu
 1.0000000000000000
     3.1050759999999999    0.0000000000000000   -0.8588800000000000
    -0.2375700000000000    3.0959750000000001   -0.8588800000000000
    -0.0018700000000000   -0.0020180000000000    6.0355090000000002
 Zr  Cu 
   2   1
Cartesian
  0.9916477041439999  1.0706580812500002  3.5850761317100002
  1.8739882958560001  2.0232989187500001  0.7326728682900001
  0.0000000000000000  0.0000000000000000  0.0000000000000000
