Al Si Te
 1.0000000000000000
     6.8893149999999999   -0.0000090000000000    0.0000000000000000
    -3.4446490000000001    5.9663279999999999    0.0000000000000000
     0.0000000000000000    0.0000000000000000    7.4172630000000002
 Al  Si  Te 
   2   2   6
Cartesian
  3.4446637779880001  1.9887680112210000  3.7092322983030002
  0.0000022220119998  3.9775509887789999  3.7080307016970000
  0.0000000000000000  0.0000000000000000  2.5678638678629997
  0.0000000000000000  0.0000000000000000  4.8493991321370000
 -2.2263593188140001  3.8572071859139996  5.4795178757759997
  1.2174069698499996  2.1096307359840001  5.4795178757759997
  1.0089693489640001  5.9658090781019997  5.4795178757759997
  2.2272590301499990  3.8566882640160003  1.9377451242239998
  5.6710253188140003  2.1091118140859999  1.9377451242239998
  2.4356966510360003  0.0005099218980000  1.9377451242239998
