Co S 
 1.0000000000000000
     5.5240619999999998   -0.0000000000000000    0.0000000000000000
    -0.0000030000000000    5.5240539999999996    0.0000040000000000
    -0.0000020000000000    0.0000040000000000    5.5240819999999999
 Co  S  
   4   8
Cartesian
 -0.0000025000000000  2.7620289999999996  2.7620429999999998
  2.7620294999999997  2.7620269999999998  0.0000020000000000
  2.7620299999999998  0.0000020000000000  2.7620410000000000
  0.0000000000000000  0.0000000000000000  0.0000000000000000
  2.1592045769979999  0.6028104322080000  4.9212835604919993
  0.6027600948390001  4.9211989783219998  2.1592346393000001
  4.9212860117909996  2.1592260918819997  0.6028501562500000
  3.3648743645260000  3.3647921127599996  3.3648533606319999
  2.1591826354740000  2.1592658872400001  2.1592326393680001
  0.6027709882090000  3.3648319081179996  4.9212358437499999
  4.9212969051609994  0.6028590216779999  3.3648513606999999
  3.3648524230019996  4.9212475677920002  0.6028024395079999
