Cs N 
 1.0000000000000000
     5.5654830000000004   -0.0138280000000000   -2.6376629999999999
    -3.3340290000000001    5.1025140000000002   -0.8835520000000000
    -0.0090340000000000    0.0138280000000000    6.1588799999999999
 Cs  N  
   2   6
Cartesian
 -0.8357657500000001  1.2790855000000001  1.3188320000000000
 -2.5072972499999997  3.8372565000000005  3.9564960000000000
  2.1065963538530004  3.1917969160079998 -1.7605993325429998
  2.3551720861700001  0.6474538745240001  0.8645717069120000
 -0.1327520861700001  4.4550601254759998  1.7730932930879997
  0.1158236461470001  1.9107170839920000  4.3982643325430004
  1.1157270000000001  2.5443430000000000 -1.7606074999999999
  2.7782245000000003  0.0000000000000000  1.7606085000000000
