Ta Ga Co
 1.0000000000000000
     3.6210200000000001    0.0000000000000000    2.0905980000000000
     1.2070060000000000    3.4139309999999998    2.0905980000000000
     0.0000000000000000    0.0000000000000000    4.1811939999999996
 Ta  Ga  Co 
   1   1   2
Cartesian
  2.4140130000000002  1.7069654999999999  4.1811949999999998
  0.0000000000000000  0.0000000000000000  0.0000000000000000
  1.2070065000000001  0.8534827500000000  2.0905974999999999
  3.6210195000000001  2.5604482499999999  6.2717925000000001
