Al Fe Ir
 1.0000000000000000
     0.0000130000000000    2.9281180000000000    2.9259750000000002
     2.9266770000000002    0.0000090000000000    2.9259789999999999
     2.9266679999999998    2.9281340000000000    0.0000010000000000
 Al  Fe  Ir 
   2   1   1
Cartesian
  2.9266819267100002  2.9281627093420002  2.9259833519390002
  2.9266868533029999  5.8562256469350000  2.9259730740420000
  1.4632838933440000  1.4640623216409998  1.4629887499540000
  4.3900653266649998  4.3921928220749997  4.3889691760179996
