Bi Se O 
 1.0000000000000000
     3.7231200000000002    0.0000000000000000   -1.1317530000000000
    -0.3440300000000000    3.7071900000000002   -1.1317530000000000
     0.0074190000000000    0.0081390000000000    6.7142429999999997
 Bi  Se  O  
   2   1   2
Cartesian
  1.1971368517690000  1.3133751685890001  3.9382323731489999
  2.1893687691410006  2.4019501242210000  0.5125068903569997
  0.0000000000000000  0.0000000000000000  0.0000000000000000
  2.7100420000000001  0.9308670000000000  2.2253685000000001
  0.6764670000000000  2.7844620000000000  2.2253685000000001
