Pm Zn Rh
 1.0000000000000000
     0.0000000000000000    3.5670959999999998    3.5670959999999998
     3.5670959999999998    0.0000000000000000    3.5670959999999998
     3.5670959999999998    3.5670959999999998    0.0000000000000000
 Pm  Zn  Rh 
   2   1   1
Cartesian
  0.0000000000000000  0.0000000000000000  0.0000000000000000
  3.5670959999999998  3.5670959999999998  3.5670959999999998
  5.3506511341919998  5.3506511341919998  5.3506511341919998
  1.7835479999999999  1.7835479999999999  1.7835479999999999
