Mn Pd
 1.0000000000000000
     3.0106750000000000    0.0000000000000000    0.0000000000000000
     0.0000000000000000    3.0106750000000000    0.0000000000000000
     0.0000000000000000    0.0000000000000000    3.3711920000000002
 Mn  Pd 
   1   1
Cartesian
  0.0000000000000000  0.0000000000000000  0.0000000000000000
  1.5053375000000000  1.5053375000000000  1.6855960000000001
