Lu Ta O 
 1.0000000000000000
     5.0290929999999996    0.0287760000000000    0.0000000000000000
    -0.5403870000000000    5.1728240000000003    0.0000000000000000
     0.0000000000000000    0.0000000000000000    5.4230590000000003
 Lu  Ta  O  
   2   2   8
Cartesian
 -0.4052902500000000  3.8796180000000002  4.1860863573950002
 -0.1350967500000000  1.2932060000000001  1.2369726426050001
  2.3794497500000000  1.3075940000000001  3.7815641174080006
  2.1092562499999996  3.8940060000000001  1.6414948825920002
  3.1499069649269997  5.1690278331600004  3.0907640158700005
  1.0686055350729999  2.6189841668399998  3.0907640158700005
  1.3387990350729999  0.0325721668400000  2.3322949841300002
  3.4201004649269997  2.5826158331600002  2.3322949841300002
  0.9143088140710000  3.0705488204879998  0.4533406171050001
  3.3042036859289996  4.7174631795120003  0.4533406171050001
  3.5743971859289996  2.1310511795120002  4.9697183828950005
  1.1845023140709998  0.4841368204880001  4.9697183828950005
