Mn S 
 1.0000000000000000
     1.0565480000000000    2.9883709999999999    1.8299960000000000
    -4.2097420000000003   -2.9767359999999998    3.6314959999999998
     3.1696460000000002   -0.0000000000000000    1.8299970000000001
 Mn  S  
   2   2
Cartesian
  0.0000000000000000  0.0000000000000000  0.0000000000000000
  0.0082260000000001  0.0058175000000000  3.6457445000000002
  2.1172142097419999  1.4970972267359997  3.6528651185040002
 -2.1007622097420002 -1.4854622267360000  3.6386238814960001
