Co Ge
 1.0000000000000000
     3.5267439999999999    0.0000000000000000   -1.1526719999999999
    -0.2721750000000000    4.7925909999999998   -0.8327560000000001
     0.0423010000000000    0.0876390000000000    6.1010169999999997
 Co  Ge 
   4   4
Cartesian
  0.0000000000000000  0.0000000000000000  0.0000000000000000
 -0.1360875000000000  2.3962954999999999 -0.4163780000000000
  2.6792349217930003  3.2862290832709999  2.2258705419060001
  0.6176350782070000  1.5940009167289999  1.8897184580940001
  2.8563177847279997  0.9262363002360000  2.7676490731610000
  0.4405522152719999  3.9539936997639997  1.3479399268390000
  1.9387159257220001  1.3657213942260000 -0.0398562123770000
  1.3581540742780001  3.5145086057740000  4.1554452123769998
