Pm Zn Ga
 1.0000000000000000
     0.0000000000000000    3.6544850000000002    3.6544850000000002
     3.6544850000000002    0.0000000000000000    3.6544850000000002
     3.6544850000000002    3.6544850000000002    0.0000000000000000
 Pm  Zn  Ga 
   2   1   1
Cartesian
  3.6544850000000002  3.6544850000000002  3.6544850000000002
  0.0000000000000000  0.0000000000000000  0.0000000000000000
  5.4817201910300000  5.4817201910300000  5.4817201910300000
  1.8272351910300002  1.8272351910300002  1.8272351910300002
