Sc Nb Os
 1.0000000000000000
     0.0000000000000000    3.1925859999999999    3.1925859999999999
     3.1925859999999999    0.0000000000000000    3.1925859999999999
     3.1925859999999999    3.1925859999999999    0.0000000000000000
 Sc  Nb  Os 
   1   1   2
Cartesian
  4.7888789999999997  4.7888789999999997  4.7888789999999997
  1.5962930000000000  1.5962930000000000  1.5962930000000000
  0.0000000000000000  0.0000000000000000  0.0000000000000000
  3.1925859999999999  3.1925859999999999  3.1925859999999999
