Nb C 
 1.0000000000000000
     4.5059790000000000    0.0000000000000000    0.0000000000000000
     0.0000000000000000    4.5059790000000000    0.0000000000000000
     0.0000000000000000    0.0000000000000000    4.5059790000000000
 Nb  C  
   4   4
Cartesian
  0.0000000000000000  0.0000000000000000  0.0000000000000000
  0.0000000000000000  2.2529895000000000  2.2529895000000000
  2.2529895000000000  0.0000000000000000  2.2529895000000000
  2.2529895000000000  2.2529895000000000  0.0000000000000000
  2.2529895000000000  2.2529895000000000  2.2529895000000000
  2.2529895000000000  0.0000000000000000  0.0000000000000000
  0.0000000000000000  2.2529895000000000  0.0000000000000000
  0.0000000000000000  0.0000000000000000  2.2529895000000000
