Nd Se F 
 1.0000000000000000
     4.0363689999999997    0.0000000000000000    0.0000000000000000
     0.0000000000000000    4.0363689999999997    0.0000000000000000
     0.0000000000000000    0.0000000000000000    7.1577890000000002
 Nd  Se  F  
   2   2   2
Cartesian
  3.0272767499999995  3.0272767499999995  5.6071112754620005
  1.0090922499999999  1.0090922499999999  1.5506777245380001
  1.0090922499999999  1.0090922499999999  4.6332726086450000
  3.0272767499999995  3.0272767499999995  2.5245163913549997
  3.0272767499999995  1.0090922499999999  0.0000000000000000
  1.0090922499999999  3.0272767499999995  0.0000000000000000
