Ti Ni Sb
 1.0000000000000000
     3.6202909999999999    0.0000000000000000    2.0901760000000000
     1.2067639999999999    3.4132419999999999    2.0901760000000000
     0.0000000000000000    0.0000000000000000    4.1803509999999999
 Ti  Ni  Sb 
   1   1   1
Cartesian
  1.2067637499999999  0.8533105000000000  2.0901757500000002
  0.0000000000000000  0.0000000000000000  0.0000000000000000
  3.6202912499999997  2.5599314999999998  6.2705272500000007
