Ca Ge Ir
 1.0000000000000000
    -2.0834050000000000    2.0834050000000000    5.1800179999999996
     2.0834050000000000   -2.0834050000000000    5.1800179999999996
     2.0834050000000000    2.0834050000000000   -5.1800179999999996
 Ca  Ge  Ir 
   1   2   2
Cartesian
  0.0000000000000000  0.0000000000000000  0.0000000000000000
  0.0000000000000000 -0.0000000000000000  3.8842054171919993
  0.0000000000000001 -0.0000000000000001  6.4758305828079994
  2.0834050000000000  0.0000000000000000  2.5900089999999998
  0.0000000000000000  2.0834050000000000  2.5900089999999998
