Li Ho Sb
 1.0000000000000000
     4.5252169999999996    0.0002080000000000   -0.0004880000000000
    -2.2624290000000000    3.9186410000000000    0.0000000000000000
    -0.0009110000000000   -0.0005260000000000    7.1286250000000004
 Li  Ho  Sb 
   3   1   2
Cartesian
  2.2651887406009994  1.3078127043250001  2.4977583167980004
 -0.0033117406010001  2.6105102956750001  4.6303786832020002
 -0.0004555000000000 -0.0002630000000000  3.5643125000000002
  0.0000000000000000  0.0000000000000000  0.0000000000000000
  2.2608420712889998  1.3053005272700000  5.3667025349720001
  0.0010349287109998  2.6130224727300000  1.7614344650280001
