Zn Pd F 
 1.0000000000000000
     4.3857309999999998   -0.0003640000000000    3.1054160000000000
     1.6086100000000001    4.0814680000000001    3.1035849999999998
     0.0007600000000000    0.0029280000000000    5.3738479999999997
 Zn  Pd  F  
   1   1   6
Cartesian
  2.9975505000000000  2.0420159999999998  5.7914244999999998
  0.0000000000000000  0.0000000000000000  0.0000000000000000
  1.8730288559569999  0.3897132157640000  5.5916226423819992
  1.6379001391640000  3.0992946555400001  4.7579420166449999
  2.0351389623550000  2.4836580499920000  7.4982610520929995
  4.3572008608359996  0.9847373444599999  6.8249069833549996
  4.1220721440429999  3.6943187842360001  5.9912263576180003
  3.9599620376450000  1.6003739500080001  4.0845879479070000
