Lu Au
 1.0000000000000000
     0.0000000000000000   -4.9317489999999999    0.0000000000000000
    -6.0350080000000004    0.0000000000000000    0.0000000000000000
     0.0000000000000000    0.0000000000000000   -5.0839030000000003
 Lu  Au 
   2   6
Cartesian
  0.0000000000000000  0.0000000000000000 -1.7542668208890002
 -3.0175040000000002 -2.4658745000000000 -3.3296361791110001
  0.0000000000000000 -2.4658745000000000 -3.3691482732270002
 -3.0175040000000002  0.0000000000000000 -1.7147547267730001
 -4.5010900166400001  0.0000000000000000 -4.2621154995649997
 -1.5339179833600001  0.0000000000000000 -4.2621154995649997
 -4.5514219833600000 -2.4658745000000000 -0.8217875004350002
 -1.4835860166400001 -2.4658745000000000 -0.8217875004350002
