Si Mo
 1.0000000000000000
     4.9212009999999999    0.0000000000000000    0.0000000000000000
     0.0000000000000000    4.9212009999999999    0.0000000000000000
     0.0000000000000000    0.0000000000000000    4.9212009999999999
 Si  Mo 
   2   6
Cartesian
  2.4606005000000000  2.4606005000000000  2.4606005000000000
  0.0000000000000000  0.0000000000000000  0.0000000000000000
  0.0000000000000000  2.4606005000000000  1.2303002500000000
  0.0000000000000000  2.4606005000000000  3.6909007500000000
  2.4606005000000000  3.6909007500000000  0.0000000000000000
  2.4606005000000000  1.2303002500000000  0.0000000000000000
  3.6909007500000000  0.0000000000000000  2.4606005000000000
  1.2303002500000000  0.0000000000000000  2.4606005000000000
