Ca Ge N 
 1.0000000000000000
     4.6485909999999997    0.0014680000000000   -2.4405269999999999
    -2.9506399999999999    4.3270039999999996   -0.3692390000000000
     0.0010010000000000   -0.0014680000000000    5.2502920000000000
 Ca  Ge  N  
   2   2   4
Cartesian
  1.5873862499999998  1.0813839999999999  2.6251457499999997
 -1.4748194999999999  2.1627679999999998  2.4405264999999998
  0.0000000000000000  0.0000000000000000  0.0000000000000000
  0.1115657499999999  3.2456199999999997 -0.1846197500000000
  0.1154496243920000  3.7855779999999997  3.2755121288900000
  4.1445063982739994  0.1950356997280000  1.0196049589160003
  0.8460926256080000  1.6228099999999999  0.3852771211100002
 -1.7081446482740001  3.0505843002719999  0.2006577910840000
