Sr Cu O 
 1.0000000000000000
     3.4458259999999998    0.0000000000000000    0.0000000000000000
     0.0000000000000000    3.9117030000000002    0.0000000000000000
     0.0000000000000000    0.0000000000000000    3.9117030000000002
 Sr  Cu  O  
   1   1   2
Cartesian
  1.7229129999999999  1.9558515000000001  1.9558515000000001
  0.0000000000000000  0.0000000000000000  0.0000000000000000
  0.0000000000000000  1.9558515000000001  0.0000000000000000
  0.0000000000000000  0.0000000000000000  1.9558515000000001
