As Rh
 1.0000000000000000
     5.5441770000000004    0.0000000000000000   -2.5160589999999998
     0.0000000000000000    6.1034850000000000    0.0000000000000000
     0.0336750000000000    0.0000000000000000    6.1788059999999998
 As  Rh 
   8   4
Cartesian
  0.8984931975270001  5.3238502400400005  4.9814804613819996
  4.6961963024730000  2.2721077400400000  1.7706695386180002
  4.6793588024729997  0.7796347599600000 -1.3187334613819999
  0.8816556975270000  3.8313772599600000  1.8920774613819997
  1.8830859474360000  2.2651985950200002  0.2754610257970000
  3.6779285525640000  5.3169410950199998  0.2978829742030000
  3.6947660525639998  3.8382864049799998  3.3872859742029999
  1.8999234474360001  0.7865439049800000  3.3648640257969999
  1.5350824845780002  3.0450225630149999  4.1910976585429998
  4.0596070154220003  6.0967650630149999  2.5610523414570001
  4.0427695154220000  3.0584624369850002 -0.5283506585429998
  1.5182449845780002  0.0067199369850000  1.1016946585429999
