La Ni B  C 
 1.0000000000000000
    -1.8892040000000001    1.8892040000000001    4.9091950000000004
     1.8892040000000001   -1.8892040000000001    4.9091950000000004
     1.8892040000000001    1.8892040000000001   -4.9091950000000004
 La  Ni  B   C  
   1   2   2   1
Cartesian
  0.0000000000000000  0.0000000000000000  0.0000000000000000
  0.0000000000000001  1.8892039999999999  2.4545975000000002
  1.8892040000000001  0.0000000000000000  2.4545975000000002
  0.0000000000000001 -0.0000000000000001  3.4180564739200001
  0.0000000000000001 -0.0000000000000001  6.4003335260800007
  0.0000000000000000  0.0000000000000000  4.9091950000000004
