Mn V  Ga
 1.0000000000000000
     3.7095850000000001    0.0000000000000000    2.1417299999999999
     1.2365280000000001    3.4974300000000000    2.1417299999999999
     0.0000000000000000    0.0000000000000000    4.2834610000000000
 Mn  V   Ga 
   2   1   1
Cartesian
  1.2365282500000001  0.8743575000000000  2.1417302500000002
  3.7095847499999999  2.6230725000000001  6.4251907499999996
  2.4730565000000002  1.7487150000000000  4.2834605000000003
  0.0000000000000000  0.0000000000000000  0.0000000000000000
