Na Ti S 
 1.0000000000000000
     3.3551750000000000   -0.0744620000000000    6.0226080000000000
     1.5068010000000001    2.9987140000000001    6.0226080000000000
    -0.1238040000000000   -0.0744620000000000    6.8930170000000004
 Na  Ti  S  
   1   1   2
Cartesian
  2.3690860000000002  1.4248950000000000  9.4691165000000002
  0.0000000000000000  0.0000000000000000  0.0000000000000000
  3.4947619510719998  2.1019367090399999 13.9683861432079990
  1.2434100489280000  0.7478532909600000  4.9698468567919996
