Mg Te
 1.0000000000000000
     3.9583740000000001    0.0000000000000000    2.2853680000000001
     1.3194580000000000    3.7319900000000001    2.2853680000000001
     0.0000000000000000    0.0000000000000000    4.5707370000000003
 Mg  Te 
   1   1
Cartesian
  0.0000000000000000  0.0000000000000000  0.0000000000000000
  1.3194580000000000  0.9329975000000000  2.2853682500000003
