Cu Se
 1.0000000000000000
     3.7807680000000001    0.0000000000000000    0.0000000000000000
     0.0000000000000000    5.0262680000000000    0.0000000000000000
     0.0000000000000000    0.0000000000000000    6.1642679999999999
 Cu  Se 
   2   4
Cartesian
  0.0000000000000000  0.0000000000000000  0.0000000000000000
  1.8903840000000001  2.5131340000000000  3.0821339999999999
  0.0000000000000000  0.9323928190720000  2.3793951194640002
  0.0000000000000000  4.0938751809280003  3.7848728805360001
  1.8903840000000001  3.4455268190720001  0.7027388805360000
  1.8903840000000001  1.5807411809279999  5.4615291194639992
