Cs Au Se
 1.0000000000000000
     6.4362800000000000    0.0000000000000000    0.0000000000000000
    -3.2181400000000000    5.5739830000000001    0.0000000000000000
     0.0000000000000000    0.0000000000000000    5.2746160000000000
 Cs  Au  Se 
   1   3   2
Cartesian
  0.0000000000000000  0.0000000000000000  2.6373080000000000
 -1.6090700000000000  2.7869915000000001  0.0000000000000000
  3.2181400000000000  0.0000000000000000  0.0000000000000000
  1.6090700000000000  2.7869915000000001  0.0000000000000000
 -0.0000032181400002  3.7159905246610001  3.6809276979119998
  3.2181432181400003  1.8579924753390000  1.5936883020879999
