Sm C 
 1.0000000000000000
     3.3586830000000001    0.0000000000000000   -1.7192790000000000
    -0.8800829999999999    3.2413280000000002   -1.7192790000000000
     0.0056420000000000    0.0073780000000000    4.1513249999999999
 Sm  C  
   1   2
Cartesian
  0.0000000000000000  0.0000000000000000  0.0000000000000000
  1.4920904415840002  1.9512444255120003 -1.2254506341660003
  0.9921515584160001  1.2974615744880003  1.9382176341660000
