In Ag
 1.0000000000000000
     4.8288929999999999   -0.0000000000000000    2.7857170000000000
     2.4144459999999999    4.9094420000000003    1.3928579999999999
    -0.0387920000000000   -0.0000000000000000    5.6454160000000000
 In  Ag 
   4   2
Cartesian
  1.9461917110280000  2.4547210000000002  2.2045524051399998
  3.6022733454360001  3.9723669865760001  4.9119953454359999
  3.6022736545640002  0.9370750134240001  4.9119956545640004
  5.2583552889720000  2.4547210000000002  7.6194385948599992
  1.2072232500000000  0.0000000000000000  0.6964292500000000
  3.6216697499999997  0.0000000000000000  2.0892877500000000
