Pb S 
 1.0000000000000000
     4.2305070000000002    0.0000000000000000    0.0000000000000000
     0.0000000000000000    5.9824950000000001    0.0000000000000000
     0.0000000000000000    0.0000000000000000    8.4331940000000003
 Pb  S  
   4   4
Cartesian
  3.1728802500000004  4.4874036920550004  1.0437342554100000
  3.1728802500000004  4.4863388079449997  5.2603312554100006
  1.0576267500000001  1.4950913079449999  7.3894597445899999
  1.0576267500000001  1.4961561920550002  3.1728627445900002
  1.0576267500000001  4.4925486377550001  7.3769870506639998
  1.0576267500000001  4.4811938622450000  3.1603900506640001
  3.1728802500000004  1.4899463622450000  1.0562069493360000
  3.1728802500000004  1.5013011377549998  5.2728039493360006
