Cr Ag Se
 1.0000000000000000
     1.8810110000000000   -1.0860019999999999    7.0432509999999997
     0.0000000000000000    2.1720039999999998    7.0432509999999997
    -1.8810110000000000   -1.0860019999999999    7.0432509999999997
 Cr  Ag  Se 
   1   1   2
Cartesian
 -0.0000000000000001  0.0000000000000001 21.1264990180380003
  0.0000000000000000  0.0000000000000001 17.9483094800489980
  0.0000000000000000 -0.0000000000000000 15.3874045462020010
 -0.0000000000000000 -0.0000000000000000  5.6350093085579998
