Na Si O 
 1.0000000000000000
     4.7831710000000003    0.0000000000000000    0.0000000000000000
     0.0000000000000000    5.2477600000000004   -3.0235050000000001
     0.0000000000000000   -0.0048460000000000    6.0574919999999999
 Na  Si  O  
   4   2   6
Cartesian
  2.3956320626660004  2.6416990289559998  0.4807183668030002
  2.3956320626660004  0.9042310765640000  3.5309885155620000
  0.0040465626660000  2.6012149710440000  2.5532686331969998
  0.0040465626660000  4.3386829234360000 -0.4970015155620000
  2.5825105536359998  4.4155754669600000 -2.5440406006049998
  0.1909250536360000  0.8321845330400001 -0.4794643993950000
  1.8140941324860000  0.4532700222400001 -0.2611522208700000
  4.2056796324860004  4.7944899777600005 -2.7623527791300004
  2.3096162985730002  3.0439529272640002  2.7241326212370001
  4.7012017985730008  2.1989610727360005  0.3098543787629998
  2.3096162985730002  4.4129175480959999 -0.9657200516670004
  4.7012017985730008  0.8299964519040000  3.9997070516669999
