Mn Au
 1.0000000000000000
     3.2265690000000000    0.0000000000000000    0.0000000000000000
     0.0000000000000000    3.2265690000000000    0.0000000000000000
     0.0000000000000000    0.0000000000000000    3.2203330000000001
 Mn  Au 
   1   1
Cartesian
  1.6132845000000000  1.6132845000000000  1.6101665000000001
  0.0000000000000000  0.0000000000000000  0.0000000000000000
