Nb Co
 1.0000000000000000
     2.4431520000000000   -1.4105540000000001    8.7004049999999999
     0.0000000000000000    2.8211080000000002    8.7004049999999999
    -2.4431520000000000   -1.4105540000000001    8.7004049999999999
 Nb  Co 
   6   7
Cartesian
 -0.0000000000000000  0.0000000000000000  4.3139044103400002
 -0.0000000000000001  0.0000000000000002 21.7873105896600023
 -0.0000000000000000 -0.0000000000000000  8.9716140246599991
 -0.0000000000000001  0.0000000000000000 17.1296009753399971
  0.0000000000000000  0.0000000000000000 11.7214553285550007
  0.0000000000000000  0.0000000000000000 14.3797596714450009
  1.2314976402720001 -0.7110052597940001  6.7202885264550005
 -0.0000000000000000  1.4220105195880002  6.7202885264550005
 -1.2314976402719999 -0.7110052597940001  6.7202885264549996
  1.2314976402720001  0.7110052597940002 19.3809264735449993
 -1.2314976402719999  0.7110052597940001 19.3809264735449993
  0.0000000000000001 -1.4220105195880000 19.3809264735449993
  0.0000000000000000  0.0000000000000000  0.0000000000000000
