Ho B  C 
 1.0000000000000000
    -3.2605559999999998    0.0000000000000000    0.0000000000000000
    -1.6302779999999999   -3.2853599999999998    3.7348509999999999
    -1.6302779999999999    3.2853599999999998    3.7348509999999999
 Ho  B   C  
   2   4   1
Cartesian
 -1.6302779999999999 -0.0000000000000000  1.7441754170000001
 -4.8908339999999999  0.0000000000000001  5.7255265829999997
 -3.2605559999999998  0.8807590209600001  3.7348509999999999
 -3.2605559999999998 -0.8807590209600001  3.7348509999999999
 -1.6302779999999999 -1.7941022424000002  3.7348509999999995
 -1.6302779999999999  1.7941022423999999  3.7348509999999999
  0.0000000000000000  0.0000000000000000  0.0000000000000000
