Tl F 
 1.0000000000000000
     5.0439879999999997    0.0000000000000000    0.0000000000000000
     0.0000000000000000    5.5612820000000003    0.0000000000000000
     0.0000000000000000    0.0000000000000000    6.1359839999999997
 Tl  F  
   4   4
Cartesian
  1.2609969999999999  2.8418595922560002  4.5647548490879997
  3.7829910000000000  2.7194224077440001  1.5712291509120000
  1.2609969999999999  0.0612185922560000  1.5712291509120000
  3.7829910000000000  5.5000634077440003  4.5647548490879997
  1.2609969999999999  3.2210889731180004  0.8413783980480000
  3.7829910000000000  2.3401930268819999  5.2946056019520000
  1.2609969999999999  0.4404479731180000  5.2946056019520000
  3.7829910000000000  5.1208340268820001  0.8413783980480000
