Li Sb O 
 1.0000000000000000
     4.0034489999999998    0.0000000000000000    0.0000000000000000
    -2.0017239999999998    4.5614559999999997   -1.5737220000000001
     0.0000000000000000    0.0122620000000000    5.7822959999999997
 Li  Sb  O  
   5   1   5
Cartesian
  2.0017207095690002  1.9475620936739999  1.3184105238719999
  0.0000000000000000  0.0061310000000000  2.8911479999999998
 -0.0000016907039998  2.8391372406859996 -0.1656685856820000
  2.0017266907039999  1.7345807593139999  4.3742425856819995
  0.0000042904310000  2.6261559185879997  2.8901692584239997
  0.0000000000000000  0.0000000000000000  0.0000000000000000
  2.0017268566449999  3.2400379074160002 -0.1129388748420002
  2.0017244999999999  0.0000000000000000  0.0000000000000000
  0.0000021592290001  1.4408027490139999  1.3447971347820000
  2.0017228407709999  3.1329152509859997  2.8637768652180000
 -0.0000018566449999  1.3336800925839998  4.3215128748419991
