Se O  F 
 1.0000000000000000
     5.5071510000000004    0.0000000000000000    0.0000000000000000
     0.0000000000000000    6.0823660000000004    0.0000000000000000
     0.0000000000000000    0.0000000000000000    7.5528060000000004
 Se  O   F  
   4   4   8
Cartesian
  2.5383064745610002  4.5908238800159999  1.3952827220220001
  2.9688445254390006  1.5496408800160002  6.1575232779780000
  0.2152690254390000  1.5496408800160002  1.3952827220220001
  5.2918819745610000  4.5908238800159999  6.1575232779780000
  1.4306201510250001  2.3637290749200002  0.6908551648200000
  1.3229553489750001  5.4049120749200004  0.6908551648200000
  4.1841956510250000  2.3637290749200002  6.8619508351800000
  4.0765308489750005  5.4049120749200004  6.8619508351800000
  0.6829307812080000  5.9465771790500002  5.4771363022740003
  3.4365062812080001  5.9465771790500002  2.0756696977260001
  4.8242202187920000  2.9053941790500004  2.0756696977260001
  2.0706447187920003  2.9053941790500004  5.4771363022740003
  4.6043362008150002  4.2389650892819999  4.5982691376960005
  0.9028147991850001  1.1977820892819999  2.9545368623039998
  3.6563902991850004  1.1977820892819999  4.5982691376960005
  1.8507607008150002  4.2389650892819999  2.9545368623039998
