Ti Cu Sn
 1.0000000000000000
     4.4212340000000001    0.0000000000000000    0.0000000000000000
    -2.2106170000000001    3.8289010000000001    0.0000000000000000
     0.0000000000000000    0.0000000000000000    6.0737079999999999
 Ti  Cu  Sn 
   2   2   2
Cartesian
  0.0000000000000000  0.0000000000000000  6.0535432894400003
  0.0000000000000000  0.0000000000000000  3.0166892894399999
 -0.0000022106170001  2.5526019429670002  4.7633783834959997
  2.2106192106170002  1.2762990570330000  1.7265243834960000
 -0.0000022106170001  2.5526019429670002  1.4641159030639999
  2.2106192106170002  1.2762990570330000  4.5009699030640000
