U  Fe B 
 1.0000000000000000
    -1.5627460000000000    3.0628370000000000    4.0862930000000004
     1.5627460000000000   -3.0628370000000000    4.0862930000000004
     1.5627460000000000    3.0628370000000000   -4.0862930000000004
 U   Fe  B  
   1   2   6
Cartesian
  0.0000000000000000  3.0628370000000000  0.0000000000000000
  0.0000000000000000  0.0000000000000002  6.9153725778620005
 -0.0000000000000000  0.0000000000000000  1.2572134221380000
  0.0000000000000001  2.1791288917379998  4.0862930000000004
  1.5627460000000000  0.8837081082620000 -0.0000000000000000
  0.0000000000000001  1.6069113063759999  5.6931051334600005
  1.5627460000000000  1.4559256936240002 -1.6068121334600003
 -0.0000000000000000  1.6069113063760003  2.4794808665400003
  1.5627460000000000  1.4559256936240002  1.6068121334600001
