Be Nb
 1.0000000000000000
     2.2846829999999998   -1.3190630000000001    7.0216930000000000
     0.0000000000000000    2.6381239999999999    7.0216930000000000
    -2.2846829999999998   -1.3190630000000001    7.0216930000000000
 Be  Nb 
   9   3
Cartesian
  0.0000000000000000 -0.0000010000000001 10.5325395000000004
  0.0000000000000000 -0.0000006686620001  7.0427089271489995
  0.0000000000000001 -0.0000013313380003 14.0223700728509986
  0.0000000000000001 -1.3402763225600001  8.7291791518889994
  1.1607126360030000  0.6701369181069999  8.7291791518889994
 -1.1607126360029998  0.6701369181069998  8.7291791518889994
  1.1607126360029998 -0.6701389181070001 12.3358998481109996
  0.0000000000000000  1.3402743225599998 12.3358998481109996
 -1.1607126360029998 -0.6701389181070002 12.3358998481109996
  0.0000000000000000  0.0000000000000000  0.0000000000000000
  0.0000000000000000 -0.0000002801920000  2.9511333075840001
 -0.0000000000000000 -0.0000017198080002 18.1139456924159994
