Zr V  Ga
 1.0000000000000000
     0.0000000000000000    0.0000000000000000    5.1626989999999999
    -3.2173360000000000    3.2173360000000000    2.5813489999999999
    -3.2173360000000000   -3.2173360000000000    2.5813489999999999
 Zr  V   Ga 
   1   2   4
Cartesian
  0.0000000000000000  0.0000000000000000  0.0000000000000000
 -3.2173360000000000  0.0000000000000000  3.8720237499999994
 -3.2173360000000000  0.0000000000000000  6.4533732499999994
 -1.2672539556880000 -1.2672539556880000  2.5813467217090000
 -1.9500820443119999 -1.9500820443119999  5.1627012782909993
 -1.9500820443119999  1.9500820443119999  5.1627012782909993
 -1.2672539556880000  1.2672539556880000  2.5813467217090000
