Li Os N 
 1.0000000000000000
     6.6887169999999996    0.0000000000000000    0.0000000000000000
     0.0000000000000000    6.6887169999999996    0.0000000000000000
     0.0000000000000000    0.0000000000000000    4.7666190000000004
 Li  Os  N  
  12   2   8
Cartesian
  3.3443584999999998  0.0000000000000000  2.9037861618480001
  0.0000000000000000  3.3443584999999998  4.2461423381520005
  0.0000000000000000  3.3443584999999998  1.8628328381520001
  3.3443584999999998  0.0000000000000000  0.5204766618480000
  1.4078745977450000  1.4078745977450000  2.3833095000000002
  5.2808424022549998  5.2808424022549998  2.3833095000000002
  4.7522330977450000  4.7522330977450000  0.0000000000000000
  1.9364839022550000  1.9364839022550000  0.0000000000000000
  1.4078745977450000  5.2808424022549998  2.3833095000000002
  5.2808424022549998  1.4078745977450000  2.3833095000000002
  4.7522330977450000  1.9364839022550000  0.0000000000000000
  1.9364839022550000  4.7522330977450000  0.0000000000000000
  3.3443584999999998  3.3443584999999998  2.3833095000000002
  0.0000000000000000  0.0000000000000000  0.0000000000000000
  3.3443584999999998  1.6493506588789999  1.5762208043010002
  3.3443584999999998  5.0393663411209992  1.5762208043010002
  0.0000000000000000  4.9937091588789997  0.8070886956990001
  0.0000000000000000  1.6950078411209999  0.8070886956990001
  1.6493506588789999  3.3443584999999998  3.1903981956990006
  5.0393663411209992  3.3443584999999998  3.1903981956990006
  4.9937091588789997  0.0000000000000000  3.9595303043009999
  1.6950078411209999  0.0000000000000000  3.9595303043009999
