Hf In Pd
 1.0000000000000000
    -0.0031410000000000    3.2702730000000000    3.2737599999999998
     3.2670520000000001   -0.0020670000000000    3.2726860000000002
     3.2679580000000001    3.2701090000000002   -0.0029740000000000
 Hf  In  Pd 
   1   1   2
Cartesian
  1.6327973015650001  1.6345166652070000  1.6358321014880000
  4.8988821162180001  4.9037395193540005  4.9076334835840001
 -0.0028623799670000  3.2694618632059997  3.2729970561299999
  3.2658487301419998  3.2700307223420002  3.2725053558240003
