Si Ir
 1.0000000000000000
     5.2842940000000000    0.0000000000000000    0.0000000000000000
     0.0000000000000000    5.2842940000000000    0.0000000000000000
     0.0000000000000000    0.0000000000000000    8.0518110000000007
 Si  Ir 
   4  12
Cartesian
  2.6421470000000000  0.0000000000000000  6.0388582500000005
  0.0000000000000000  2.6421470000000000  6.0388582500000005
  0.0000000000000000  2.6421470000000000  2.0129527500000002
  2.6421470000000000  0.0000000000000000  2.0129527500000002
  2.6421470000000000  2.6421470000000000  6.0388582500000005
  0.0000000000000000  0.0000000000000000  6.0388582500000005
  0.9760513761520001  3.6181983761519998  0.0000000000000000
  1.6660956238480000  0.9760513761520001  0.0000000000000000
  3.6181983761519998  4.3082426238479998  0.0000000000000000
  4.3082426238479998  1.6660956238480000  0.0000000000000000
  0.0000000000000000  0.0000000000000000  2.0129527500000002
  2.6421470000000000  2.6421470000000000  2.0129527500000002
  3.6181983761519998  0.9760513761520001  4.0259055000000004
  4.3082426238479998  3.6181983761519998  4.0259055000000004
  0.9760513761520001  1.6660956238480000  4.0259055000000004
  1.6660956238480000  4.3082426238479998  4.0259055000000004
