Eu Zn
 1.0000000000000000
     3.7411989999999999    0.0000000000000000    0.0000000000000000
     0.0000000000000000    3.7411989999999999    0.0000000000000000
     0.0000000000000000    0.0000000000000000    3.7411989999999999
 Eu  Zn 
   1   1
Cartesian
  0.0000000000000000  0.0000000000000000  0.0000000000000000
  1.8705995000000000  1.8705995000000000  1.8705995000000000
