Na Ag
 1.0000000000000000
     4.8454790000000001    0.0000000000000000    2.7975379999999999
     1.6151599999999999    4.5683600000000002    2.7975379999999999
     0.0000000000000000    0.0000000000000000    5.5950749999999996
 Na  Ag 
   2   4
Cartesian
  0.8075798750000001  0.5710450000000000  1.3987688750000000
  5.6530591250000004  3.9973150000000004  9.7913821250000002
  0.8075800000000000  2.2841800000000001  4.1963064999999995
  2.4227395000000000  0.0000000000000000  4.1963064999999995
  3.2303195000000002  2.2841800000000001  2.7975379999999999
  3.2303195000000002  2.2841800000000001  5.5950755000000001
