Li Sn Au
 1.0000000000000000
     4.5907070000000001    0.0000000000000000    0.0000000000000000
    -2.2953530000000000    3.9756700000000000    0.0000000000000000
     0.0000000000000000    0.0000000000000000   20.9429620000000014
 Li  Sn  Au 
   2   8   6
Cartesian
  2.2953559620200004  1.3252220081099999 14.9256092151979995
 -0.0000019620200001  2.6504479918900001  4.4541282151980006
  0.0000000000000000  0.0000000000000000 16.6707443527340011
  0.0000000000000000  0.0000000000000000  6.1992633527340004
  0.0000000000000000  0.0000000000000000 11.0791829283539993
  0.0000000000000000  0.0000000000000000  0.6077019283540001
  2.2953559620200004  1.3252220081099999  2.6281741873039999
 -0.0000019620200001  2.6504479918900001 13.0996342443420009
  2.2953559620200004  1.3252220081099999  8.5280788412100001
 -0.0000019620200001  2.6504479918900001 18.9995598412100009
  2.2953559620200004  1.3252220081099999 17.6857450060639998
 -0.0000019620200001  2.6504479918900001  7.2142640060640009
  2.2953559620200004  1.3252220081099999 20.6200215259600022
 -0.0000019620200001  2.6504479918900001 10.1485405259600014
  0.0000000000000000  0.0000000000000000 13.9224413353980019
  0.0000000000000000  0.0000000000000000  3.4509603353980003
