Tb Te O 
 1.0000000000000000
     3.7633459999999999    0.0000000000000000   -1.1348480000000001
    -0.3422160000000000    3.7477540000000000   -1.1348480000000001
     0.0093530000000000    0.0102460000000000    6.8383799999999999
 Tb  Te  O  
   2   1   2
Cartesian
  2.2692322045959994  2.4858816011060001  0.7177846713040000
  1.1612507954039999  1.2721183988939999  3.8508993286959994
  0.0000000000000000  0.0000000000000000  0.0000000000000000
  0.6888509999999999  2.8159385000000001  2.2843419999999997
  2.7416319999999996  0.9420615000000000  2.2843419999999997
