Si Os
 1.0000000000000000
     4.7659919999999998    0.0000000000000000    0.0000000000000000
     0.0000000000000000    4.7659919999999998    0.0000000000000000
     0.0000000000000000    0.0000000000000000    4.7659919999999998
 Si  Os 
   4   4
Cartesian
  0.7852591398959999  1.5977368601040001  3.1682551398959999
  1.5977368601040001  3.1682551398959999  0.7852591398959999
  3.1682551398959999  0.7852591398959999  1.5977368601040001
  3.9807328601039997  3.9807328601039997  3.9807328601039997
  4.1805661386719999  2.9684218613279998  1.7975701386720000
  2.9684218613279998  1.7975701386720000  4.1805661386719999
  1.7975701386720000  4.1805661386719999  2.9684218613279998
  0.5854258613280000  0.5854258613280000  0.5854258613280000
