Ti B 
 1.0000000000000000
     3.0352910000000000    0.0000000000000000    0.0000000000000000
     0.0000000000000000    3.2598229999999999    0.0000000000000000
    -1.5176460000000001   -1.6299110000000001    6.8626480000000001
 Ti  B  
   3   4
Cartesian
  1.5176437969519998 -0.0000014445090001  2.5447041916400002
  0.0000012030480000  1.6299134445090002  4.3179438083599999
  0.0000000000000000  0.0000000000000000  0.0000000000000000
  1.5176451317830000  0.0000003682170000  5.0538873172320002
 -0.0000001317830000  1.6299116317830000  1.8087606827680003
 -0.0000034709660000 -0.0000028241480001  5.9797683348000001
  1.5176484709659999  1.6299148241479999  0.8828796651999999
