Ti Ni Ge
 1.0000000000000000
     3.7221860000000002    0.0000000000000000    0.0000000000000000
     0.0000000000000000    6.2280410000000002    0.0000000000000000
     0.0000000000000000    0.0000000000000000    7.0971529999999996
 Ti  Ni  Ge 
   4   4   4
Cartesian
  2.7916395000000001  2.9591602605350000  4.8805417864279992
  0.9305465000000001  3.2688807394650001  2.2166112135720000
  0.9305465000000001  0.1548602394650000  1.3319652864280001
  2.7916395000000001  6.0731807605350001  5.7651877135719998
  2.7916395000000001  5.3720715010420008  3.1193619780189996
  2.7916395000000001  2.2580510010419999  0.4292145219810000
  0.9305465000000001  0.8559694989580000  3.9777910219810000
  0.9305465000000001  3.9699899989579999  6.6679384780189999
  2.7916395000000001  1.5117573040940000  2.6956051666950001
  0.9305465000000001  4.7162836959060002  4.4015478333050000
  2.7916395000000001  4.6257778040940005  0.8529713333050000
  0.9305465000000001  1.6022631959060001  6.2441816666949999
