Pu Bi
 1.0000000000000000
     0.0000000000000000    3.2245509999999999    3.2245509999999999
     3.2245509999999999    0.0000000000000000    3.2245509999999999
     3.2245509999999999    3.2245509999999999    0.0000000000000000
 Pu  Bi 
   1   1
Cartesian
  0.0000000000000000  0.0000000000000000  0.0000000000000000
  3.2245509999999999  3.2245509999999999  3.2245509999999999
