Zn Mo
 1.0000000000000000
     7.8231859999999998   -0.0000010000000000   -0.0000010000000000
    -0.0000010000000000    7.8231859999999998   -0.0000010000000000
    -0.0000010000000000   -0.0000010000000000    7.8231900000000003
 Zn  Mo 
  28   4
Cartesian
  5.8673892499999996  1.9557957499999998 -0.0000010000000000
  5.8673892499999996 -0.0000010000000000  1.9557967500000000
 -0.0000005000000000  1.9557962499999999  1.9557972500000000
  1.9557962499999999  1.9557962499999999 -0.0000005000000000
  1.9557962499999999 -0.0000005000000000  1.9557972500000000
  3.9115925000000002  1.9557957499999998  1.9557967500000000
 -0.0000005000000000  3.9115929999999999 -0.0000005000000000
  5.8673882500000003  5.8673882500000003  3.9115934999999999
  5.8673882500000003  3.9115915000000001  5.8673912499999998
 -0.0000015000000000  5.8673887499999999  5.8673917500000003
  1.9557952499999998  5.8673887499999999  3.9115940000000000
  1.9557952499999998  3.9115920000000002  5.8673917500000003
  3.9115915000000001  5.8673882500000003  5.8673912499999998
 -0.0000005000000000 -0.0000005000000000  3.9115950000000002
  1.9557957499999998  1.9557957499999998  3.9115945000000001
  1.9557957499999998 -0.0000010000000000  5.8673922500000000
  3.9115920000000002  1.9557952499999998  5.8673917500000003
  5.8673887499999999  1.9557952499999998  3.9115940000000000
  5.8673887499999999 -0.0000015000000000  5.8673917500000003
 -0.0000010000000000  1.9557957499999998  5.8673922500000000
  3.9115919999999997  3.9115919999999997  3.9115940000000000
  1.9557957499999998  5.8673892499999996 -0.0000010000000000
  1.9557957499999998  3.9115925000000002  1.9557967500000000
  3.9115920000000002  5.8673887499999999  1.9557962500000001
  5.8673887499999999  5.8673887499999999 -0.0000015000000000
  5.8673887499999999  3.9115920000000002  1.9557962500000001
 -0.0000010000000000  5.8673892499999996  1.9557967500000000
  3.9115929999999999 -0.0000005000000000 -0.0000005000000000
  0.0000000000000000  0.0000000000000000  0.0000000000000000
 -0.0000010000000000  3.9115924999999998  3.9115945000000001
  3.9115924999999998 -0.0000010000000000  3.9115945000000001
  3.9115924999999998  3.9115924999999998 -0.0000010000000000
