Tc O 
 1.0000000000000000
     4.7890709999999999   -0.0000780000000000    0.0000400000000000
    -0.0000900000000000    5.4932319999999999   -0.0495070000000000
     0.0000820000000000   -2.6008749999999998    4.8936080000000004
 Tc  O  
   4   8
Cartesian
  2.3689041673159998  3.4652731584900001  1.0395150485630000
  4.7633336518419993  0.7271782284170002  1.3578776593190001
  0.0256910335340000  2.1651950091340000  3.4861991788800002
  2.4202115165349998 -0.5731944941120000  3.8047251607260004
  3.7771644151119999  2.3591271623050001  1.8185292067780001
  1.3827854969750002  1.8338128461769998  0.5787698612120000
  0.9153338089670000  4.6831138636439995  0.3979965922340000
  1.4791921407850002  3.3826146251659996  2.8450687641540000
  3.3101007336349997 -0.4902488806630000  1.9991250278070003
  3.4060619970779995  1.0581943207010003  4.2651008574720004
  3.8738680738280000 -1.7909557843989998  4.4458678991129998
  1.0117501208489998  0.5335558507210001  3.0260756870170002
