Cs Pb Br
 1.0000000000000000
     4.6090739999999997    0.0000000000000000    0.0000000000000000
     0.0000000000000000    9.8455180000000002    0.0000000000000000
     0.0000000000000000    0.0000000000000000   16.9508340000000004
 Cs  Pb  Br 
   4   4  12
Cartesian
  1.1522684999999999  4.0598288838540002  2.9096106560999999
  1.1522684999999999  8.9825878838540003  5.5658063438999994
  3.4568054999999998  0.8629301161460000 11.3850276561000001
  3.4568054999999998  5.7856891161460000 14.0412233439000005
  3.4568054999999998  3.3131447987340001  7.4237194553040000
  1.1522684999999999  6.5323732012660010  9.5271145446959995
  1.1522684999999999  1.6096142012660000 15.8991364553040011
  3.4568054999999998  8.2359037987340002  1.0516975446960000
  1.1522684999999999  0.2776239165640000  1.9120032226979999
  3.4568054999999998  6.8782954761959996  3.5779142373840003
  1.1522684999999999  1.6165454459380000  8.4851298278820018
  1.1522684999999999  6.5393044459379999 16.9411211721179988
  3.4568054999999998  3.3062135540620003  0.0097128278820000
  3.4568054999999998  4.6451350834360001 10.3874202226980010
  1.1522684999999999  7.8899815238040008 12.0533312373840005
  3.4568054999999998  1.9555364761959999  4.8975027626159999
  1.1522684999999999  5.2003829165639992  6.5634137773020003
  3.4568054999999998  9.5678940834360002 15.0388307773019996
  3.4568054999999998  8.2289725540620005  8.4657041721180004
  1.1522684999999999  2.9672225238039998 13.3729197626160001
