Sr Al P 
 1.0000000000000000
     6.6823410000000001    0.0034670000000000    0.1087010000000000
     0.1029540000000000    8.0658790000000007    2.1048909999999998
     0.0057600000000000    0.0159190000000000    8.3366229999999995
 Sr  Al  P  
   6   4   8
Cartesian
  3.6382749678930000  0.0777945692380000  6.3028472599119993
  6.4221229025849995  2.0601788412820001  8.9070492006039999
  3.1527800321070005  8.0074704307619999  4.2473677400879994
  0.3689320974150000  6.0250861587180005  1.6431657993960000
  1.7153788463699999  3.2496899358000002  5.8611035201399995
  5.0756761536299999  4.8355750642000004  4.6891114798599993
  2.8471841692770004  3.3760896799410003  2.3577946557509999
  0.6266335756709999  6.6896800703789996  6.6035556931049992
  3.9438708307229997  4.7091753200590007  8.1924203442489993
  6.1644214243290003  1.3955849296210001  3.9466593068950000
  3.2163952670879996  2.4093193411560003  8.5224248320679994
  0.1708439151060000  0.4856990063230001  5.9900423161029996
  6.2184465929939998  4.7116991006450011  7.4932886947129997
  3.8984695884840002  2.1073260498750002  4.0928556078030001
  0.5726084070060000  3.3735658993550004  3.0569263052869999
  2.8925854115159999  5.9779389501250009  6.4573593921969996
  6.6202111878479997  7.5995740595560006  4.5601747887879993
  3.5746597386720005  5.6759456747630006  2.0277985045549998
