Cs K  Cu F 
 1.0000000000000000
     0.0000000000000000    4.5599530000000001    4.5599530000000001
     4.5599530000000001    0.0000000000000000    4.5599530000000001
     4.5599530000000001    4.5599530000000001    0.0000000000000000
 Cs  K   Cu  F  
   2   1   1   6
Cartesian
  6.8399295000000002  6.8399295000000002  6.8399295000000002
  2.2799765000000001  2.2799765000000001  2.2799765000000001
  4.5599530000000001  4.5599530000000001  4.5599530000000001
  0.0000000000000000  0.0000000000000000  0.0000000000000000
  4.5599530000000001  7.1733897429840008  4.5599530000000001
  4.5599530000000001  4.5599530000000001  1.9465162570160000
  4.5599530000000001  4.5599530000000001  7.1733897429840008
  1.9465162570160000  4.5599530000000001  4.5599530000000001
  4.5599530000000001  1.9465162570160000  4.5599530000000001
  7.1733897429840008  4.5599530000000001  4.5599530000000001
