La Ni Sn
 1.0000000000000000
     4.7417259999999999    0.0000000000000000    0.0000000000000000
     0.0000000000000000    7.2186909999999997    0.0000000000000000
     0.0000000000000000    0.0000000000000000    7.8528750000000000
 La  Ni  Sn 
   4   4   4
Cartesian
  1.1854315000000000  5.8798836923760005  3.6484378721249997
  3.5562944999999999  1.3388073076239999  4.2044371278749999
  3.5562944999999999  2.2705381923759997  0.2779996278750000
  1.1854315000000000  4.9481528076239991  7.5748753721249997
  3.5562944999999999  4.1437885068759996  2.5777847475000000
  3.5562944999999999  6.6842479931240000  6.5042222475000004
  1.1854315000000000  0.5344430068760000  1.3486527525000001
  1.1854315000000000  3.0749024931240001  5.2750902525000001
  3.5562944999999999  4.3608762013189999  5.3251130662500001
  3.5562944999999999  6.4671602986809997  1.3986755662499999
  1.1854315000000000  0.7515307013189999  6.4541994337500004
  1.1854315000000000  2.8578147986809999  2.5277619337499999
