Zn O 
 1.0000000000000000
     4.3361830000000001    0.0000000000000000    0.0000000000000000
     0.0000000000000000    4.3361830000000001    0.0000000000000000
     0.0000000000000000    0.0000000000000000    4.3361830000000001
 Zn  O  
   4   4
Cartesian
  0.0000000000000000  0.0000000000000000  0.0000000000000000
  0.0000000000000000  2.1680915000000001  2.1680915000000001
  2.1680915000000001  0.0000000000000000  2.1680915000000001
  2.1680915000000001  2.1680915000000001  0.0000000000000000
  0.0000000000000000  0.0000000000000000  2.1680915000000001
  0.0000000000000000  2.1680915000000001  0.0000000000000000
  2.1680915000000001  0.0000000000000000  0.0000000000000000
  2.1680915000000001  2.1680915000000001  2.1680915000000001
