Li Fe N 
 1.0000000000000000
     6.4770450000000004    0.0000000000000000    0.0000000000000000
     0.0000000000000000    6.4770450000000004    0.0000000000000000
     0.0000000000000000    0.0000000000000000    4.9005330000000002
 Li  Fe  N  
  12   2   8
Cartesian
  0.0000000000000000  3.2385225000000002  2.9978422563540001
  3.2385225000000002  0.0000000000000000  4.3529572436460002
  3.2385225000000002  0.0000000000000000  1.9026907436460001
  0.0000000000000000  3.2385225000000002  0.5475757563540000
  1.3937370201450001  1.3937370201450001  2.4502665000000001
  5.0833079798550003  5.0833079798550003  2.4502665000000001
  4.6322595201450003  4.6322595201450003  0.0000000000000000
  1.8447854798550001  1.8447854798550001  0.0000000000000000
  5.0833079798550003  1.3937370201450001  2.4502665000000001
  1.3937370201450001  5.0833079798550003  2.4502665000000001
  1.8447854798550001  4.6322595201450003  0.0000000000000000
  4.6322595201450003  1.8447854798550001  0.0000000000000000
  3.2385225000000002  3.2385225000000002  2.4502665000000001
  0.0000000000000000  0.0000000000000000  0.0000000000000000
  1.7197072638600002  3.2385225000000002  1.5417370849980001
  4.7573377361400002  3.2385225000000002  1.5417370849980001
  4.9582297638600004  0.0000000000000000  0.9085294150020000
  1.5188152361400000  0.0000000000000000  0.9085294150020000
  3.2385225000000002  1.7197072638600002  3.3587959150019997
  3.2385225000000002  4.7573377361400002  3.3587959150019997
  0.0000000000000000  4.9582297638600004  3.9920035849980007
  0.0000000000000000  1.5188152361400000  3.9920035849980007
