Er Ga
 1.0000000000000000
     4.1458830000000004    0.0000000000000000    0.0000000000000000
    -2.0729410000000001    3.5904400000000001    0.0000000000000000
     0.0000000000000000    0.0000000000000000    4.0640980000000004
 Er  Ga 
   1   2
Cartesian
  0.0000000000000000  0.0000000000000000  0.0000000000000000
  2.0729437396080002  1.1968121365200000  2.0320490000000002
 -0.0000017396080000  2.3936278634799999  2.0320490000000002
