Sc Ga Ni
 1.0000000000000000
     4.1493690000000001    0.0000000000000000    0.0000000000000000
     0.0000000000000000    4.1493690000000001    0.0000000000000000
     0.0000000000000000    0.0000000000000000    6.5001689999999996
 Sc  Ga  Ni 
   1   5   1
Cartesian
  0.0000000000000000  0.0000000000000000  0.0000000000000000
  0.0000000000000000  2.0746845000000000  1.9497191913810001
  0.0000000000000000  2.0746845000000000  4.5504498086189997
  2.0746845000000000  0.0000000000000000  1.9497191913810001
  2.0746845000000000  0.0000000000000000  4.5504498086189997
  2.0746845000000000  2.0746845000000000  0.0000000000000000
  0.0000000000000000  0.0000000000000000  3.2500844999999998
