Ti Zn Re
 1.0000000000000000
     0.0000000000000000    3.1170490000000002    3.1170490000000002
     3.1170490000000002    0.0000000000000000    3.1170490000000002
     3.1170490000000002    3.1170490000000002    0.0000000000000000
 Ti  Zn  Re 
   2   1   1
Cartesian
  3.1170552340980002  3.1170552340980002  3.1170552340980002
  0.0000000000000000  0.0000000000000000  0.0000000000000000
  4.6755735000000005  4.6755735000000005  4.6755735000000005
  1.5585182659020000  1.5585182659020000  1.5585182659020000
