Ta B 
 1.0000000000000000
     3.1193689999999998    0.0000000000000000   -0.4331540000000000
     0.0000000000000000    3.2870080000000002    0.0000000000000000
    -0.0007850000000000    0.0000000000000000   11.4430340000000008
 Ta  B  
   5   6
Cartesian
  0.6059442364349999  1.6435040000000001  4.3637123928660007
  2.5126397635649997  1.6435040000000001  6.6461676071340001
  1.2022731815390000  0.0000000000000000  8.6581685559220016
  1.9163108184610000  0.0000000000000000  2.3517114440780000
  0.0000000000000000  0.0000000000000000  0.0000000000000000
  1.4354034831800000  1.6435040000000001 10.3370741903920003
  1.6831805168200000  1.6435040000000001  0.6728058096080001
  0.8520476981449999  0.0000000000000000  6.1360674885580000
  2.2665363018550000  0.0000000000000000  4.8738125114420008
  0.2571155285630000  1.6435040000000001  1.8516473449060000
  2.8614684714370000  1.6435040000000001  9.1582326550940003
