In Bi
 1.0000000000000000
     3.3835380000000002    3.3835380000000002    0.0000000000000000
     3.3835380000000002    0.0000000000000000   -3.3835380000000002
     0.0000000000000000    3.3835380000000002   -3.3835380000000002
 In  Bi 
   1   1
Cartesian
  0.0000000000000000  0.0000000000000000  0.0000000000000000
  5.0753070000000005  5.0753070000000005 -5.0753070000000005
