Sr Ni Ge
 1.0000000000000000
     4.0189529999999998    0.0000000000000000    0.0000000000000000
    -2.0094759999999998    3.4805150000000000    0.0000000000000000
     0.0000000000000000    0.0000000000000000   14.1963310000000007
 Sr  Ni  Ge 
   2   6   4
Cartesian
  0.0000000000000000  0.0000000000000000 10.6472482500000005
  0.0000000000000000  0.0000000000000000  3.5490827500000002
  0.0000000000000000  0.0000000000000000  7.0981655000000003
  0.0000000000000000  0.0000000000000000  0.0000000000000000
 -0.0000016761430001  2.3203444935049999  6.0705356879030008
  2.0094786761429999  1.1601705064949999 13.1687011879030003
 -0.0000016761430001  2.3203444935049999  1.0276298120970002
  2.0094786761429999  1.1601705064949999  8.1257953120970008
 -0.0000016761430001  2.3203444935049999  8.4341254250860000
  2.0094786761429999  1.1601705064949999  5.7622055749139998
  2.0094786761429999  1.1601705064949999  1.3359599250859999
 -0.0000016761430001  2.3203444935049999 12.8603710749140010
