Tm Co C 
 1.0000000000000000
     3.4630320000000001    0.0000000000000000    0.0000000000000000
     0.0000000000000000    3.5598399999999999   -1.0365560000000000
     0.0000000000000000    0.0054980000000000    3.7076780000000000
 Tm  Co  C  
   1   1   2
Cartesian
  0.0000000000000000  3.5328803159300000 -1.0005709851100002
  1.7315160000000001  2.1692712249980000  0.8195354120539999
  1.7315160000000001  1.6201393614440001  2.7003407266639998
  1.7315160000000001  0.5185461835700000  1.8750361489580003
