Er Al O 
 1.0000000000000000
    -5.9616910000000001    5.9616910000000001    5.9616910000000001
     5.9616910000000001   -5.9616910000000001    5.9616910000000001
     5.9616910000000001    5.9616910000000001   -5.9616910000000001
 Er  Al  O  
  12  20  48
Cartesian
  2.9808455000000000  4.4712682499999996  5.9616909999999992
  0.0000000000000002  2.9808455000000000  7.4521137499999988
  5.9616910000000001  2.9808455000000000  4.4712682500000014
  7.4521137500000005 -0.0000000000000002  2.9808455000000000
  4.4712682500000005  5.9616910000000001  2.9808454999999991
  2.9808455000000000  7.4521137500000005 -0.0000000000000002
  2.9808455000000000  1.4904227500000000 -0.0000000000000002
  5.9616910000000001  2.9808455000000000 -1.4904227500000000
  0.0000000000000002  2.9808455000000000  1.4904227500000000
 -1.4904227499999994  5.9616909999999992  2.9808455000000000
  1.4904227500000000  0.0000000000000000  2.9808455000000000
  2.9808455000000000 -1.4904227500000002  5.9616910000000001
  8.9425365000000010  1.4904227499999998 -0.0000000000000002
 -2.9808455000000000  4.4712682499999996  5.9616910000000001
  1.4904227500000002  5.9616910000000001  2.9808454999999991
  5.9616910000000001 -2.9808454999999996  4.4712682499999996
  4.4712682499999996  5.9616910000000001 -2.9808455000000000
  5.9616910000000001  2.9808455000000000  1.4904227500000000
  2.9808455000000000  4.4712682499999996 -0.0000000000000002
  0.0000000000000004  8.9425364999999992  1.4904227500000000
 -0.0000000000000002  2.9808455000000000  4.4712682499999996
  1.4904227500000005 -0.0000000000000004  8.9425364999999992
  4.4712682499999996  0.0000000000000002  2.9808455000000000
  2.9808455000000000  1.4904227500000002  5.9616910000000010
  0.0000000000000000  5.9616910000000001  0.0000000000000000
  2.9808455000000000 -2.9808455000000000  2.9808455000000000
  2.9808455000000000  2.9808455000000000  2.9808455000000000
  2.9808455000000000  2.9808455000000000 -2.9808455000000000
  0.0000000000000000  0.0000000000000000  0.0000000000000000
  5.9616910000000001  0.0000000000000000  0.0000000000000000
  0.0000000000000000  0.0000000000000000  5.9616910000000001
 -2.9808455000000000  2.9808455000000000  2.9808455000000000
 -2.3664753573769999  3.3388033127129995  7.1634665568529998
  7.1634665568529998 -2.3664753573769994  3.3388033127129999
  2.6228876872870002  4.7599154431470003  3.5952037192409998
  2.3664813190679999  9.3005002744040013 -1.2017815185440004
  4.1826270185440002  5.6037272255959998  0.6143641809320001
  7.1634725185440002  2.3664813190679999  2.6228817255959997
  7.7407549814559999  0.3579637744040002  0.6143641809319994
  3.3388033127129995  7.1634665568529998 -2.3664753573769999
  4.1826210568529998  6.3196488127129999  5.3473327807590003
  0.6143641809319995  7.7407549814559999  0.3579637744040005
  5.6037272255959998  0.6143641809320001  4.1826270185440002
  5.6037331872870002 -0.6143701426230004  1.7790699431470001
 -0.6143701426230002  1.7790699431470003  5.6037331872870002
  0.3579637744040000  0.6143641809320000  7.7407549814559991
  5.3473327807590003  4.1826210568529998  6.3196488127130008
  6.3196488127129999  5.3473327807590003  4.1826210568529989
  0.6143641809319998  4.1826270185440002  5.6037272255959998
  3.5952037192409994  2.6228876872870002  4.7599154431470003
  2.3664813190680003  2.6228817255959997  7.1634725185440011
  1.7790699431470001 -0.3579578127130000  0.6143582192410000
 -1.2017815185439999  2.3664813190679999  9.3005002744039995
  9.3005002744039995 -1.2017815185440002  2.3664813190679999
  2.6228817255959997  7.1634725185440002  2.3664813190679999
  1.7790699431470005  5.6037331872870002 -0.6143701426230006
  8.3281663573770004  2.6228876872870002 -1.2017755568530002
 -1.2017755568530002  8.3281663573770004  2.6228876872870006
  3.3388033127130003  1.2017755568530000  2.3664872807589998
  3.5952096809319998 -3.3388092744039999  7.1634725185440002
  1.7790639814560003  0.3579637744039998  5.3473268190679999
 -1.2017815185439997  3.5952096809319998  3.3388092744039994
 -1.7790639814560008  5.6037272255960007  5.3473268190680008
  2.6228876872870002 -1.2017755568530000  8.3281663573770004
  4.1826210568529998  0.3579578127130001  6.5760611426229998
  3.3388092744039999 -1.2017815185439997  3.5952096809319993
 -3.3388092744040003  7.1634725185440002  3.5952096809320002
  1.2017755568529997  2.3664872807589998  3.3388033127129999
  7.1634725185440002  3.5952096809319998 -3.3388092744039999
  3.5952096809319998  3.3388092744039999 -1.2017815185439997
  2.3664872807589994  3.3388033127130003  1.2017755568530000
  5.3473268190679999  1.7790639814560005  0.3579637744039998
 -0.3579578127130000  0.6143582192410000  1.7790699431470001
  0.6143582192410000  1.7790699431470001 -0.3579578127130000
  5.6037272255960007  5.3473268190679999 -1.7790639814560003
  6.5760611426229998  4.1826210568530007  0.3579578127130003
  0.3579578127129998  6.5760611426229998  4.1826210568530007
  0.3579637744039997  5.3473268190679999  1.7790639814560001
  5.3473268190679999 -1.7790639814560005  5.6037272255960007
  4.7599154431470003  3.5952037192409998  2.6228876872870002
