Eu Te
 1.0000000000000000
     4.0230720000000000   -0.0000000000000000    2.3227199999999999
     1.3410240000000000    3.7929879999999998    2.3227199999999999
    -0.0000000000000000   -0.0000000000000000    4.6454430000000002
 Eu  Te 
   1   1
Cartesian
  0.0000000000000000  0.0000000000000000  0.0000000000000000
  2.6820480000000000  1.8964939999999999  4.6454415000000004
