Cs Ho O 
 1.0000000000000000
     3.5114700000000001   -0.0000010000000000   -0.0000190000000000
    -1.7557360000000000    3.0410200000000001    0.0000200000000000
    -0.0000700000000000    0.0000410000000000   13.6562880000000000
 Cs  Ho  O  
   2   2   4
Cartesian
 -0.0000584338139998  2.0272017178770003 10.2422229994229994
  1.7558330451800002  1.0136727799020002  3.4140659993379998
 -0.0000087787640000  0.0000577794140000  0.0000136565350000
 -0.0000525572980000  0.0000752383150000  6.8281303439960004
 -0.0000580383159999  2.0273918658340002  5.7122137700420001
 -0.0000116540679999  2.0273689435219997  1.1159578865910000
  1.7556904350760001  1.0136985443700000  7.9440752302340005
  1.7556300048720004  1.0137397128440000 12.5403447701120001
