Ti Co Tc
 1.0000000000000000
     0.0000010000000000    3.0321590000000000    3.0321590000000000
     3.0321590000000000    0.0000000000000000    3.0321590000000000
     3.0321590000000000    3.0321590000000000    0.0000000000000000
 Ti  Co  Tc 
   2   1   1
Cartesian
  0.0000000000000000  0.0000000000000000  0.0000000000000000
  3.0321595000000001  3.0321590000000000  3.0321590000000000
  1.5160797500000001  1.5160795000000000  1.5160795000000000
  4.5482453143190007  4.5482445643179998  4.5482445643179998
