Ta Sb
 1.0000000000000000
    10.3612610000000007    0.0000000000000000    0.0000000000000000
     0.0000000000000000   10.3612610000000007    0.0000000000000000
     0.0000000000000000    0.0000000000000000    3.5754470000000000
 Ta  Sb 
  10   8
Cartesian
  9.0372576243760001  8.4251868533229999  1.7877235000000000
  1.9360741466770002  9.0372576243760001  1.7877235000000000
  8.4251868533229999  1.3240033756240002  1.7877235000000000
  1.3240033756240002  1.9360741466770002  1.7877235000000000
  0.0000000000000000  0.0000000000000000  0.0000000000000000
  3.8566271243760002  3.2445563533230004  0.0000000000000000
  7.1167046466770012  3.8566271243760002  0.0000000000000000
  3.2445563533230004  6.5046338756240010  0.0000000000000000
  6.5046338756240010  7.1167046466770012  0.0000000000000000
  5.1806305000000004  5.1806305000000004  1.7877235000000000
  3.0691298433320000  0.5444428205060000  0.0000000000000000
  9.8168181794940015  3.0691298433320000  0.0000000000000000
  0.5444428205060000  7.2921311566679998  0.0000000000000000
  7.2921311566679998  9.8168181794940015  0.0000000000000000
  8.2497603433320013  5.7250733205060005  1.7877235000000000
  4.6361876794940002  8.2497603433320013  1.7877235000000000
  5.7250733205060005  2.1115006566679999  1.7877235000000000
  2.1115006566679999  4.6361876794940002  1.7877235000000000
