Ba Sb O 
 1.0000000000000000
     5.3281479999999997    0.0000000000000000    0.0000000000000000
    -2.6640739999999998    4.6143109999999998    0.0000000000000000
     0.0000000000000000    0.0000000000000000    5.8155820000000000
 Ba  Sb  O  
   1   2   6
Cartesian
  0.0000000000000000  0.0000000000000000  0.0000000000000000
  2.6640766640739999  1.5381021285629999  2.9077910000000000
 -0.0000026640740001  3.0762088714369997  2.9077910000000000
  1.0291264580519999  1.7824991106779997  4.0298028664240002
  3.2698950838959995  0.0000000000000000  4.0298028664240002
 -1.6349475419479997  2.8318118893219997  4.0298028664240002
  2.0582529161039997  0.0000000000000000  1.7857791335760000
 -1.0291264580519999  1.7824991106779997  1.7857791335760000
  1.6349475419479997  2.8318118893219997  1.7857791335760000
