Ti Zn Pd
 1.0000000000000000
     0.0000000000000000    3.0903969999999998    3.0903969999999998
     3.0903969999999998    0.0000000000000000    3.0903969999999998
     3.0903969999999998    3.0903969999999998    0.0000000000000000
 Ti  Zn  Pd 
   1   1   2
Cartesian
  1.5451984999999999  1.5451984999999999  1.5451984999999999
  4.6355955000000000  4.6355955000000000  4.6355955000000000
  0.0000000000000000  0.0000000000000000  0.0000000000000000
  3.0903969999999998  3.0903969999999998  3.0903969999999998
