Sc Ni Sn
 1.0000000000000000
     3.8051520000000001    0.0000000000000000    2.1969059999999998
     1.2683840000000000    3.5875309999999998    2.1969059999999998
     0.0000000000000000    0.0000000000000000    4.3938110000000004
 Sc  Ni  Sn 
   1   2   1
Cartesian
  0.0000000000000000  0.0000000000000000  0.0000000000000000
  1.2683840000000000  0.8968827500000000  2.1969057500000000
  3.8051520000000001  2.6906482499999997  6.5907172500000000
  2.5367679999999999  1.7937654999999999  4.3938115000000000
