Cd Pd
 1.0000000000000000
     3.0781429999999999    0.0000000000000000    0.0000000000000000
     0.0000000000000000    3.0781429999999999    0.0000000000000000
     0.0000000000000000    0.0000000000000000    3.7196370000000001
 Cd  Pd 
   1   1
Cartesian
  0.0000000000000000  0.0000000000000000  0.0000000000000000
  1.5390714999999999  1.5390714999999999  1.8598185000000000
