Sm Ga
 1.0000000000000000
     6.3823800000000004    0.0000000000000000    0.0000000000000000
    -3.1911900000000002    5.5273050000000001    0.0000000000000000
     0.0000000000000000    0.0000000000000000    4.5062980000000001
 Sm  Ga 
   2   6
Cartesian
  0.0000000000000002  3.6848773697400001  3.3797234999999999
  3.1911900000000002  1.8424386848700001  1.1265790062979999
  0.0000095735700001  1.5714736118549999  1.1265790062979999
  1.8302719214100005  4.7415709577250000  1.1265790062979999
 -1.8302527742699999  4.7415709577250000  1.1265790062979999
  3.1911804264300003  3.9558424427549999  3.3797234999999999
  1.3609180785899999  0.7857450968850000  3.3797234999999999
  5.0214427742699996  0.7857450968850000  3.3797234999999999
