Ca Ge Ru
 1.0000000000000000
     3.9678629999999999    0.0000000000000000   -1.5535319999999999
    -0.6082510000000000    3.9209660000000000   -1.5535319999999999
    -0.0076680000000000   -0.0089500000000000    5.8243220000000004
 Ca  Ge  Ru 
   1   2   2
Cartesian
  0.0000000000000000  0.0000000000000000  0.0000000000000000
  1.2249113071280000  1.4295798779360001  3.1285388725020007
  2.1270326928720000  2.4824361220639997 -0.4112808725019998
  0.5319435000000000  2.9362495000000002  1.3586290000000003
  2.8200005000000004  0.9757665000000000  1.3586290000000003
