La Si Ag
 1.0000000000000000
     0.0000000000000000    0.0000000000000000    4.2978709999999998
     4.3527649999999998    0.0000000000000000    0.0000000000000000
    -2.1763830000000000    8.7370370000000008    0.0000000000000000
 La  Si  Ag 
   2   4   2
Cartesian
  0.0000017751540000  7.0110964999090006  1.0744677499999999
  2.1763802248460000  1.7259405000910002  3.2234032499999996
 -0.0000022083530000  0.5586548828170000  1.0744677499999999
  2.1763842083529994  8.1783821171830002  3.2234032499999996
 -0.0000001658450000  2.8979878025300003  1.0744677499999999
  2.1763821658449998  5.8390491974700005  3.2234032499999996
  2.1763822522179996  4.3297610038680006  1.0744677499999999
 -0.0000002522180001  4.4072759961320003  3.2234032499999996
