Ca Cd Sn
 1.0000000000000000
     0.0000000000000000    3.8256730000000001    3.8256730000000001
     3.8256730000000001    0.0000000000000000    3.8256730000000001
     3.8256730000000001    3.8256730000000001    0.0000000000000000
 Ca  Cd  Sn 
   2   1   1
Cartesian
  3.8256730000000001  3.8256730000000001  3.8256730000000001
  0.0000000000000000  0.0000000000000000  0.0000000000000000
  1.9128288486539999  1.9128288486539999  1.9128288486539999
  5.7385018486539998  5.7385018486539998  5.7385018486539998
