Zr Au
 1.0000000000000000
     5.5080590000000003    0.0000000000000000    0.0000000000000000
     0.0000000000000000    5.5080590000000003    0.0000000000000000
     0.0000000000000000    0.0000000000000000    5.5079940000000001
 Zr  Au 
   6   2
Cartesian
  2.7540295000000001  1.3771579595340002  0.0000000000000000
  2.7540295000000001  4.1309010404660000  0.0000000000000000
  1.3768715404660001  0.0000000000000000  2.7539970000000000
  4.1311874595339999  0.0000000000000000  2.7539970000000000
  0.0000000000000000  2.7540295000000001  1.3769985000000000
  0.0000000000000000  2.7540295000000001  4.1309955000000000
  2.7540295000000001  2.7540295000000001  2.7539970000000000
  0.0000000000000000  0.0000000000000000  0.0000000000000000
