La I 
 1.0000000000000000
     4.4552259999999997   -0.0000000000000000    0.0000000000000000
    -2.2276140000000000    7.3146800000000001    0.0000000000000000
     0.0000000000000000    0.0000000000000000   10.1611890000000002
 La  I  
   2   6
Cartesian
  2.2276102874779999  3.5469541641199998  2.5402972500000001
  0.0000017125220000  3.7677258358799999  7.6208917500000002
 -0.0000007035880001  5.1465210718399996  4.4069483140559997
  2.2276127035879996  2.1681589281600000  5.7542508471330009
  2.2276121716339992  6.0592322128800005  7.6208917500000002
 -0.0000001716340000  1.2554477871200000  2.5402972500000001
 -0.0000007035880001  5.1465210718399996  0.6736563471329999
  2.2276127035879996  2.1681589281600000  9.4875326528669994
