Hf O 
 1.0000000000000000
     5.0676699999999997    0.0000000000000000   -0.8638610000000000
     0.0000000000000000    5.1934649999999998    0.0000000000000000
     0.0000060000000000    0.0000000000000000    5.3241470000000000
 Hf  O  
   4   8
Cartesian
  1.3984531220999998  2.3751792831000000  3.5304437953700001
  3.6692258778999998  4.9719117830999995  3.5919157046299999
  3.6692228778999998  2.8182857169000002  0.9298422046300001
  1.3984501220999999  0.2215532169000000  0.8683702953700000
  2.2747562374200001  3.8568436868100000  4.8176262947900002
  2.7929227625799995  1.2601111868099999  2.3047332052100002
  2.7929197625799995  1.3366213131899998 -0.3573402947900000
  2.2747532374200001  3.9333538131899997  2.1555527947899997
  0.3438536274700000  1.7144199246149998  1.7894233478629999
  4.7238193725300004  4.3111524246149999  0.0087891521370000
  4.7238223725299999  3.4790450753849997  2.6708626521370000
  0.3438566274700000  0.8823125753850001  4.4514968478629999
