Er Fe B 
 1.0000000000000000
     3.2633770000000002   -0.0000000000000000   -1.1443850000000000
    -0.4013070000000000    3.2386070000000000   -1.1443850000000000
     0.0369620000000000    0.0418250000000000    5.3305870000000004
 Er  Fe  B  
   1   2   2
Cartesian
  0.0000000000000000  0.0000000000000000  0.0000000000000000
  0.5333450000000000  2.4498677500000001  1.5209085000000002
  2.3656870000000003  0.8305642500000000  1.5209085000000002
  1.7636567332160000  1.9956853596120001 -0.1958616478489999
  1.1353752667840000  1.2847466403880001  3.2376786478490005
