Y  Al Cu
 1.0000000000000000
     8.8142259999999997    0.0000000000000000    0.0000000000000000
     0.0000000000000000    8.8142259999999997    0.0000000000000000
     0.0000000000000000    0.0000000000000000    5.1541940000000004
 Y   Al  Cu 
   2  16   8
Cartesian
  0.0000000000000000  0.0000000000000000  0.0000000000000000
  4.4071129999999998  4.4071129999999998  2.5770970000000002
  0.0000000000000000  3.0646623090699996  0.0000000000000000
  5.7495636909299996  0.0000000000000000  0.0000000000000000
  3.0646623090699996  0.0000000000000000  0.0000000000000000
  0.0000000000000000  5.7495636909299996  0.0000000000000000
  0.0000000000000000  6.8829056842359995  2.5770970000000002
  1.9313203157640000  0.0000000000000000  2.5770970000000002
  6.8829056842359995  0.0000000000000000  2.5770970000000002
  0.0000000000000000  1.9313203157640000  2.5770970000000002
  4.4071129999999998  7.4717753090699999  2.5770970000000002
  1.3424506909300000  4.4071129999999998  2.5770970000000002
  7.4717753090699999  4.4071129999999998  2.5770970000000002
  4.4071129999999998  1.3424506909300000  2.5770970000000002
  4.4071129999999998  2.4757926842360001  0.0000000000000000
  6.3384333157640000  4.4071129999999998  0.0000000000000000
  2.4757926842360001  4.4071129999999998  0.0000000000000000
  4.4071129999999998  6.3384333157640000  0.0000000000000000
  6.6106695000000002  2.2035564999999999  1.2885485000000001
  2.2035564999999999  2.2035564999999999  3.8656455000000003
  2.2035564999999999  2.2035564999999999  1.2885485000000001
  6.6106695000000002  2.2035564999999999  3.8656455000000003
  2.2035564999999999  6.6106695000000002  3.8656455000000003
  6.6106695000000002  6.6106695000000002  1.2885485000000001
  6.6106695000000002  6.6106695000000002  3.8656455000000003
  2.2035564999999999  6.6106695000000002  1.2885485000000001
