Tc Pd
 1.0000000000000000
     5.4995440000000002    0.0000000000000000    0.0000000000000000
    -2.7497720000000001    4.7627439999999996    0.0000000000000000
     0.0000000000000000    0.0000000000000000    4.3705660000000002
 Tc  Pd 
   6   2
Cartesian
  4.1998835126039999  0.7503655544560000  3.2779288705660004
  1.2996549878520003  0.7503655544560000  3.2779288705660004
  2.7497637506839996  3.2620271793199995  3.2779288705660004
 -1.4501060130599999  4.0123784455439990  1.0926371294340000
  1.4501115126040001  4.0123784455439990  1.0926371294340000
  0.0000027497719999  1.5007168206799999  1.0926371294340000
  2.7497747497720000  1.5875797457519998  1.0926371294340000
 -0.0000027497720002  3.1751642542479996  3.2779288705660004
