Ba Mn N 
 1.0000000000000000
     8.2026199999999996   -0.0001000000000000    0.0000000000000000
    -4.1013570000000001    7.1034579999999998    0.0000000000000000
     0.0000000000000000    0.0000000000000000    5.5337630000000004
 Ba  Mn  N  
   6   2   6
Cartesian
  2.2661367162879995  5.1267576488879998  4.1503222500000003
  4.8953921023299989  4.5257346578399993  1.3834407500000001
  5.5730939273099995  0.6009514079800000  1.3834407500000001
 -1.4718883464020005  6.5025202472480004  4.1503222500000003
 -0.7942152290410001  2.5775025852739999  4.1503222500000003
  1.8351960064050001  1.9765364195899997  1.3834407500000001
 -0.0001584744290004  4.7356787367659994  1.3834407500000001
  4.1014378794809998  2.3677076766659999  4.1503222500000003
  4.8581972750379991  3.9129667236279997  4.1503222500000003
 -0.9599687944260002  6.1639087538039998  1.3834407500000001
  1.7160134139139991  4.8527290817640001  1.3834407500000001
  2.3849501909730000  2.2505507843979999  4.1503222500000003
  5.0614532664819993  0.9392503480719999  4.1503222500000003
 -0.7568071366370002  3.1907251349979999  1.3834407500000001
