Dy Se
 1.0000000000000000
     3.5147260000000000   -0.0000000000000000    2.0292279999999998
     1.1715750000000000    3.3137159999999999    2.0292279999999998
    -0.0000000000000000    0.0000000000000000    4.0584559999999996
 Dy  Se 
   1   1
Cartesian
  0.0000000000000000  0.0000000000000000  0.0000000000000000
  2.3431505000000001  1.6568579999999999  4.0584559999999996
