Li Ce O 
 1.0000000000000000
     0.0000000000000000    4.4834649999999998    0.0000000000000000
    -4.7427880000000000    2.2417319999999998    0.0000000000000000
     0.0000000000000000    0.0000000000000000    3.5303320000000000
 Li  Ce  O  
   2   1   3
Cartesian
 -3.2727845733400001  4.4834668967050000  1.7651660000000000
 -1.4700034266600002  2.2417301032949997  1.7651660000000000
  0.0000000000000000  0.0000000000000000  0.0000000000000000
 -3.3636943337240002  2.2417299036560001  1.7651660000000000
 -1.3790936662760001  4.4834670963440004  1.7651660000000000
  0.0000000000000000  2.2417324999999999  0.0000000000000000
