Li Mg Rh
 1.0000000000000000
     0.0000000000000000    3.1672660000000001    3.1672660000000001
     3.1672660000000001    0.0000000000000000    3.1672660000000001
     3.1672660000000001    3.1672660000000001    0.0000000000000000
 Li  Mg  Rh 
   1   2   1
Cartesian
  1.5836330000000001  1.5836330000000001  1.5836330000000001
  0.0000000000000000  0.0000000000000000  0.0000000000000000
  3.1672596654680003  3.1672596654680003  3.1672596654680003
  4.7508990000000004  4.7508990000000004  4.7508990000000004
