Ho H 
 1.0000000000000000
     3.1471320000000000    0.0000000000000000    1.8169970000000000
     1.0490440000000001    2.9671449999999999    1.8169970000000000
     0.0000000000000000    0.0000000000000000    3.6339950000000001
 Ho  H  
   1   2
Cartesian
  0.0000000000000000  0.0000000000000000  0.0000000000000000
  3.1471320000000005  2.2253587499999998  5.4509917500000000
  1.0490440000000001  0.7417862500000000  1.8169972500000000
