Hg P  Pd
 1.0000000000000000
     3.9508610000000002    0.0000000000000000    0.0000000000000000
     0.0000000000000000    3.9508610000000002    0.0000000000000000
     0.0000000000000000    0.0000000000000000    7.0605110000000000
 Hg  P   Pd 
   1   1   5
Cartesian
  1.9754305000000001  1.9754305000000001  0.0000000000000000
  0.0000000000000000  0.0000000000000000  3.5302555000000000
  0.0000000000000000  1.9754305000000001  2.1385864188340000
  0.0000000000000000  1.9754305000000001  4.9219245811660004
  1.9754305000000001  0.0000000000000000  2.1385864188340000
  1.9754305000000001  0.0000000000000000  4.9219245811660004
  0.0000000000000000  0.0000000000000000  0.0000000000000000
