Tb B  C 
 1.0000000000000000
    -3.2829510000000002    0.0000000000000000    0.0000000000000000
    -1.6414750000000000   -3.2930079999999999    3.8060139999999998
    -1.6414750000000000    3.2930079999999999    3.8060139999999998
 Tb  B   C  
   2   4   1
Cartesian
 -1.6414752663190000 -0.0000000000000001  1.7787863150679999
 -4.9244257336810007  0.0000000000000001  5.8332416849319992
 -3.2829505000000001  0.8835403904639999  3.8060139999999998
 -3.2829505000000001 -0.8835403904640001  3.8060139999999998
 -1.6414750000000000 -1.8021842462080002  3.8060140000000002
 -1.6414750000000000  1.8021842462080002  3.8060139999999998
  0.0000000000000000  0.0000000000000000  0.0000000000000000
