Mg Sc Tl
 1.0000000000000000
     0.0000000000000000    3.5642570000000000    3.5642570000000000
     3.5642570000000000    0.0000000000000000    3.5642570000000000
     3.5642570000000000    3.5642570000000000    0.0000000000000000
 Mg  Sc  Tl 
   1   2   1
Cartesian
  1.7821356285139998  1.7821356285139998  1.7821356285139998
  0.0000000000000000  0.0000000000000000  0.0000000000000000
  3.5642570000000000  3.5642570000000000  3.5642570000000000
  5.3463855000000002  5.3463855000000002  5.3463855000000002
