Na Sb S 
 1.0000000000000000
     5.3667559999999996   -0.0203250000000000   -2.3294350000000001
    -1.0385960000000001    5.2653379999999999   -2.3294350000000001
    -0.0019040000000000   -0.0023050000000000    6.8550909999999998
 Na  Sb  S  
   2   2   4
Cartesian
  3.0253440234159998  1.9088888001709998  2.8118832499999997
  1.3009119765840000  3.3338191998290001 -0.6156622500000002
  4.7110317064559997  0.5198062179110000 -0.6156622500000002
 -0.3847757064560001  4.7229017820890000  2.8118832499999997
  2.7917847266720002  4.5507335986429993  1.5854012902859995
  0.3871918580000000  1.6367652944890001  4.0383652097139997
  1.5344712733279999  0.6919744013570001  0.6108197097139999
  3.9390641419999999  3.6059427055110000 -1.8421442097140004
