Ti Al C 
 1.0000000000000000
     3.0808190000000000    0.0000000000000000    0.0000000000000000
    -1.5404089999999999    2.6680670000000002    0.0000000000000000
     0.0000000000000000    0.0000000000000000   18.6608340000000013
 Ti  Al  C  
   6   2   4
Cartesian
  1.5404112070759999  0.8893547773110000  6.9606030470040006
 -0.0000012070760000  1.7787122226890002 16.2910200470040003
 -0.0000012070760000  1.7787122226890002 11.7002309529960016
  1.5404112070759999  0.8893547773110000  2.3698139529960001
  0.0000000000000000  0.0000000000000000  9.3304170000000006
  0.0000000000000000  0.0000000000000000  0.0000000000000000
  0.0000000000000000  0.0000000000000000 13.9956255000000009
  0.0000000000000000  0.0000000000000000  4.6652085000000003
 -0.0000012070760000  1.7787122226890002  8.0360828929260002
  1.5404112070759999  0.8893547773110000 17.3664998929260008
 -0.0000012070760000  1.7787122226890002  1.2943341070740002
  1.5404112070759999  0.8893547773110000 10.6247511070740011
