Lu Mg In
 1.0000000000000000
     0.0000000000000000    3.6637400000000002    3.6637400000000002
     3.6637400000000002    0.0000000000000000    3.6637400000000002
     3.6637400000000002    3.6637400000000002    0.0000000000000000
 Lu  Mg  In 
   2   1   1
Cartesian
  0.0000000000000000  0.0000000000000000  0.0000000000000000
  3.6637400000000002  3.6637400000000002  3.6637400000000002
  5.4956100000000001  5.4956100000000001  5.4956100000000001
  1.8318626725200000  1.8318626725200000  1.8318626725200000
