Ce Sn Pd
 1.0000000000000000
     4.7400940000000000    0.0000000000000000    0.0000000000000000
     0.0000000000000000    7.5482350000000000    0.0000000000000000
     0.0000000000000000    0.0000000000000000    7.9717260000000003
 Ce  Sn  Pd 
   4   4   4
Cartesian
  1.1850235000000000  3.8731126020250000  6.3413246833020001
  3.5550705000000002  3.6751223979750001  1.6304013166980000
  1.1850235000000000  0.0989951020250000  5.6162643166980004
  3.5550705000000002  7.4492398979750005  2.3554616833019999
  1.1850235000000000  1.4141165378400000  0.6949591292280001
  3.5550705000000002  2.3600009621600000  4.6808221292279999
  1.1850235000000000  5.1882340378400000  3.2909038707720004
  3.5550705000000002  6.1341184621600000  7.2767668707720006
  3.5550705000000002  1.5500753466600001  7.3100966571780006
  1.1850235000000000  2.2240421533400001  3.3242336571780000
  3.5550705000000002  5.3241928466599999  4.6474923428219999
  1.1850235000000000  5.9981596533400001  0.6616293428220000
