Tb Al Si
 1.0000000000000000
     4.0480809999999998    0.0000000000000000    0.0000000000000000
    -2.0240410000000000    4.9886840000000001   -0.9866210000000000
     0.0000000000000000   -0.0063010000000000    6.6075819999999998
 Tb  Al  Si 
   2   3   2
Cartesian
  0.0000016438839999  3.7886897997840001  3.7291919260829998
  2.0240383561160002  1.1936932002160001  1.8917690739169999
  2.0240423295950003  1.9345858416710000  5.3508539857750002
  0.0000000000000000  0.0000000000000000  0.0000000000000000
 -0.0000023295950000  3.0477971583289998  0.2701070142249999
  2.0240380678579997  4.0695198879439998  1.5635879875929999
  0.0000019321420000  0.9128631120559999  4.0573730124070000
