Hg I 
 1.0000000000000000
     4.4603900000000003    0.0000000000000000    0.0000000000000000
     0.0000000000000000    4.4603900000000003    0.0000000000000000
     0.0000000000000000    0.0000000000000000   12.8676490000000001
 Hg  I  
   2   4
Cartesian
  3.3452925000000002  1.1150975000000001  9.6507367500000001
  1.1150975000000001  3.3452925000000002  3.2169122500000000
  1.1150975000000001  1.1150975000000001  4.9771808979019996
  1.1150975000000001  1.1150975000000001 11.4110053979020005
  3.3452925000000002  3.3452925000000002  7.8904681020980005
  3.3452925000000002  3.3452925000000002  1.4566436020980000
