Nb Pd
 1.0000000000000000
    -2.8352279999999999    0.0000000000000000    0.0000000000000000
     0.0000000000000000    0.0000000000000000   -3.9445800000000002
     1.4176150000000001   -4.2204660000000001    1.9722900000000001
 Nb  Pd 
   1   2
Cartesian
  0.0000000000000000  0.0000000000000000  0.0000000000000000
 -1.4176122492329999 -1.4060609092979999 -1.9722880277099999
 -0.0000007507670000 -2.8144050907020000 -0.0000019722900001
