Zn Cu
 1.0000000000000000
     7.1398229999999998    0.0000000000000000   -2.5243090000000001
    -3.5699120000000000    6.1832669999999998   -2.5243090000000001
     0.0000000000000000    0.0000000000000000    7.5729249999999997
 Zn  Cu 
  16  10
Cartesian
  0.7817176913139999  1.3539747080580000  0.5527576010179999
 -2.7881940897119999  4.8292922919420000 -1.9715509610340001
  5.5763873983979995  0.0000000000000000 -1.9715509610340001
  0.0000000000000000  0.0000000000000000  5.9146513210500000
  1.2430251606450000  2.1529826530649996  2.9901235344399999
  3.6585558330669996  1.7237649909930000 -2.3490815664559999
 -0.3364537750429999  4.0302843469349998 -2.3490815664559999
 -0.9952164974480000  1.7237649909930000  4.2323460409139999
  0.0886441118460002  4.4595020090070001  2.6995349911019995
  3.8177202901710001  2.3065193559420001  2.6995349911019995
  1.9904327161169999  0.0000000000000000  4.2323460409139999
  4.6537723305149994  0.0000000000000000  0.4658152308300000
 -2.3268864911599998  4.0302843469349998  0.4658152308300000
  3.2334578767620004  2.1529826530649996  0.1752267371539994
  0.2478086631969999  3.8767476440580002  0.1752267371539994
  2.5746947813309999  4.4595020090070001 -0.8162714015280004
  2.3392627207919996  4.0517217336239995  1.6541076965039996
  2.4612969031440000  0.0000000000000000 -0.8701999929520000
 -1.2306486239359999  2.1315452663759999 -0.8701999929520000
  0.0000000000000000  0.0000000000000000  2.6105992893999996
  4.5999380650949995  0.0000000000000000  3.2526465872399997
  2.2999687104149995  3.9836625137549997 -3.2526478757700001
  1.2699422895849999  2.1996044862450002 -1.7959701242300001
  2.5398849349049999  0.0000000000000000  1.7959694127600001
 -1.2699426453200000  2.1996044862450002  1.7959694127600001
 -2.2999693546800000  3.9836625137549997  3.2526465872399997
