Rb Sb Au
 1.0000000000000000
     5.9888839999999997   -0.0044820000000000    5.6375669999999998
     2.4327450000000002    5.4725229999999998    5.6375669999999998
    -0.0069020000000000   -0.0044820000000000    8.2248909999999995
 Rb  Sb  Au 
   3   2   3
Cartesian
  4.2073634999999996  2.7317794999999996  9.7500125000000004
  7.7362980503519996  5.0230650191840001 17.9278549843999961
  0.6784289496479999  0.4404939808160000  1.5721700156000000
  2.0804402740260004  1.3507994000420001  4.8211471809499997
  6.3342867259739997  4.1127595999580002 14.6788778190499993
  2.9909909999999997 -0.0044820000000000  6.9312290000000001
  1.2129215000000000  2.7340204999999997  6.9312290000000001
  4.2108144999999997  2.7340204999999997  5.6375669999999998
