Ba Cu Cl O 
 1.0000000000000000
     5.5600399999999999    0.0000000000000000    0.0000000000000000
     0.0000000000000000    5.5600399999999999    0.0000000000000000
    -2.7800199999999999   -2.7800199999999999    7.2051619999999996
 Ba  Cu  Cl  O  
   2   3   2   4
Cartesian
  2.7800199999999999  2.7800199999999999  1.9944032519239998
 -0.0000000000000002 -0.0000000000000002  5.2107587480759996
  0.0000000000000000  0.0000000000000000  0.0000000000000000
  0.0000000000000000  2.7800199999999999  0.0000000000000000
  2.7800199999999999  0.0000000000000000  0.0000000000000000
  2.7800199999999995  0.0000000000000000  3.6025809999999998
  0.0000000000000000  2.7800199999999995  3.6025809999999998
  4.2014664661600003  1.3585735338400000  0.0000000000000000
  4.2014664661600003  4.2014664661600003  0.0000000000000000
  1.3585735338400000  4.2014664661600003  0.0000000000000000
  1.3585735338400000  1.3585735338400000  0.0000000000000000
