Na Li Sb
 1.0000000000000000
     4.1614670000000000    0.0000000000000000    2.4026239999999999
     1.3871560000000001    3.9234680000000002    2.4026239999999999
     0.0000000000000000    0.0000000000000000    4.8052479999999997
 Na  Li  Sb 
   1   2   1
Cartesian
  2.7743115000000000  1.9617340000000001  4.8052479999999997
  1.3871557500000000  0.9808670000000000  2.4026239999999999
  4.1614672500000003  2.9426010000000002  7.2078720000000001
  0.0000000000000000  0.0000000000000000  0.0000000000000000
