La Co Ge
 1.0000000000000000
     4.0238290000000001    0.0000000000000000   -1.6229970000000000
    -0.6546300000000000    3.9702210000000000   -1.6229970000000000
    -0.0007550000000000   -0.0008890000000000    5.7976840000000003
 La  Co  Ge 
   1   1   3
Cartesian
  1.1409561940000001  1.3444886452960001  2.8287319620140003
  0.0131777663020000  0.0155285165700000  0.0326768981460000
  2.3386510552240001  0.3850223091920000 -0.0014396828299999
  2.5977450031509997  3.0611498492289999  0.6409390060940001
 -0.0005784447760001  2.3701328091920004 -0.0014396828299999
