Sn Se
 1.0000000000000000
     4.7009069999999999    0.0000000000000000    0.0000000000000000
     0.0000000000000000    4.1262509999999999    0.0000000000000000
     0.0000000000000000    0.0000000000000000   11.6644590000000008
 Sn  Se 
   4   4
Cartesian
  2.9307616655219997  1.0315627500000000  4.4466434087670006
  0.5803081655220000  3.0946882499999999  1.3855860912330000
  1.7701453344780000  3.0946882499999999  7.2178155912330002
  4.1205988344779998  1.0315627500000000 10.2788729087670010
  2.3072897719259999  3.0946882499999999  9.9316686221729995
  0.0431637280740000  3.0946882499999999  4.0994391221730000
  4.6577432719259999  1.0315627500000000  7.5650198778270008
  2.3936172280740000  1.0315627500000000  1.7327903778270000
