Sc Mn
 1.0000000000000000
     4.8992240000000002    0.0000000000000000    0.0000000000000000
    -2.4496120000000001    4.2428520000000001    0.0000000000000000
     0.0000000000000000    0.0000000000000000    8.0358409999999996
 Sc  Mn 
   4   8
Cartesian
 -0.0000024496120000  2.8285694142839999  0.5061856604310000
  2.4496144496120005  1.4142825857160000  4.5241061604309998
  2.4496144496120005  1.4142825857160000  7.5296553395689996
 -0.0000024496120000  2.8285694142839999  3.5117348395689998
  0.0000000000000000  0.0000000000000000  0.0000000000000000
  0.0000000000000000  0.0000000000000000  4.0179204999999998
  2.4496095503879998  2.7911135168279997  2.0089602499999999
 -1.1923657882840000  3.5169806369879999  6.0268807500000001
  1.1923706875079998  3.5169806369879999  6.0268807500000001
  1.2572413124920001  0.7258713630120001  2.0089602499999999
  3.6419777882839997  0.7258713630120001  2.0089602499999999
  0.0000024496120000  1.4517384831719999  6.0268807500000001
