Ca Mg Si O 
 1.0000000000000000
     4.5149530000000002    4.9458500000000001    0.0000000000000000
    -4.5149530000000002    4.9458500000000001    0.0000000000000000
     0.0000000000000000    1.5048450000000000    5.1129730000000002
 Ca  Mg  Si  O  
   2   2   4  12
Cartesian
  1.8158237975400000  6.0744837499999997  3.8347297500000002
 -1.8158237975399998  5.3220612500000000  1.2782432500000001
 -3.6803639379500002  6.0744837499999997  3.8347297500000002
  3.6803639379500002  5.3220612500000000  1.2782432500000001
  0.8411538037120002  7.4105129179800011  1.1898092689920001
 -0.8411538037119999  3.9860320820199999  3.9231637310080001
  0.8411538037120000  3.2336095820199997  1.3666772310080000
 -0.8411538037120002  8.1629354179800000  3.7462957689920002
  0.1361122880910001  4.2101030157599997  2.5457390307540000
  0.1361122880910001  6.4340194842400003  0.0107474692460000
 -0.1361122880910003  7.1864419842400000  2.5672339692460002
 -0.1361122880910001  4.9625255157600003  5.1022255307539996
  2.2510788115989997  3.8578486818800002  0.9210202783820000
  2.2510788115990001  6.7862738181199997  1.6354662216180000
 -2.2510788115990001  7.5386963181200004  4.1919527216179997
 -2.2510788115990001  4.6102711818800000  3.4775067783820002
 -0.7928483215650001  2.4325109461399999  4.3826461626260000
 -0.7928483215650002  9.7164565538600005  3.2868133373740003
  0.7928483215649996  8.9640340538600007  0.7303268373739999
  0.7928483215650000  1.6800884461399999  1.8261596626259999
