Tc Ru
 1.0000000000000000
     5.4394439999999999    0.0000000000000000    0.0000000000000000
    -2.7197209999999998    4.7106950000000003    0.0000000000000000
     0.0000000000000000    0.0000000000000000    4.2770149999999996
 Tc  Ru 
   2   6
Cartesian
  0.0000006666660002  3.1404601928700000  3.2077569729849995
  2.7197277727760003  1.5702253857400001  1.0692537499999999
  0.0000030547630001  1.5782759634950001  1.0692494729849999
  1.3528966244350003  3.9215452415150005  1.0692494729849999
 -1.3528895200369999  3.9215452415150005  1.0692494729849999
  2.7197253846810003  3.1324190365050000  3.2077612499999999
  1.3668318150090000  0.7891497584850001  3.2077612499999999
  4.0726125200370005  0.7891497584850001  3.2077612499999999
