Ti In Cu
 1.0000000000000000
     0.0000000000000000    3.1009590000000000    3.1009590000000000
     3.1009590000000000    0.0000000000000000    3.1009590000000000
     3.1009590000000000    3.1009590000000000    0.0000000000000000
 Ti  In  Cu 
   1   1   2
Cartesian
  3.1009590000000000  3.1009590000000000  3.1009590000000000
  0.0000000000000000  0.0000000000000000  0.0000000000000000
  1.5504795000000000  1.5504795000000000  1.5504795000000000
  4.6514385000000003  4.6514385000000003  4.6514385000000003
