Sc Ni Sn
 1.0000000000000000
     3.3910529999999999    0.0000000000000000    0.0000000000000000
     0.0000000000000000    7.0609760000000001    0.0000000000000000
     0.0000000000000000    0.0000000000000000    7.0609760000000001
 Sc  Ni  Sn 
   4   4   2
Cartesian
  1.6955264999999999  1.2065795788800000  4.7370675788800005
  1.6955264999999999  2.3239084211200001  1.2065795788800000
  1.6955264999999999  4.7370675788800005  5.8543964211199997
  1.6955264999999999  5.8543964211199997  2.3239084211200001
  0.0000000000000000  2.6653772204799999  6.1958652204800000
  0.0000000000000000  0.8651107795200000  2.6653772204799999
  0.0000000000000000  6.1958652204800000  4.3955987795200002
  0.0000000000000000  4.3955987795200002  0.8651107795200000
  0.0000000000000000  0.0000000000000000  0.0000000000000000
  0.0000000000000000  3.5304880000000001  3.5304880000000001
