Sr H  N 
 1.0000000000000000
     1.9067490000000000    1.1008620000000000    6.3022609999999997
    -1.9067490000000000    1.1008620000000000    6.3022609999999997
     0.0000000000000000   -2.2017229999999999    6.3022609999999997
 Sr  H   N  
   2   1   1
Cartesian
 -0.0000000000000000  0.0000007612560000 14.3929019994480001
 -0.0000000000000000  0.0000002387440000  4.5138810005519998
  0.0000000000000000  0.0000000000000000  0.0000000000000000
  0.0000000000000000  0.0000005000000001  9.4533914999999986
