Fe W 
 1.0000000000000000
     2.3837009999999998   -1.3762310000000000    8.6261869999999998
     0.0000000000000000    2.7524600000000001    8.6261869999999998
    -2.3837009999999998   -1.3762310000000000    8.6261869999999998
 Fe  W  
   7   6
Cartesian
  0.0000000000000000  0.0000000000000000  0.0000000000000000
  1.1860438043639998  0.6847611844640001 19.2162634895420013
 -0.0000000000000002 -1.3695268242600001 19.2162634895420013
 -1.1860438043640000  0.6847611844640001 19.2162634895420013
  1.1860438043639998 -0.6847631844639999  6.6622975104579991
 -1.1860438043639998 -0.6847631844639999  6.6622975104580000
  0.0000000000000000  1.3695248242600000  6.6622975104579991
  0.0000000000000001 -0.0000016691239999 21.5972636252820003
  0.0000000000000000 -0.0000003308760000  4.2812973747180001
 -0.0000000000000000 -0.0000013052379999 16.8888406012589982
  0.0000000000000000 -0.0000006947619999  8.9897203987409995
 -0.0000000000000000 -0.0000010987219999 14.2166721495209991
  0.0000000000000000 -0.0000009012779999 11.6618888504790004
