Ba Te O 
 1.0000000000000000
     4.4614500000000001    0.0000000000000000   -1.3122700000000000
     0.0000000000000000    5.9591050000000001    0.0000000000000000
    -0.0070330000000000    0.0000000000000000    7.1209290000000003
 Ba  Te  O  
   2   2   6
Cartesian
  2.9432305833320003  4.4693287499999999  1.3439577220440000
  1.5111864166680000  1.4897762500000000  4.4647012779560002
  4.1455037396700005  4.4693287499999999  4.8452892703699995
  0.3089132603300000  1.4897762500000000  0.9633697296300000
  0.7832141477969999  2.8995157607449999  2.0931610074189999
  3.6712028522030002  5.8790682607450000  3.7154979925810001
  3.6712028522030002  3.0595892392549997  3.7154979925810001
  0.7832141477969999  0.0800367392550000  2.0931610074189999
  2.9182720820850001  1.4897762500000000 -0.0610189243050001
  1.5361449179150000  4.4693287499999999  5.8696779243049999
