Tm Ni Ge
 1.0000000000000000
     3.7459530000000001    0.0000000000000000   -1.4248609999999999
    -0.5419810000000000    3.7065370000000000   -1.4248609999999999
    -0.0124540000000000   -0.0144070000000000    5.6037340000000002
 Tm  Ni  Ge 
   1   2   2
Cartesian
  0.0000000000000000  0.0000000000000000  0.0000000000000000
  0.5237754999999999  2.7726992499999996  1.3770060000000002
  2.6677425000000001  0.9194307500000000  1.3770060000000002
  2.0088680681400000  2.3239729401379998 -0.3551810124200000
  1.1826499318600001  1.3681570598619999  3.1091930124200000
