Li Y  Al
 1.0000000000000000
     0.0000010000000000    3.6560600000000001    3.6560579999999998
     3.6560570000000001    0.0000050000000000    3.6560540000000001
     3.6560600000000001    3.6560600000000001    0.0000010000000000
 Li  Y   Al 
   1   2   1
Cartesian
  5.4840885000000004  5.4840937499999995  5.4840847500000001
  0.0000000000000000  0.0000000000000000  0.0000000000000000
  3.6560589999999999  3.6560625000000000  3.6560565000000000
  1.8280295000000000  1.8280312500000000  1.8280282500000000
