As W 
 1.0000000000000000
     3.2610869999999998    0.0000000000000000    0.6697630000000000
     1.4297180000000000    6.5877499999999998    1.3127050000000000
     0.0250070000000000   -0.0066800000000000    8.1522609999999993
 As  W  
   6   4
Cartesian
  3.7612622084270000  3.8179284395399997  6.5084241840889998
  0.9545497915730000  2.7631415604600003  3.6263048159109998
  2.1301690108539999  0.9356439771999999  6.1762268511279999
  2.5856429891460002  5.6454260228000006  3.9585021488719998
  1.5684507476440002  5.2448706960100004  8.9112334818590000
  3.1473612523559997  1.3361993039900000  1.2234955181409999
  2.9438011062029994  3.7355543094599994  2.2146497358530000
  1.7720108937970001  2.8455156905399996  7.9200792641469997
  2.6382054996919999  0.8083974333400000  3.7025818358939997
  2.0776050705900002  5.7726659789100001  6.4321458514009997
