Li Al O 
 1.0000000000000000
     8.8848819999999993    0.0000000000000000    0.0000000000000000
     0.0000000000000000    9.0046440000000008    0.0000000000000000
     0.0000000000000000    0.0000000000000000    9.0357909999999997
 Li  Al  O  
  40   8  32
Cartesian
  7.7136857396419991  1.3200447918240001  5.6058499153549999
  3.2712447396419995  7.6845992081760013  7.9478365846449996
  5.6136372603579998  5.8223667918239999  3.4299410846449998
  1.1711962603579997  3.1822772081760000  1.0879544153550000
  1.1711962603579997  7.6845992081760013  3.4299410846449998
  5.6136372603579998  1.3200447918240001  1.0879544153550000
  3.2712447396419995  3.1822772081760000  5.6058499153549999
  7.7136857396419991  5.8223667918239999  7.9478365846449996
  7.4023772441259990  0.9549965240640000  7.9554085775030003
  2.9599362441259998  8.0496474759360002  5.5982779224969992
  5.9249457558740000  5.4573185240640010  1.0803824224970000
  1.4825047558739999  3.5473254759360002  3.4375130775030001
  1.4825047558739999  8.0496474759360002  1.0803824224970000
  5.9249457558740000  0.9549965240640000  3.4375130775030001
  2.9599362441259998  3.5473254759360002  7.9554085775030003
  7.4023772441259990  5.4573185240640010  5.5982779224969992
  7.9995123935819992  1.1450845589040002  1.3025002368590000
  3.5570713935820000  7.8595594410960006  3.2153952631409997
  5.3278106064179998  5.6474065589040006  7.7332907631410004
  7.6620468054580000  7.9794202573800002  3.5955129189290003
  0.8853696064179999  7.8595594410960006  7.7332907631410004
  5.3278106064179998  1.1450845589040002  5.8203957368589991
  3.5570713935820000  3.3572374410960002  1.3025002368590000
  7.9995123935819992  5.6474065589040006  3.2153952631409997
  7.9733464160919993  3.4354968021000003  7.5978984707970003
  3.5309054160919997  5.5691471979000005  5.9557880292029992
  5.3539765839079996  7.9378188021000007  1.4378925292029998
  0.9115355839079999  1.0668251979000001  3.0800029707969996
  0.9115355839079999  5.5691471979000005  1.4378925292029998
  5.3539765839079996  3.4354968021000003  3.0800029707969996
  3.5309054160919997  1.0668251979000001  7.5978984707970003
  7.9733464160919993  7.9378188021000007  5.9557880292029992
  7.6620468054580000  3.4770982573800002  0.9223825810710000
  3.2196058054579999  5.5275457426200010  3.5955129189290003
  5.6652761945419989  7.9794202573800002  8.1134084189289997
  1.2228351945420000  1.0252237426200002  5.4402780810709999
  1.2228351945420000  5.5275457426200010  8.1134084189289997
  5.6652761945419989  3.4770982573800002  5.4402780810709999
  3.2196058054579999  1.0252237426200002  0.9223825810710000
  0.8853696064179999  3.3572374410960002  5.8203957368589991
  7.8518989640339996  3.2033750890679999  3.4072070344889998
  3.4094579640339995  5.8012689109320004  1.1106884655110001
  5.4754240359659994  7.7056970890680008  5.6285839655109990
  1.0329830359659999  1.2989469109320000  7.9251025344890005
  1.0329830359659999  5.8012689109320004  5.6285839655109990
  5.4754240359659994  3.2033750890679999  7.9251025344890005
  3.4094579640339995  1.2989469109320000  3.4072070344889998
  7.8518989640339996  7.7056970890680008  1.1106884655110001
  6.8184450293219996  2.2682067910920001  2.3181231452590003
  2.3760040293219999  6.7364372089080007  2.1997723547410000
  6.5088779706779993  6.7705287910920005  6.7176678547409994
  2.0664369706779997  2.2341152089080003  6.8360186452590002
  2.0664369706779997  6.7364372089080007  6.7176678547409994
  6.5088779706779993  2.2682067910920001  6.8360186452590002
  2.3760040293219999  2.2341152089080003  2.3181231452590003
  6.8184450293219996  6.7705287910920005  2.1997723547410000
  6.7613330078259999  4.3744380459120000  4.1758546674860000
  2.3188920078259998  4.6302059540880007  0.3420408325140000
  6.5659899921739990  8.8767600459120004  4.8599363325140006
  2.1235489921739998  0.1278839540880000  8.6937501674859998
  2.1235489921739998  4.6302059540880007  4.8599363325140006
  6.5659899921739990  4.3744380459120000  8.6937501674859998
  2.3188920078259998  0.1278839540880000  4.1758546674860000
  6.7613330078259999  8.8767600459120004  0.3420408325140000
  8.8823142691020003  4.1714013330000004  2.3249451674639996
  4.4398732691019998  4.8332426670000004  2.1929503325359998
  4.4450087308979995  8.6737233330000016  6.7108458325360001
  0.0025677308980000  0.3309206670000000  6.8428406674639994
  0.0583914445040000  6.7733742585960011  0.0934933294770000
  4.4450087308979995  4.1714013330000004  6.8428406674639994
  4.4398732691019998  0.3309206670000000  2.3249451674639996
  8.8823142691020003  8.6737233330000016  2.1929503325359998
  0.0583914445040000  2.2710522585960002  4.4244021705229999
  4.5008324445039998  6.7335917414040001  0.0934933294770000
  4.3840495554959995  6.7733742585960011  4.6113888294769998
  8.8264905554959991  2.2312697414040001  8.9422976705230006
  8.8264905554959991  6.7335917414040001  4.6113888294769998
  4.3840495554959995  2.2710522585960002  8.9422976705230006
  4.5008324445039998  2.2312697414040001  4.4244021705229999
  0.0025677308980000  4.8332426670000004  6.7108458325360001
