Ca Bi O 
 1.0000000000000000
     4.5831989999999996    0.0000000000000000   -1.2599620000000000
    -0.3463750000000000    4.5700919999999998   -1.2599620000000000
    -0.0109710000000000   -0.0118350000000000    8.9259229999999992
 Ca  Bi  O  
   4   2   1
Cartesian
  1.4215869602250002  1.5334081074810002  5.1711289142389987
 -0.1731832851180000  2.2850505464219997 -0.6299656680780000
  2.8042618029509998  3.0248443224269996  1.2348726056849995
  1.9342492851179998  4.5582524535779996  7.0359646680779999
  0.5932741237319999  0.6399406977840000  2.1580931967999999
  3.6325788762679996  3.9183163022159997  4.2479058031999992
  2.1184119999999997  2.2850459999999999 -1.2599620000000000
