Ca Cl F 
 1.0000000000000000
     3.8764669999999999    0.0000000000000000    0.0000000000000000
     0.0000000000000000    3.8764669999999999    0.0000000000000000
     0.0000000000000000    0.0000000000000000    6.8426210000000003
 Ca  Cl  F  
   2   2   2
Cartesian
  2.9073502499999999  2.9073502499999999  5.5071603446720001
  0.9691167500000000  0.9691167500000000  1.3354606553280002
  0.9691167500000000  0.9691167500000000  4.4141474366160001
  2.9073502499999999  2.9073502499999999  2.4284735633840002
  0.9691167500000000  2.9073502499999999  0.0000000000000000
  2.9073502499999999  0.9691167500000000  0.0000000000000000
