Nd Co Si
 1.0000000000000000
     4.0351330000000001    0.0000000000000000    0.0000000000000000
     0.0000000000000000    4.0351330000000001    0.0000000000000000
     0.0000000000000000    0.0000000000000000    6.9826670000000002
 Nd  Co  Si 
   2   2   2
Cartesian
  1.0087832500000000  1.0087832500000000  4.8103732616340000
  3.0263497500000001  3.0263497500000001  2.1722937383660001
  3.0263497500000001  1.0087832500000000  0.0000000000000000
  1.0087832500000000  3.0263497500000001  0.0000000000000000
  3.0263497500000001  3.0263497500000001  5.8358966159229997
  1.0087832500000000  1.0087832500000000  1.1467703840770000
