Dy Bi Br O 
 1.0000000000000000
     3.9150380000000000    0.0000000000000000    0.0000000000000000
     0.0000000000000000    3.9150380000000000    0.0000000000000000
     0.0000000000000000    0.0000000000000000    9.3162210000000005
 Dy  Bi  Br  O  
   1   2   1   4
Cartesian
  0.0000000000000000  0.0000000000000000  0.0000000000000000
  1.9575190000000000  1.9575190000000000  2.5052529377730002
  1.9575190000000000  1.9575190000000000  6.8109680622270004
  0.0000000000000000  0.0000000000000000  4.6581105000000003
  0.0000000000000000  1.9575190000000000  7.9323150028920004
  0.0000000000000000  1.9575190000000000  1.3839059971080001
  1.9575190000000000  0.0000000000000000  7.9323150028920004
  1.9575190000000000  0.0000000000000000  1.3839059971080001
