Na C  N  O 
 1.0000000000000000
     0.6310710000000000    1.7783450000000001   -3.0148440000000001
     0.6310710000000000   -1.7783450000000001   -3.0148440000000001
    -4.4909819999999998    0.0000000000000000   -3.0380180000000001
 Na  C   N   O  
   1   1   1   1
Cartesian
 -1.5522424196219999 -0.0000000000000000 -4.5208400134979998
 -4.4753230924379999  0.0000000000000000 -3.0347423569600003
  0.1177516345860002  0.0000000000000000 -6.2692352390420005
 -3.2770952064539998  0.0000000000000000 -2.7839278825720002
