Pr Si Ni
 1.0000000000000000
     4.0628799999999998    0.0000000000000000    0.0000000000000000
     0.0000000000000000    4.0551890000000004   -1.0191170000000001
     0.0000000000000000   -0.0241700000000000    8.4814209999999992
 Pr  Si  Ni 
   2   4   2
Cartesian
  1.0157200000000000  3.6019495575140006  5.7549946335209992
  3.0471599999999999  0.4290694424860000  1.7073093664789998
  1.0157200000000000  1.0010511199150001  3.9833005353749997
  3.0471599999999999  3.0299678800850001  3.4790034646249999
  3.0471599999999999  1.8383183526160001  7.3148599233869991
  1.0157200000000000  2.1927047025729998  0.1474430574959999
  3.0471599999999999  1.2735689167820001  5.0676895852209993
  1.0157200000000000  2.7574500832180000  2.3946144147789994
