Ag I 
 1.0000000000000000
     6.1693199999999999    0.0000000000000000    0.0000000000000000
     0.0000000000000000    6.1693199999999999    0.0000000000000000
     0.0000000000000000    0.0000000000000000    6.1693199999999999
 Ag  I  
   4   4
Cartesian
  0.0000000000000000  0.0000000000000000  0.0000000000000000
  0.0000000000000000  3.0846600000000000  3.0846600000000000
  3.0846600000000000  0.0000000000000000  3.0846600000000000
  3.0846600000000000  3.0846600000000000  0.0000000000000000
  0.0000000000000000  3.0846600000000000  0.0000000000000000
  0.0000000000000000  0.0000000000000000  3.0846600000000000
  3.0846600000000000  3.0846600000000000  3.0846600000000000
  3.0846600000000000  0.0000000000000000  0.0000000000000000
