Mg H 
 1.0000000000000000
     2.9925370000000000    0.0000000000000000    0.0000000000000000
     0.0000000000000000    4.4766940000000002    0.0000000000000000
     0.0000000000000000    0.0000000000000000    4.4766940000000002
 Mg  H  
   2   4
Cartesian
  1.4962685000000000  2.2383470000000001  2.2383470000000001
  0.0000000000000000  0.0000000000000000  0.0000000000000000
  0.0000000000000000  3.1138629989680000  3.1138629989680000
  1.4962685000000000  3.6011780010320003  0.8755159989680000
  0.0000000000000000  1.3628310010319999  1.3628310010319999
  1.4962685000000000  0.8755159989680000  3.6011780010320003
