Li Sn Ir
 1.0000000000000000
     6.6908149999999997    0.0000000000000000    0.0000000000000000
     0.0000000000000000    6.6908149999999997    0.0000000000000000
     0.0000000000000000    0.0000000000000000   11.5106269999999995
 Li  Sn  Ir 
   4  16   4
Cartesian
  3.3454074999999999  3.3454074999999999  0.0000000000000000
  0.0000000000000000  0.0000000000000000  0.0000000000000000
  0.0000000000000000  0.0000000000000000  5.7553134999999997
  3.3454074999999999  3.3454074999999999  5.7553134999999997
  4.4059685856500002  5.6302539143499999  9.9536535494719995
  1.0605610856500001  4.4059685856500002  9.9536535494719995
  5.6302539143499999  2.2848464143500000  9.9536535494719995
  1.0605610856500001  4.4059685856500002  1.5569734505280000
  5.6302539143499999  2.2848464143500000  1.5569734505280000
  2.2848464143500000  1.0605610856500001  1.5569734505280000
  4.4059685856500002  5.6302539143499999  1.5569734505280000
  2.2848464143500000  1.0605610856500001  9.9536535494719995
  1.0605610856500001  2.2848464143500000  4.1983400494719998
  4.4059685856500002  1.0605610856500001  4.1983400494719998
  2.2848464143500000  5.6302539143499999  4.1983400494719998
  4.4059685856500002  1.0605610856500001  7.3122869505280006
  2.2848464143500000  5.6302539143499999  7.3122869505280006
  5.6302539143499999  4.4059685856500002  7.3122869505280006
  1.0605610856500001  2.2848464143500000  7.3122869505280006
  5.6302539143499999  4.4059685856500002  4.1983400494719998
  0.0000000000000000  0.0000000000000000  8.6329702499999996
  3.3454074999999999  3.3454074999999999  8.6329702499999996
  3.3454074999999999  3.3454074999999999  2.8776567499999999
  0.0000000000000000  0.0000000000000000  2.8776567499999999
