Lu Cu Pt
 1.0000000000000000
    -0.0000390000000000    3.3737580000000000    3.3737390000000000
     3.3737590000000002   -0.0000380000000000    3.3737360000000001
     3.3737580000000000    3.3737560000000002   -0.0000370000000000
 Lu  Cu  Pt 
   2   1   1
Cartesian
  0.0000202422760000  0.0000404850480000  0.0000269897240000
  3.3737558692650000  3.3736907671259999  3.3737021313579998
  1.6868458836510001  1.6868622526419998  1.6868493789060000
  5.0605950048090005  5.0606171213900000  5.0605818737849999
