Be Ru Pt
 1.0000000000000000
     0.0000000000000000    2.7981970000000000    2.7981970000000000
     2.7981970000000000    0.0000000000000000    2.7981970000000000
     2.7981970000000000    2.7981970000000000    0.0000000000000000
 Be  Ru  Pt 
   2   1   1
Cartesian
  2.7981970000000000  2.7981970000000000  2.7981970000000000
  0.0000000000000000  0.0000000000000000  0.0000000000000000
  4.1973010963939998  4.1973010963939998  4.1973010963939998
  1.3991040963939998  1.3991040963939998  1.3991040963939998
