Be Pd Pt
 1.0000000000000000
    -0.0000190000000000    2.8243380000000000    2.8243380000000000
     2.8243380000000000   -0.0000190000000000    2.8243380000000000
     2.8243380000000000    2.8243380000000000   -0.0000190000000000
 Be  Pd  Pt 
   2   1   1
Cartesian
  2.8243228513430001  2.8243228513430001  2.8243228513430001
  0.0000000000000000  0.0000000000000000  0.0000000000000000
  1.4121698986569999  1.4121698986569999  1.4121698986569999
  4.2364927500000000  4.2364927500000000  4.2364927499999991
