Mg Co C 
 1.0000000000000000
     3.7757749999999999    0.0000000000000000    0.0000000000000000
     0.0000000000000000    3.7757749999999999    0.0000000000000000
     0.0000000000000000    0.0000000000000000    3.7757749999999999
 Mg  Co  C  
   1   3   1
Cartesian
  0.0000000000000000  0.0000000000000000  0.0000000000000000
  0.0000000000000000  1.8878874999999999  1.8878874999999999
  1.8878874999999999  0.0000000000000000  1.8878874999999999
  1.8878874999999999  1.8878874999999999  0.0000000000000000
  1.8878874999999999  1.8878874999999999  1.8878874999999999
