Sc Al Tc
 1.0000000000000000
     0.0000000000000000    3.3048099999999998    3.3048099999999998
     3.3048099999999998    0.0000000000000000    3.3048099999999998
     3.3048099999999998    3.3048099999999998    0.0000000000000000
 Sc  Al  Tc 
   2   1   1
Cartesian
  0.0000000000000000  0.0000000000000000  0.0000000000000000
  3.3048099999999998  3.3048099999999998  3.3048099999999998
  1.6523983903799999  1.6523983903799999  1.6523983903799999
  4.9572149999999997  4.9572149999999997  4.9572149999999997
