Pm Cd Sn
 1.0000000000000000
     0.0000000000000000    3.8147709999999999    3.8147709999999999
     3.8147709999999999    0.0000000000000000    3.8147709999999999
     3.8147709999999999    3.8147709999999999    0.0000000000000000
 Pm  Cd  Sn 
   2   1   1
Cartesian
  0.0000000000000000  0.0000000000000000  0.0000000000000000
  3.8147709999999999  3.8147709999999999  3.8147709999999999
  1.9073855000000000  1.9073855000000000  1.9073855000000000
  5.7221564999999996  5.7221564999999996  5.7221564999999996
