Ti Ga Pd
 1.0000000000000000
    -2.2051349999999998   -3.8194050000000002    0.0000000000000000
    -2.2051349999999998    3.8194050000000002    0.0000000000000000
     0.0000000000000000    0.0000000000000000   -5.3831840000000000
 Ti  Ga  Pd 
   2   2   2
Cartesian
  0.0000000000000000  0.0000000000000000  0.0000000000000000
  0.0000000000000000  0.0000000000000000 -2.6915920000000000
 -2.2051349999999998 -1.2731375462700003 -1.3460005609919998
 -2.2051349999999998  1.2731375462700001 -4.0371834390080004
 -2.2051349999999998 -1.2731375462700003 -4.0375871778079997
 -2.2051349999999998  1.2731375462700001 -1.3455968221920001
