Ga Hg Te
 1.0000000000000000
     5.6624689999999998    0.0000800000000000   -2.5330499999999998
    -1.1331810000000000    5.5479560000000001   -2.5329769999999998
    -0.0884020000000000   -0.1083830000000000    7.3979429999999997
 Ga  Hg  Te 
   2   1   4
Cartesian
  2.2646439999999997  2.7740179999999999 -2.5330135000000000
  0.5215304999999999  4.1067955000000005  1.1659762499999999
  0.0000000000000000  0.0000000000000000  0.0000000000000000
  1.8673394237479999  2.1452873205850000  0.0009159865660001
  3.2232501315109996  0.6811857264030000  3.4722034431430000
 -0.0703673042030000  3.1807169550870000  3.5759799282900002
  3.8615497489440003  4.8721159979249995 -2.3852673579989996
