V 
 1.0000000000000000
     2.9980110000000000    0.0000000000000000    0.0000000000000000
     0.0000000000000000    2.9980110000000000    0.0000000000000000
     0.0000000000000000    0.0000000000000000    2.9980110000000000
 V  
   2
Cartesian
  0.0000000000000000  0.0000000000000000  0.0000000000000000
  1.4990055000000000  1.4990055000000000  1.4990055000000000
