Ho Ga
 1.0000000000000000
     4.1561300000000001    0.0000000000000000    0.0000000000000000
    -2.0780639999999999    3.5993149999999998    0.0000000000000000
     0.0000000000000000    0.0000000000000000    4.0916790000000001
 Ho  Ga 
   1   2
Cartesian
  0.0000000000000000  0.0000000000000000  0.0000000000000000
  2.0780674113980000  1.1997704668950000  2.0458395000000000
 -0.0000014113980000  2.3995445331049998  2.0458395000000000
