Nb Os
 1.0000000000000000
     5.1801709999999996    0.0000000000000000    0.0000000000000000
     0.0000000000000000    5.1801709999999996    0.0000000000000000
     0.0000000000000000    0.0000000000000000    5.1801709999999996
 Nb  Os 
   6   2
Cartesian
  1.2950427499999999  0.0000000000000000  2.5900854999999998
  3.8851282499999997  0.0000000000000000  2.5900854999999998
  0.0000000000000000  2.5900854999999998  1.2950427499999999
  0.0000000000000000  2.5900854999999998  3.8851282499999997
  2.5900854999999998  3.8851282499999997  0.0000000000000000
  2.5900854999999998  1.2950427499999999  0.0000000000000000
  0.0000000000000000  0.0000000000000000  0.0000000000000000
  2.5900854999999998  2.5900854999999998  2.5900854999999998
