Dy Bi
 1.0000000000000000
     3.8637130000000002   -0.0000000000000000    2.2307150000000000
     1.2879039999999999    3.6427420000000001    2.2307150000000000
    -0.0000000000000000   -0.0000000000000000    4.4614310000000001
 Dy  Bi 
   1   1
Cartesian
  2.5758084999999999  1.8213710000000001  4.4614305000000005
  0.0000000000000000  0.0000000000000000  0.0000000000000000
