Ce C 
 1.0000000000000000
     6.8572119999999996   -0.0000000000000000   -2.4243910000000000
    -3.4286070000000000    5.9385190000000003   -2.4243910000000000
     0.0000000000000000    0.0000000000000000    7.2731719999999997
 Ce  C  
   8  12
Cartesian
  2.0475697632100003  3.5464954238380004  1.4478505567799997
  1.0477677791759998  2.9692595000000002 -2.1887353460179999
  3.4286059999999998  0.0000000000000000  1.7174236352559999
 -1.3810360423860000  2.3920235761619999  2.6600461539820000
  3.4286059999999998  0.0000000000000000  5.3540096352559994
 -3.0953395423859997  5.3612830761620005  1.4478506539820000
  4.4763737791759999  2.9692595000000002 -3.4009308460179999
  0.3332672632099999  0.5772359238380000  0.2356555567799999
  2.4225939198809994  4.7117219294230006 -3.4260669753229998
  1.8631618301189996  5.6806863205770002 -2.6349107746770000
  1.1548708234039999  1.4846297500000001  2.6349100246770001
  2.7203139932850000  1.7424624294230000 -0.2105198180940000
 -1.1548718234040001  4.4538892500000005  4.6382614753229996
  5.8512005067149992  1.2267970705769999  2.6349098180940000
 -0.7082924198809999  4.1960565705770003  1.0016754753229999
  3.2797457567149997  2.7114268205770005 -1.0016761819060001
 -0.1488603301190002  3.2270921794230003  0.2105192746769999
  2.2737346765960003  1.4846297500000001  3.4260662253229994
 -2.2737356765960000  4.4538892500000005  3.8471052746770003
  5.2917687432850000  0.2578326794230000  3.4260661819060001
