Lu Ni
 1.0000000000000000
     4.2781060000000002   -0.0000520000000000    2.4698620000000000
     1.4259869999999999    4.0334349999999999    2.4698609999999999
    -0.0000820000000000   -0.0000590000000000    4.9398689999999998
 Lu  Ni 
   2   4
Cartesian
  4.9910010688889992  3.5291706006379999  8.6446281803900007
  0.7130042271000000  0.5041493660380000  1.2349539400179999
  3.5649947218120004  4.0333794999929999  6.1747289700070001
  0.7129510740130001  2.0166839665650000  3.7048625301389997
  2.8520097781880001  2.0166620000069999  4.9397935299929996
  2.8520479259050000  2.0166955333760002  2.4698689097300002
