Sb Pt
 1.0000000000000000
     8.0592710000000007    0.0000000000000000    0.0000000000000000
     0.0000000000000000    8.0592710000000007    0.0000000000000000
     0.0000000000000000    0.0000000000000000    8.0592710000000007
 Sb  Pt 
   4  28
Cartesian
  0.0000000000000000  0.0000000000000000  0.0000000000000000
  0.0000000000000000  4.0296355000000004  4.0296355000000004
  4.0296355000000004  0.0000000000000000  4.0296355000000004
  4.0296355000000004  4.0296355000000004  0.0000000000000000
  0.0000000000000000  0.0000000000000000  4.0296355000000004
  6.0444532500000001  0.0000000000000000  2.0148177500000002
  0.0000000000000000  6.0444532500000001  6.0444532500000001
  0.0000000000000000  2.0148177500000002  6.0444532500000001
  6.0444532500000001  0.0000000000000000  6.0444532500000001
  6.0444532500000001  2.0148177500000002  0.0000000000000000
  6.0444532500000001  6.0444532500000001  0.0000000000000000
  0.0000000000000000  4.0296355000000004  0.0000000000000000
  6.0444532500000001  4.0296355000000004  6.0444532500000001
  0.0000000000000000  2.0148177500000002  2.0148177500000002
  0.0000000000000000  6.0444532500000001  2.0148177500000002
  6.0444532500000001  4.0296355000000004  2.0148177500000002
  6.0444532500000001  6.0444532500000001  4.0296355000000004
  6.0444532500000001  2.0148177500000002  4.0296355000000004
  4.0296355000000004  0.0000000000000000  0.0000000000000000
  2.0148177500000002  0.0000000000000000  6.0444532500000001
  4.0296355000000004  6.0444532500000001  2.0148177500000002
  4.0296355000000004  2.0148177500000002  2.0148177500000002
  2.0148177500000002  0.0000000000000000  2.0148177500000002
  2.0148177500000002  2.0148177500000002  4.0296355000000004
  2.0148177500000002  6.0444532500000001  4.0296355000000004
  4.0296355000000004  4.0296355000000004  4.0296355000000004
  2.0148177500000002  4.0296355000000004  2.0148177500000002
  4.0296355000000004  2.0148177500000002  6.0444532500000001
  4.0296355000000004  6.0444532500000001  6.0444532500000001
  2.0148177500000002  4.0296355000000004  6.0444532500000001
  2.0148177500000002  6.0444532500000001  0.0000000000000000
  2.0148177500000002  2.0148177500000002  0.0000000000000000
