Sr H  Ru
 1.0000000000000000
     3.7998680000000000    3.7998680000000000    0.0000000000000000
     0.0000000000000000    3.7998680000000000    3.7998680000000000
     3.7998680000000000    0.0000000000000000    3.7998680000000000
 Sr  H   Ru 
   2   6   1
Cartesian
  5.6998020000000000  5.6998020000000000  5.6998020000000000
  1.8999340000000000  1.8999340000000000  1.8999340000000000
  3.7998680000000000  3.7998680000000000  5.8827884434080007
  3.7998680000000000  1.7169475565920000  3.7998680000000000
  1.7169475565920000  3.7998680000000000  3.7998680000000005
  3.7998680000000005  3.7998680000000005  1.7169475565920000
  3.7998680000000005  5.8827884434080007  3.7998680000000005
  5.8827884434080007  3.7998680000000005  3.7998680000000000
  0.0000000000000000  0.0000000000000000  0.0000000000000000
