Mn V  Ge
 1.0000000000000000
    -0.0000020000000000    2.8631859999999998    2.8688060000000002
     2.8632629999999999    0.0000010000000000    2.8688080000000000
     2.8632640000000000    2.8631890000000002    0.0000270000000000
 Mn  V   Ge 
   2   1   1
Cartesian
  0.0000486754760000  0.0000486742050000  0.0000229508070000
  2.8632367306359998  2.8631622313069998  2.8687975494090003
  4.2948479377820004  4.2947361889800000  4.3032192743940003
  1.4316398397910000  1.4316083159410000  1.4344102501060001
