Pa Ir
 1.0000000000000000
     4.0693359999999998    0.0000000000000000    0.0000000000000000
     0.0000000000000000    4.0693359999999998    0.0000000000000000
     0.0000000000000000    0.0000000000000000    4.0693359999999998
 Pa  Ir 
   1   3
Cartesian
  0.0000000000000000  0.0000000000000000  0.0000000000000000
  0.0000000000000000  2.0346679999999999  2.0346679999999999
  2.0346679999999999  2.0346679999999999  0.0000000000000000
  2.0346679999999999  0.0000000000000000  2.0346679999999999
