Al V  Co
 1.0000000000000000
     5.7553989999999997    0.0000000000000000    0.0000000000000000
     0.0000000000000000    5.7553989999999997    0.0000000000000000
     0.0000000000000000    0.0000000000000000    5.7553989999999997
 Al  V   Co 
   4   4   8
Cartesian
  0.0000000000000000  0.0000000000000000  0.0000000000000000
  0.0000000000000000  2.8776994999999999  2.8776994999999999
  2.8776994999999999  0.0000000000000000  2.8776994999999999
  2.8776994999999999  2.8776994999999999  0.0000000000000000
  2.8776994999999999  0.0000000000000000  0.0000000000000000
  2.8776994999999999  2.8776994999999999  2.8776994999999999
  0.0000000000000000  0.0000000000000000  2.8776994999999999
  0.0000000000000000  2.8776994999999999  0.0000000000000000
  4.3165492499999996  4.3165492499999996  4.3165492499999996
  1.4388497499999999  4.3165492499999996  4.3165492499999996
  4.3165492499999996  1.4388497499999999  1.4388497499999999
  1.4388497499999999  1.4388497499999999  1.4388497499999999
  1.4388497499999999  4.3165492499999996  1.4388497499999999
  4.3165492499999996  4.3165492499999996  1.4388497499999999
  1.4388497499999999  1.4388497499999999  4.3165492499999996
  4.3165492499999996  1.4388497499999999  4.3165492499999996
