Cs Pt Br
 1.0000000000000000
     6.6231739999999997    0.0000000000000000    3.8238919999999998
     2.2077249999999999    6.2443869999999997    3.8238919999999998
     0.0000000000000000    0.0000000000000000    7.6477830000000004
 Cs  Pt  Br 
   2   1   6
Cartesian
  6.6231742499999999  4.6832902499999998 11.4716752500000005
  2.2077247499999997  1.5610967499999999  3.8238917500000000
  0.0000000000000000  0.0000000000000000  0.0000000000000000
  3.2266825811789999  4.8033635676230002  9.7067884693070017
  3.2266825811789999  4.8033635676230002  5.5887785306930002
  5.6042164188209993  1.4410234323769999  9.7067884693070017
  5.6042164188209993  1.4410234323769999  5.5887785306930002
  6.7929836068710001  4.8033635676230002  7.6477837692290009
  2.0379153931289999  1.4410234323769999  7.6477832307710010
