Th B  Ir
 1.0000000000000000
     5.4622919999999997    0.0000010000000000    0.0000000000000000
    -2.7311450000000002    4.7304839999999997    0.0000000000000000
     0.0000000000000000    0.0000000000000000    3.2519770000000001
 Th  B   Ir 
   1   2   3
Cartesian
  0.0000000000000000  0.0000000000000000  0.0000000000000000
  2.7311490644789997  1.5768270898389998  0.0000000000000000
 -0.0000020644790003  3.1536579101609998  0.0000000000000000
  2.7311459999999999  0.0000005000000000  1.6259885000000001
 -1.3655725000000001  2.3652419999999998  1.6259885000000001
  1.3655734999999998  2.3652424999999999  1.6259885000000001
