Li Mg Pd
 1.0000000000000000
     0.0000000000000000    3.2167599999999998    3.2167599999999998
     3.2167599999999998    0.0000000000000000    3.2167599999999998
     3.2167599999999998    3.2167599999999998    0.0000000000000000
 Li  Mg  Pd 
   1   2   1
Cartesian
  1.6083735664799998  1.6083735664799998  1.6083735664799998
  0.0000000000000000  0.0000000000000000  0.0000000000000000
  3.2167535664800000  3.2167535664800000  3.2167535664800000
  4.8251399999999993  4.8251399999999993  4.8251399999999993
