Zn Pb F 
 1.0000000000000000
     4.6127849999999997    0.0518160000000000    3.2613930000000000
     1.7161299999999999    4.2819900000000004    3.2613840000000001
     0.0756780000000000    0.0518340000000000    5.6487829999999999
 Zn  Pb  F  
   1   1   6
Cartesian
  0.0000000000000000  0.0000000000000000  0.0000000000000000
  3.2022964999999997  2.1928200000000002  6.0857799999999997
  2.0320757385029999  0.4780675720320001  5.8748926346500001
  1.7803189950289999  3.2686390948440005  5.0018706970739997
  2.2310943172389996  2.6638877652360007  7.8715929961640008
  4.6242740049710003  1.1170009051559999  7.1696893029260007
  4.3725172614970003  3.9075724279680006  6.2966673653500003
  4.1734986827609992  1.7217522347640002  4.2999670038359996
