Sn Hg F 
 1.0000000000000000
     5.9256219999999997    0.0763780000000000    0.0515980000000000
     3.5576629999999998    4.7393929999999997    0.0517790000000000
     3.5577610000000002    1.8065230000000001    4.3818149999999996
 Sn  Hg  F  
   1   1   6
Cartesian
  0.0000000000000000  0.0000000000000000  0.0000000000000000
  6.5205229999999990  3.3111470000000001  2.2425959999999998
  4.5303775728779998  3.2317031386739998  3.4060898869179996
  5.2822019695219993  3.8127145467739996  0.3622509282940000
  6.1948871091279996  1.0842362861440000  1.7370888386439998
  6.8461588908720001  5.5380577138559994  2.7481031613559996
  7.7588440304780004  2.8095794532260001  4.1229410717059993
  8.5106684271219990  3.3905908613259994  1.0791021130820000
