Ho Nb O 
 1.0000000000000000
     5.4741059999999999    3.5373489999999999   -0.0018750000000000
    -5.4741059999999999    3.5373489999999999   -0.0018750000000000
     0.0000000000000000    3.4044089999999998    3.7967019999999998
 Ho  Nb  O  
   2   2   8
Cartesian
 -1.4080385971079998  4.3884512500000001  0.9473005000000000
  1.4080385971079998  6.0906557499999998  2.8456514999999998
  4.2899145454439997  4.3884512500000001  0.9473005000000000
 -4.2899145454439997  6.0906557499999998  2.8456514999999998
  3.1517493741360001  2.9329740077029998  0.6152278522500000
  3.1517493741360001  5.8439284922970005  1.2793731477499999
 -3.1517493741359996  7.5461329922970002  3.1777241477499998
 -3.1517493741360001  4.6351785077030003  2.5135788522500002
  0.3470418980820001  6.0224649365549991  0.7890926403810000
  0.3470418980819999  2.7544375634449998  1.1055083596190001
 -0.3470418980819998  4.4566420634449999  3.0038593596189997
 -0.3470418980820003  7.7246694365549997  2.6874436403809998
