Hf Zn Au
 1.0000000000000000
     0.0000000000000000    3.2639079999999998    3.2639079999999998
     3.2639079999999998    0.0000000000000000    3.2639079999999998
     3.2639079999999998    3.2639079999999998    0.0000000000000000
 Hf  Zn  Au 
   1   1   2
Cartesian
  1.6319539999999999  1.6319539999999999  1.6319539999999999
  4.8958554721839995  4.8958554721839995  4.8958554721839995
  3.2639145278160000  3.2639145278160000  3.2639145278160000
  0.0000000000000000  0.0000000000000000  0.0000000000000000
