Ca Mn N 
 1.0000000000000000
     3.1029089999999999   -5.3744030000000000   -0.0000000000000000
     3.1028980000000002    5.3743970000000001    0.0000000000000000
    -0.0000000000000000   -0.0000000000000000   12.2951589999999999
 Ca  Mn  N  
  12   2  10
Cartesian
  1.2245555928130001  2.1209896528529999 10.8333998416489994
  3.7567007819730001 -0.0000090065150002 10.8333998416489994
  4.9812563747859997  2.1209806463380003  1.4617837486690000
  1.2245475223050000 -2.1209812719350003  7.6093140680329991
  2.4490969093219999 -0.0000023678759998  4.6858203416489994
  4.9812594776949997  2.1209752719350004  4.6858203416489994
  2.4491000122200002  0.0000030065210003  1.4617837486690000
  4.9812607158809996 -2.1209795296620002  1.4617837486690000
  1.2245524899150002  2.1209842784560000  7.6093140680329991
  3.7567038848710004 -0.0000036321180000  7.6093140680329991
  1.2245506252139999 -2.1209866463379998 10.8333998416489994
  4.9812638187790004 -2.1209741552649999  4.6858203416489994
  3.1029259261919999  5.3743378815730001  9.2213446596819999
  6.2057604564530005 -0.0000113743550002  3.0738143403180000
  2.2155266725439997 -3.8374097324480001  9.2213569548409993
  1.7747273771550001 -0.0000070902709998  9.2213446596819999
  3.9902679158200001  3.8374252300600000  3.0738020451589998
  3.1029084362350003 -1.7914678752030000  6.1475549096820004
  3.1029016666630000  1.7914672496000001  0.0000245903180000
  3.1029016666630000  1.7914672496000001  6.1475549096820004
  3.1029084362350003 -1.7914678752030000  0.0000245903180000
  4.4310951373570004  0.0000064646560003  3.0738143403180000
  3.9902757700290001 -3.8374221971400000  3.0738020451589998
  2.2155374357670001  3.8374269459340002  9.2213569548409993
