Ti Tc W 
 1.0000000000000000
     0.0000000000000000    3.1044149999999999    3.1044149999999999
     3.1044149999999999    0.0000000000000000    3.1044149999999999
     3.1044149999999999    3.1044149999999999    0.0000000000000000
 Ti  Tc  W  
   1   2   1
Cartesian
  3.1044149999999999  3.1044149999999999  3.1044149999999999
  1.5522075000000000  1.5522075000000000  1.5522075000000000
  4.6566225000000001  4.6566225000000001  4.6566225000000001
  0.0000000000000000  0.0000000000000000  0.0000000000000000
