Cs Gd O 
 1.0000000000000000
     3.5910479999999998    0.0000060000000000   -0.0000330000000000
    -1.7955200000000000    3.1099359999999998    0.0000580000000000
    -0.0001230000000000    0.0001800000000000   13.6986000000000008
 Cs  Gd  O  
   2   2   4
Cartesian
 -0.0002116780450000  2.0732825343559997 10.2738543784520004
  1.7957944348429997  1.0365875605219999  3.4247432193530001
  1.7956087979749999  3.1097585142739996  0.0000660926090000
 -0.0002195055060000  0.0003698938860000  6.8492726079870003
 -0.0002335117950000  2.0737294412280001  5.7066589541940003
  0.0001647757260000  2.0730443747459999  1.1427922707689999
  1.7952973634199998  1.0370269852180001  7.9919249616070012
  1.7954862095890001  1.0366018062580000 12.5559286108210006
