Tm Pb
 1.0000000000000000
     4.8322659999999997    0.0000000000000000    0.0000000000000000
     0.0000000000000000    4.8322659999999997    0.0000000000000000
     0.0000000000000000    0.0000000000000000    4.8322659999999997
 Tm  Pb 
   1   3
Cartesian
  0.0000000000000000  0.0000000000000000  0.0000000000000000
  2.4161329999999999  2.4161329999999999  0.0000000000000000
  2.4161329999999999  0.0000000000000000  2.4161329999999999
  0.0000000000000000  2.4161329999999999  2.4161329999999999
