Ru O 
 1.0000000000000000
     3.1113409999999999    0.0000000000000000    0.0000000000000000
     0.0000000000000000    4.4816479999999999    0.0000000000000000
     0.0000000000000000    0.0000000000000000    4.4833530000000001
 Ru  O  
   2   4
Cartesian
  1.5556705000000000  2.2408239999999999  2.2416765000000001
  0.0000000000000000  0.0000000000000000  0.0000000000000000
  1.5556705000000000  3.6093489965760002  0.8719135247340001
  1.5556705000000000  0.8722990034240000  3.6114394752659997
  0.0000000000000000  3.1131230034239996  3.1135900247340005
  0.0000000000000000  1.3685249965760000  1.3697629752660001
