Cs C  S  N 
 1.0000000000000000
     6.4395780000000000    0.0000000000000000    0.0000000000000000
     0.0000000000000000    8.1294070000000005    0.0000000000000000
     0.0000000000000000    0.0000000000000000    8.5098029999999998
 Cs  C   S   N  
   4   4   4   4
Cartesian
  1.6098945000000000  5.5322728280820002  5.1464054818860001
  1.6098945000000000  1.4675693280820001  7.6182990181139996
  4.8296834999999998  2.5971341719179999  3.3633975181139997
  4.8296834999999998  6.6618376719180006  0.8915039818859999
  1.6098945000000000  5.4750743204300010  0.5010572006400000
  4.8296834999999998  6.7190361795699998  4.7559587006399999
  1.6098945000000000  1.4103708204300001  3.7538442993599999
  4.8296834999999998  2.6543326795700004  8.0087457993599998
  4.8296834999999998  7.9335614559630008  5.8500130135320001
  1.6098945000000000  4.2605490440370000  1.5951115135320000
  1.6098945000000000  0.1958455440370000  2.6597899864680001
  4.8296834999999998  3.8688579559630005  6.9146914864679996
  1.6098945000000000  2.3165314304990003  4.5287554703430004
  4.8296834999999998  5.8128755695010002  3.9810475296569998
  1.6098945000000000  6.3812349304990006  8.2359490296570002
  4.8296834999999998  1.7481720695010001  0.2738539703430000
