Tb C 
 1.0000000000000000
     3.2797139999999998    0.0000000000000000   -1.6739710000000001
    -0.8543970000000000    3.1664699999999999   -1.6739710000000001
     0.0037420000000000    0.0048850000000000    4.0571960000000002
 Tb  C  
   1   2
Cartesian
  0.0000000000000000  0.0000000000000000  0.0000000000000000
  1.4657403627129999  1.9136560807300000 -1.1781138585580004
  0.9633186372870000  1.2576989192699999  1.8873678585579998
