La Pb Au
 1.0000000000000000
     0.0000000000000000    3.6561480000000000    3.6561480000000000
     3.6561480000000000    0.0000000000000000    3.6561480000000000
     3.6561480000000000    3.6561480000000000    0.0000000000000000
 La  Pb  Au 
   1   1   2
Cartesian
  1.8280740000000000  1.8280740000000000  1.8280740000000000
  5.4842219999999999  5.4842219999999999  5.4842219999999999
  3.6561480000000000  3.6561480000000000  3.6561480000000000
  0.0000000000000000  0.0000000000000000  0.0000000000000000
