Hf Si
 1.0000000000000000
     7.0298990000000003    0.0000000000000000    0.0000000000000000
     0.0000000000000000    7.0298990000000003    0.0000000000000000
     0.0000000000000000    0.0000000000000000    3.6716489999999999
 Hf  Si 
   6   4
Cartesian
  4.7329638605380007  5.8118846394619998  1.8358245000000000
  5.8118846394619998  2.2969351394620001  1.8358245000000000
  2.2969351394620001  1.2180143605380001  1.8358245000000000
  1.2180143605380001  4.7329638605380007  1.8358245000000000
  3.5149495000000002  3.5149495000000002  0.0000000000000000
  0.0000000000000000  0.0000000000000000  0.0000000000000000
  4.3857641788270003  0.8708146788270000  0.0000000000000000
  6.1590843211730002  4.3857641788270003  0.0000000000000000
  0.8708146788270000  2.6441348211730000  0.0000000000000000
  2.6441348211730000  6.1590843211730002  0.0000000000000000
