Lu Zn
 1.0000000000000000
     3.4557880000000001    0.0000000000000000    0.0000000000000000
     0.0000000000000000    3.4557880000000001    0.0000000000000000
     0.0000000000000000    0.0000000000000000    3.4557880000000001
 Lu  Zn 
   1   1
Cartesian
  0.0000000000000000  0.0000000000000000  0.0000000000000000
  1.7278940000000000  1.7278940000000000  1.7278940000000000
