Pr Sn
 1.0000000000000000
     4.4952750000000004   -0.0000000000000000    0.0000000000000000
     0.0000000000000000    0.0000000000000000    4.6074739999999998
    -2.2476360000000000   -8.2542209999999994    0.0000000000000000
 Pr  Sn 
   2   4
Cartesian
  2.2476385697670005 -5.8867288243379994  2.3037369999999999
  0.0000004302330001 -2.3674921756620000  2.3037369999999999
  2.2476358197990005 -3.1224975163109998  0.0000000000000000
  0.0000031802010003 -5.1317234836889991  0.0000000000000000
  2.2476375000000002  0.0000000000000000  2.3037369999999999
  0.0000000000000000  0.0000000000000000  0.0000000000000000
