Na Tl Cd
 1.0000000000000000
     0.0000000000000000    3.7373059999999998    3.7373059999999998
     3.7373059999999998    0.0000000000000000    3.7373059999999998
     3.7373059999999998    3.7373059999999998    0.0000000000000000
 Na  Tl  Cd 
   1   2   1
Cartesian
  5.6059589999999995  5.6059589999999995  5.6059589999999995
  3.7373134746119998  3.7373134746119998  3.7373134746119998
  0.0000000000000000  0.0000000000000000  0.0000000000000000
  1.8686529999999999  1.8686529999999999  1.8686529999999999
