Cd Pd
 1.0000000000000000
    -2.0040879999999999    2.0040879999999999    3.9786370000000000
     2.0040879999999999   -2.0040879999999999    3.9786370000000000
     2.0040879999999999    2.0040879999999999   -3.9786370000000000
 Cd  Pd 
   1   3
Cartesian
  0.0000000000000000  0.0000000000000000  0.0000000000000000
  0.0000000000000001  2.0040960163519994  1.9893185000000000
  2.0040960163519999 -0.0000000000000001  1.9893185000000000
  0.0000000000000000  0.0000000000000000  3.9786370000000000
