Sr Pd F 
 1.0000000000000000
     5.2691169999999996    0.0000000000000000   -2.5001460000000000
    -1.1862960000000000    5.1338390000000000   -2.5001460000000000
    -0.0294200000000000   -0.0369930000000000    6.7404659999999996
 Sr  Pd  F  
   2   2   8
Cartesian
  1.0059952499999998  1.2649632500000001  2.1201599999999998
  3.0474057499999998  3.8318827500000001 -0.3799860000000002
 -0.5931480000000000  2.5669195000000000 -1.2500730000000000
  2.6345584999999998  0.0000000000000000 -1.2500730000000000
  4.5157948216949997  2.3655126831330002 -1.7804332635960001
  3.4218547920309996  0.9899659311010001  2.7165303082440002
 -0.4623938216950002  2.7313333168670004  3.5206072635959997
  0.9780598066070000  0.1644138168670000  4.3686417859199995
  0.6315462079689997  4.1068800688990006 -0.9763563082440000
  2.0719998362709999  1.5399605688989999 -0.1283217859200000
  3.0753411933930002  4.9324321831329998 -2.6284677859200003
  1.9814011637290001  3.5568854311010001  1.8684957859200000
