Ti Si Ru
 1.0000000000000000
     0.0000000000000000    2.9838300000000002    2.9838300000000002
     2.9838300000000002    0.0000000000000000    2.9838300000000002
     2.9838300000000002    2.9838300000000002    0.0000000000000000
 Ti  Si  Ru 
   1   1   2
Cartesian
  4.4757449999999999  4.4757449999999999  4.4757449999999999
  1.4919150000000001  1.4919150000000001  1.4919150000000001
  0.0000000000000000  0.0000000000000000  0.0000000000000000
  2.9838300000000002  2.9838300000000002  2.9838300000000002
