Rb In Te
 1.0000000000000000
     7.1144809999999996   -0.0265420000000000   -1.8955310000000001
    -4.2067639999999997    5.7375689999999997   -1.8955310000000001
     0.0135140000000000    0.0265420000000000    7.3626569999999996
 Rb  In  Te 
   2   2   4
Cartesian
  2.1807877500000004  4.2832702500000002 -2.8432965000000001
  0.7269292500000000  1.4277567499999999 -0.9477655000000000
  4.2909267500000006  1.4277567499999999  1.7857974999999997
 -1.3696957500000000  4.3098122499999993  1.7857974999999997
  1.6572168108750001  0.9708203951750000  2.7335629999999997
 -1.6023405868890004  3.8528758686330002  4.5751570304429992
  4.5235715868889992  1.8846931313670001 -1.0035620304430002
  1.2640141891250005  4.7667486048249987  0.8380319999999997
