Li Zn Sb
 1.0000000000000000
     4.4659219999999999    0.0000000000000000    0.0000000000000000
    -2.2329610000000000    3.8676020000000002    0.0000000000000000
     0.0000000000000000    0.0000000000000000    7.2449899999999996
 Li  Zn  Sb 
   2   2   2
Cartesian
  0.0000000000000000  0.0000000000000000  4.8897017109199989
  0.0000000000000000  0.0000000000000000  1.2672067109200000
 -0.0000022329610000  2.5784026225340000  0.0858603764900000
  2.2329632329610001  1.2891993774660000  3.7083553764899992
  2.2329632329610001  1.2891993774660000  6.4787671025899991
 -0.0000022329610000  2.5784026225340000  2.8562721025899998
