Cs Ta N 
 1.0000000000000000
     6.2365459999999997   -0.0122910000000000    0.0173830000000000
     3.1076269999999999    5.3825690000000002    0.0000000000000000
     3.1289180000000001    1.7818989999999999    5.0921180000000001
 Cs  Ta  N  
   2   2   4
Cartesian
  6.2365455000000001  3.5760885000000000  2.5547504999999999
  9.3548182499999992  5.3641327500000004  3.8321257500000003
  0.0000000000000000  0.0000000000000000  0.0000000000000000
  3.1182727500000000  1.7880442500000000  1.2773752500000000
  4.8372315239830002  1.1646967661009999  0.6473791250000001
  1.7189585754120000  0.8017487274900000  0.3776990786850000
  2.9637732260170000  1.5081514838990000  3.1847466250000003
  2.9531276745880000  3.6775800225099999  0.8996761713150000
