Hf Pd
 1.0000000000000000
     5.6702890000000004    0.0000000000000000    0.0000000000000000
    -2.8351440000000001    4.9106139999999998    0.0000000000000000
     0.0000000000000000    0.0000000000000000    9.3021759999999993
 Hf  Pd 
   4  12
Cartesian
  2.8351475018110004  1.6368696964620000  6.9766319999999995
 -0.0000025018109999  3.2737443035379998  2.3255439999999998
  0.0000000000000000  0.0000000000000000  4.6510879999999997
  0.0000000000000000  0.0000000000000000  0.0000000000000000
  0.0000030039460001  1.6578380182419998  6.9766319999999995
  4.2345548987340003  0.8289214644280000  2.3255439999999998
  1.4357285997789999  0.8289214644280000  2.3255439999999998
  1.3994164002210001  4.0816925355719995  6.9766319999999995
  2.8351445000000002  0.0000000000000000  0.0000000000000000
  1.4175725000000001  2.4553069999999999  4.6510879999999997
 -1.4175720000000001  2.4553069999999999  4.6510879999999997
 -1.4175720000000001  2.4553069999999999  0.0000000000000000
  1.4175725000000001  2.4553069999999999  0.0000000000000000
  2.8351445000000002  0.0000000000000000  4.6510879999999997
  2.8351419960540003  3.2527759817580000  2.3255439999999998
 -1.3994098987340000  4.0816925355719995  6.9766319999999995
