Ti Zn Ir
 1.0000000000000000
     0.0000010000000000    3.0446179999999998    3.0446179999999998
     3.0446190000000000    0.0000010000000000    3.0446179999999998
     3.0446200000000001    3.0446190000000000    0.0000000000000000
 Ti  Zn  Ir 
   1   1   2
Cartesian
  1.5223100000000001  1.5223095000000000  1.5223089999999999
  4.5669300000000002  4.5669284999999995  4.5669269999999997
  0.0000000000000000  0.0000000000000000  0.0000000000000000
  3.0446139107600003  3.0446129107619999  3.0446119107640000
