Er Cu Si
 1.0000000000000000
     4.0907330000000002    0.0000000000000000    0.0000000000000000
    -2.0453670000000002    3.5426790000000001    0.0000000000000000
     0.0000000000000000    0.0000000000000000    7.4018160000000002
 Er  Cu  Si 
   2   2   2
Cartesian
  0.0000000000000000  0.0000000000000000  3.7009080000000001
  0.0000000000000000  0.0000000000000000  0.0000000000000000
 -0.0000023787000001  2.3617871808930002  1.8504540000000000
  2.0453683787000005  1.1808918191069999  5.5513620000000001
  2.0453683787000005  1.1808918191069999  1.8504540000000000
 -0.0000023787000001  2.3617871808930002  5.5513620000000001
