Sc Al
 1.0000000000000000
     4.8996079999999997    0.0000000000000000    0.0000000000000000
    -2.4498039999999999    4.2431850000000004    0.0000000000000000
     0.0000000000000000    0.0000000000000000    6.1681309999999998
 Sc  Al 
   4   2
Cartesian
  0.0000000000000000  0.0000000000000000  0.0000000000000000
  0.0000000000000000  0.0000000000000000  3.0840654999999999
 -0.0000024498040000  2.8287914143950004  4.6260982500000001
  2.4498064498040000  1.4143935856050001  1.5420327500000000
 -0.0000024498040000  2.8287914143950004  1.5420327500000000
  2.4498064498040000  1.4143935856050001  4.6260982500000001
