Sr Al Si
 1.0000000000000000
     4.1903850000000000    0.0000000000000000    0.0000000000000000
    -2.0951930000000001    3.6289799999999999    0.0000000000000000
     0.0000000000000000    0.0000000000000000    7.4392160000000001
 Sr  Al  Si 
   1   2   2
Cartesian
  0.0000000000000000  0.0000000000000000  0.0000000000000000
  2.0951944285260002  1.2096587903400000  2.7964310512640003
 -0.0000024285260002  2.4193212096600001  4.6427849487359998
  2.0951944285260002  1.2096587903400000  5.3706452813920000
 -0.0000024285260002  2.4193212096600001  2.0685707186080000
