Ca Hg O 
 1.0000000000000000
     3.4626929999999998    0.0065470000000000    5.6130300000000002
     1.5970080000000000    3.0724350000000000    5.6130300000000002
     0.0107590000000000    0.0065470000000000    6.5951680000000001
 Ca  Hg  O  
   1   1   2
Cartesian
  2.5352299999999999  1.5427644999999999  8.9106140000000007
  0.0000000000000000  0.0000000000000000  0.0000000000000000
  4.5347557600800004  2.7595366900920002 15.9383796193440013
  0.5357042399199999  0.3259923099080000  1.8828483806559999
