Ti Zn Au
 1.0000000000000000
     0.0000000000000000    3.1897790000000001    3.1897790000000001
     3.1897790000000001    0.0000000000000000    3.1897790000000001
     3.1897790000000001    3.1897790000000001    0.0000000000000000
 Ti  Zn  Au 
   1   1   2
Cartesian
  1.5948895000000001  1.5948895000000001  1.5948895000000001
  4.7846621204420003  4.7846621204420003  4.7846621204420003
  0.0000000000000000  0.0000000000000000  0.0000000000000000
  3.1897853795580002  3.1897853795580002  3.1897853795580002
