Hf Mo
 1.0000000000000000
     7.5866059999999997    0.0000000000000000    0.0000000000000000
     0.0000000000000000    7.5866059999999997    0.0000000000000000
     0.0000000000000000    0.0000000000000000    7.5866059999999997
 Hf  Mo 
   8  16
Cartesian
  0.9483257500000000  0.9483257500000000  0.9483257500000000
  6.6382802499999993  6.6382802499999993  6.6382802499999993
  0.9483257500000000  4.7416287500000003  4.7416287500000003
  6.6382802499999993  2.8449772499999999  2.8449772499999999
  4.7416287500000003  0.9483257500000000  4.7416287500000003
  2.8449772499999999  6.6382802499999993  2.8449772499999999
  4.7416287500000003  4.7416287500000003  0.9483257500000000
  2.8449772499999999  2.8449772499999999  6.6382802499999993
  5.6899544999999998  5.6899544999999998  3.7933029999999999
  1.8966514999999999  0.0000000000000000  5.6899544999999998
  0.0000000000000000  0.0000000000000000  3.7933029999999999
  3.7933029999999999  5.6899544999999998  5.6899544999999998
  5.6899544999999998  1.8966514999999999  0.0000000000000000
  1.8966514999999999  3.7933029999999999  1.8966514999999999
  0.0000000000000000  3.7933029999999999  0.0000000000000000
  3.7933029999999999  1.8966514999999999  1.8966514999999999
  1.8966514999999999  5.6899544999999998  0.0000000000000000
  5.6899544999999998  0.0000000000000000  1.8966514999999999
  3.7933029999999999  0.0000000000000000  0.0000000000000000
  0.0000000000000000  5.6899544999999998  1.8966514999999999
  1.8966514999999999  1.8966514999999999  3.7933029999999999
  5.6899544999999998  3.7933029999999999  5.6899544999999998
  3.7933029999999999  3.7933029999999999  3.7933029999999999
  0.0000000000000000  1.8966514999999999  5.6899544999999998
