Si Rh
 1.0000000000000000
    12.2478269999999991    0.0000000000000000   -2.1796229999999999
     0.0000000000000000    3.5572810000000001    0.0000000000000000
     0.0003920000000000    0.0000000000000000    5.9878099999999996
 Si  Rh 
  10   8
Cartesian
  0.9472150279789999  2.6679607500000002  2.8986412131770001
  1.7126913173830001  2.6679607500000002  5.5588048221249995
  7.7812336000610003  0.8893202500000000  2.4393394089950000
  5.1757429472599998  0.8893202500000000  4.4277122745019994
  2.7414670295179997  0.8893202500000000  2.3057499436460001
 11.3010039720210003  0.8893202500000000  0.9095457868229999
  4.4669853999389995  2.6679607500000002  1.3688475910050000
  9.5067519704820000  2.6679607500000002  1.5024370563539997
 10.5355276826169995  0.8893202500000000 -1.7506178221249999
  7.0724760527399990  2.6679607500000002 -0.6195252745019998
  6.1244843029189990  0.8893202500000000  0.7069598177990000
  6.1237346970809998  2.6679607500000002  3.1012271822009998
  8.9007845883969985  2.6679607500000002  3.7615225950249997
  3.3474344116029999  0.8893202500000000  0.0466644049749999
  8.9436835126509990  0.8893202500000000  0.1195746223689999
  0.6132324786340000  0.8893202500000000  1.1398211231739999
 11.6349865213659989  2.6679607500000002  2.6683658768259999
  3.3045354873489998  2.6679607500000002  3.6886123776309998
