Ti Al Ni
 1.0000000000000000
    -0.0001110000000000    5.8634089999999999    5.8634120000000003
     5.8634060000000003   -0.0001110000000000    5.8634110000000002
     5.8634069999999996    5.8634079999999997   -0.0001110000000000
 Ti  Al  Ni 
   6  16   7
Cartesian
  9.5841867158489986  5.8633233269289997  5.8633263269319995
  2.1425152841510000  5.8633826730710004  5.8633856730680005
  5.8633219616160002  9.5841782580810015  5.8633269616210004
  5.8633154639680001  5.8633180985399997  9.5841479811239996
  5.8633800383840002  2.1425277419189999  5.8633850383789996
  5.8633806725139994  5.8633879014609995  2.1425698823990000
  9.8162815238870014  9.8162790087190004  9.8162840312440007
  7.7737871491770001  7.7737842856610007  9.8163109707160014
  9.8163143266640009  7.7737898006149999  7.7737996416270008
  7.7737933608159997  9.8163118114949999  7.7737999899710006
  1.9104204761129999  1.9104269912809999  1.9104279687560000
  3.9529089874159999  3.9529158509310003  1.9104010293950000
  3.9529145025900001  1.9103941883939999  3.9529178734400001
  1.9103935367420000  3.9529161992739996  3.9529182217840000
  7.2592448358650001  7.2592473120080001  7.2592568897430008
  4.4674246365519998  4.4674266365539994  7.2593214685499996
  7.2593035513670001  4.4674202971109995  4.4674225828920004
  4.4674251128089990  7.2593118909189993  4.4674230589260002
  4.4674571641350003  4.4674586879920000  4.4674551102570010
  7.2592773634479997  7.2592793634459998  4.4673905314500004
  7.2592768871909996  4.4673941090809999  7.2592889410740007
  4.4673984486320002  7.2592798393699995  7.2592952806300008
  5.8634065000000000  2.9316484999999997  2.9316499999999999
  5.8633514999999994  8.7951125000000001  2.9315950000000002
  2.9316479999999996  5.8634085000000002  2.9316504999999999
  8.7950544999999991  8.7950569999999999  5.8633004999999994
  2.9315920000000002  5.8633534999999997  8.7951174999999999
  8.7951095000000006  2.9315929999999999  5.8633554999999999
  5.8633509999999998  5.8633530000000000  5.8633559999999996
