Mo Br
 1.0000000000000000
     6.0832069999999998    0.0000000000000000    0.0000000000000000
     0.0000000000000000    6.8459810000000001    0.0000000000000000
     0.0000000000000000    0.0000000000000000   11.8596970000000006
 Mo  Br 
   4  12
Cartesian
  4.4251802664940003  1.7412341914640002  5.9298485000000003
  1.3835767664940000  5.1047468085360004  0.0000000000000000
  1.6580267335060002  1.7412341914640002  5.9298485000000003
  4.6996302335059994  5.1047468085360004  0.0000000000000000
  3.0416034999999999  0.6637041659880001  7.7923901944559999
  0.0000000000000000  6.1822768340119998  9.9971553055440001
  3.0416034999999999  0.6637041659880001  4.0673068055439998
  0.0000000000000000  6.1822768340119998  1.8625416944560000
  0.0000000000000000  2.9538217301080003  0.0000000000000000
  3.0416034999999999  3.8921592698920002  5.9298485000000003
  3.0416034999999999  0.2947263280310000  0.0000000000000000
  0.0000000000000000  6.5512546719690006  5.9298485000000003
  0.0000000000000000  2.7528784957959997  4.1651611654909999
  3.0416034999999999  4.0931025042039995  1.7646873345090002
  0.0000000000000000  2.7528784957959997  7.6945358345089998
  3.0416034999999999  4.0931025042039995 10.0950096654910002
