Sr Si Au
 1.0000000000000000
     4.1217329999999999    0.0000000000000000   -1.6312869999999999
    -0.6456240000000000    4.0708539999999998   -1.6312869999999999
    -0.0306730000000000   -0.0359220000000000    5.9452870000000004
 Sr  Si  Au 
   1   2   2
Cartesian
  0.0000000000000000  0.0000000000000000  0.0000000000000000
  2.1394565065599997  2.5055066624119999 -0.6170801732869999
  1.3059794934399998  1.5294253375879998  3.2997931732870005
  0.5308787500000000  3.0351794999999995  1.3413565000000003
  2.9145572500000001  0.9997524999999999  1.3413565000000003
