Cs Tl In Br
 1.0000000000000000
     0.0000000000000000    5.9009060000000000    5.9009060000000000
     5.9009060000000000    0.0000000000000000    5.9009060000000000
     5.9009060000000000    5.9009060000000000    0.0000000000000000
 Cs  Tl  In  Br 
   2   1   1   6
Cartesian
  8.8513590000000004  8.8513590000000004  8.8513590000000004
  2.9504530000000000  2.9504530000000000  2.9504530000000000
  5.9009060000000000  5.9009060000000000  5.9009060000000000
  0.0000000000000000  0.0000000000000000  0.0000000000000000
  2.7217574870640000  5.9009060000000000  5.9009060000000000
  5.9009060000000000  5.9009060000000000  2.7217574870640000
  9.0800545129360000  5.9009060000000000  5.9009060000000000
  5.9009060000000000  2.7217574870640000  5.9009060000000000
  5.9009060000000000  9.0800545129360000  5.9009060000000000
  5.9009060000000000  5.9009060000000000  9.0800545129360000
