Mn Co Sb
 1.0000000000000000
     5.8243470000000004    0.0000000000000000    0.0000000000000000
     0.0000000000000000    5.8243470000000004    0.0000000000000000
     0.0000000000000000    0.0000000000000000    5.8243470000000004
 Mn  Co  Sb 
   4   4   4
Cartesian
  0.0000000000000000  0.0000000000000000  2.9121735000000002
  0.0000000000000000  2.9121735000000002  0.0000000000000000
  2.9121735000000002  0.0000000000000000  0.0000000000000000
  2.9121735000000002  2.9121735000000002  2.9121735000000002
  1.4560867500000001  4.3682602500000005  1.4560867500000001
  1.4560867500000001  1.4560867500000001  4.3682602500000005
  4.3682602500000005  4.3682602500000005  4.3682602500000005
  4.3682602500000005  1.4560867500000001  1.4560867500000001
  0.0000000000000000  0.0000000000000000  0.0000000000000000
  0.0000000000000000  2.9121735000000002  2.9121735000000002
  2.9121735000000002  0.0000000000000000  2.9121735000000002
  2.9121735000000002  2.9121735000000002  0.0000000000000000
