Nd Pb
 1.0000000000000000
     4.9098080000000000    0.0000000000000000    0.0000000000000000
     0.0000000000000000    4.9098080000000000    0.0000000000000000
     0.0000000000000000    0.0000000000000000    4.9098080000000000
 Nd  Pb 
   1   3
Cartesian
  0.0000000000000000  0.0000000000000000  0.0000000000000000
  0.0000000000000000  2.4549040000000000  2.4549040000000000
  2.4549040000000000  2.4549040000000000  0.0000000000000000
  2.4549040000000000  0.0000000000000000  2.4549040000000000
