Pb S  O 
 1.0000000000000000
     5.4064240000000003    0.0000000000000000    0.0000000000000000
     0.0000000000000000    6.9612639999999999    0.0000000000000000
     0.0000000000000000    0.0000000000000000    8.4381039999999992
 Pb  S   O  
   4   4  16
Cartesian
  1.3516060000000001  2.3143557519679998  5.8276415179359988
  4.0548180000000000  4.6469082480320001  2.6104624820639994
  4.0548180000000000  5.7949877519679998  6.8295144820639999
  1.3516060000000001  1.1662762480319999  1.6085895179359999
  4.0548180000000000  2.2101665136799999  7.8977953246719990
  1.3516060000000001  4.7510974863200000  0.5403086753280000
  1.3516060000000001  5.6907985136799999  4.7593606753279998
  4.0548180000000000  1.2704654863200000  3.6787433246719998
  4.0548180000000000  2.8329281523840000  0.7799508289279999
  1.3516060000000001  4.1283358476160004  7.6581531710719997
  1.3516060000000001  6.3135601523839995  3.4391011710719996
  4.0548180000000000  0.6477038476160000  4.9990028289279991
  2.5596552235280003  5.6126931315999995  0.6825666706640000
  5.2628672235279996  1.3485708684000000  7.7555373293359988
  2.8467687764720004  2.1320611316000000  3.5364853293359997
  0.1435567764720000  4.8292028684000003  4.9016186706639999
  4.0548180000000000  0.2807965059680000  2.5815366615519997
  1.3516060000000001  6.6804674940320004  5.8565673384479995
  1.3516060000000001  3.7614285059679995  1.6375153384479999
  4.0548180000000000  3.1998354940320000  6.8005886615519993
  5.2628672235279996  2.1320611316000000  3.5364853293359997
  2.5596552235280003  4.8292028684000003  4.9016186706639999
  0.1435567764720000  5.6126931315999995  0.6825666706640000
  2.8467687764720004  1.3485708684000000  7.7555373293359988
