Nd Si Pd
 1.0000000000000000
     3.9310070000000001    0.0000000000000000   -1.5373669999999999
    -0.6012450000000000    3.8847550000000002   -1.5373669999999999
     0.0006230000000000    0.0007270000000000    5.7960140000000004
 Nd  Si  Pd 
   1   2   2
Cartesian
  0.0000000000000000  0.0000000000000000  0.0000000000000000
  2.0625167502379997  2.4062898146200000 -0.5206119540159999
  1.2678682497620002  1.4791921853800001  3.2418919540160003
  2.7982554999999998  0.9715522500000000  1.3606400000000003
  0.5321295000000000  2.9139297500000003  1.3606400000000003
