Nb Bi
 1.0000000000000000
     5.3757299999999999    0.0000000000000000    0.0000000000000000
     0.0000000000000000    5.3757299999999999    0.0000000000000000
     0.0000000000000000    0.0000000000000000    5.3757299999999999
 Nb  Bi 
   6   2
Cartesian
  2.6878649999999999  1.3439325000000000  0.0000000000000000
  0.0000000000000000  2.6878649999999999  4.0317974999999997
  4.0317974999999997  0.0000000000000000  2.6878649999999999
  2.6878649999999999  4.0317974999999997  0.0000000000000000
  0.0000000000000000  2.6878649999999999  1.3439325000000000
  1.3439325000000000  0.0000000000000000  2.6878649999999999
  0.0000000000000000  0.0000000000000000  0.0000000000000000
  2.6878649999999999  2.6878649999999999  2.6878649999999999
