Nd Co Si
 1.0000000000000000
     3.6731280000000002    0.0000000000000000   -1.3629789999999999
    -0.5057580000000000    3.6381420000000002   -1.3629789999999999
     0.0271750000000000    0.0312140000000000    5.7041279999999999
 Nd  Co  Si 
   1   2   2
Cartesian
  0.0000000000000000  0.0000000000000000  0.0000000000000000
  0.5525510000000000  2.7442135000000003  1.4890850000000000
  2.6419940000000000  0.9251425000000001  1.4890850000000000
  2.0182917247550001  2.3182740987879997 -0.1917627944819999
  1.1762532752449999  1.3510819012120001  3.1699327944819999
