Pr N 
 1.0000000000000000
     3.1924519999999998    0.0000000000000000    1.8431630000000001
     1.0641510000000001    3.0098710000000000    1.8431630000000001
     0.0000000000000000    0.0000000000000000    3.6863260000000002
 Pr  N  
   1   1
Cartesian
  2.1283015000000001  1.5049355000000000  3.6863260000000002
  0.0000000000000000  0.0000000000000000  0.0000000000000000
