Ce Ir
 1.0000000000000000
     4.6506660000000002    0.0000000000000000    2.6850649999999998
     1.5502220000000000    4.3846920000000003    2.6850649999999998
    -0.0000010000000000   -0.0000000000000000    5.3701319999999999
 Ce  Ir 
   2   4
Cartesian
  5.4257714743330006  3.8366055000000001  9.3977319350670001
  0.7751155256669999  0.5480865000000000  1.3425300649329999
  3.1004434999999999  2.1923460000000001  5.3701309999999998
  3.1004440000000000  2.1923460000000001  2.6850649999999998
  0.7751105000000000  2.1923460000000001  4.0275984999999999
  2.3253325000000000  0.0000000000000000  4.0275984999999999
