Li Sb Au
 1.0000000000000000
     6.6193249999999999    0.0000000000000000    0.0000000000000000
     0.0000000000000000    6.6193249999999999    0.0000000000000000
     0.0000000000000000    0.0000000000000000    6.6193249999999999
 Li  Sb  Au 
   8   4   4
Cartesian
  4.9644937499999999  1.6548312500000000  1.6548312500000000
  0.0000000000000000  0.0000000000000000  3.3096625000000000
  4.9644937499999999  4.9644937499999999  4.9644937499999999
  0.0000000000000000  3.3096625000000000  0.0000000000000000
  1.6548312500000000  1.6548312500000000  4.9644937499999999
  3.3096625000000000  0.0000000000000000  0.0000000000000000
  1.6548312500000000  4.9644937499999999  1.6548312500000000
  3.3096625000000000  3.3096625000000000  3.3096625000000000
  0.0000000000000000  0.0000000000000000  0.0000000000000000
  0.0000000000000000  3.3096625000000000  3.3096625000000000
  3.3096625000000000  0.0000000000000000  3.3096625000000000
  3.3096625000000000  3.3096625000000000  0.0000000000000000
  1.6548312500000000  4.9644937499999999  4.9644937499999999
  1.6548312500000000  1.6548312500000000  1.6548312500000000
  4.9644937499999999  4.9644937499999999  1.6548312500000000
  4.9644937499999999  1.6548312500000000  4.9644937499999999
