Mg Cu Sb
 1.0000000000000000
     6.2528259999999998    0.0000000000000000    0.0000000000000000
     0.0000000000000000    6.2528259999999998    0.0000000000000000
     0.0000000000000000    0.0000000000000000    6.2528259999999998
 Mg  Cu  Sb 
   4   4   4
Cartesian
  3.1264129999999999  0.0000000000000000  0.0000000000000000
  3.1264129999999999  3.1264129999999999  3.1264129999999999
  0.0000000000000000  0.0000000000000000  3.1264129999999999
  0.0000000000000000  3.1264129999999999  0.0000000000000000
  4.6896195000000001  1.5632064999999999  4.6896195000000001
  4.6896195000000001  4.6896195000000001  1.5632064999999999
  1.5632064999999999  1.5632064999999999  1.5632064999999999
  1.5632064999999999  4.6896195000000001  4.6896195000000001
  0.0000000000000000  0.0000000000000000  0.0000000000000000
  0.0000000000000000  3.1264129999999999  3.1264129999999999
  3.1264129999999999  0.0000000000000000  3.1264129999999999
  3.1264129999999999  3.1264129999999999  0.0000000000000000
