Nd Sb Os
 1.0000000000000000
    -4.6804530000000000   -4.6804530000000000    4.6804530000000000
    -4.6804530000000000    4.6804530000000000   -4.6804530000000000
     4.6804530000000000   -4.6804530000000000   -4.6804530000000000
 Nd  Sb  Os 
   1  12   4
Cartesian
  0.0000000000000000  0.0000000000000000  0.0000000000000000
 -1.4663625226349999  0.0000046804529999 -6.1806739196369991
 -3.2140904773650005 -4.6804576804530003  1.5002209196370002
 -3.2140998382709998 -4.6804483195469997 -1.5002209196370000
 -1.4663531617290000 -0.0000046804530001 -3.1802320803629995
 -6.1806739196369991 -1.4663625226349999  0.0000046804529998
  1.5002209196370002 -3.2140904773650001 -4.6804576804530003
 -1.5002209196369993 -3.2140998382710002 -4.6804483195469997
 -3.1802320803629995 -1.4663531617290000 -0.0000046804530001
  0.0000046804530000 -6.1806739196370000 -1.4663625226350001
 -4.6804576804530003  1.5002209196370002 -3.2140904773650001
 -4.6804483195469997 -1.5002209196369998 -3.2140998382710002
 -0.0000046804530002 -3.1802320803630000 -1.4663531617290000
  2.3402265000000000 -2.3402265000000000 -2.3402265000000000
 -2.3402265000000000 -2.3402265000000000  2.3402265000000000
 -2.3402265000000000  2.3402265000000000 -2.3402265000000000
 -2.3402265000000000 -2.3402265000000000 -2.3402265000000000
