Cs C  N 
 1.0000000000000000
     5.8669399999999996    0.0000000000000000    0.0000000000000000
     1.7764650000000000    5.8192370000000002    0.0000000000000000
     1.2184180000000000    1.2948430000000000   12.8627570000000002
 Cs  C   N  
   6   3   6
Cartesian
  6.0531992134469998  2.4399739323140004  5.3653003370830001
  2.8086237865529999  4.6741060676860000  7.4974566629170001
  5.0283685241980001  6.1153683053820007  3.1948001326320004
  3.8334544758019997  0.9987116946179999  9.6679568673679999
  6.5569446678389989  3.1533722438890002 11.7737702668660003
  2.3048783321609996  3.9607077561109998  1.0889867331340000
  2.9334699999999998  0.0000000000000000  0.0000000000000000
  6.2474583412329991  2.8422658651899999  8.5771564854969995
  2.6143646587670002  4.2718141348100005  4.2856005145029998
  6.5931947119119991  6.0601983591210002 12.8451221601530001
  2.2686282880879998  1.0538816408789999  0.0176348398470000
  6.9007543088529992  1.7820296282329999  8.5199815306320001
  1.9610686911469999  5.3320503717670000  4.3427754693680001
  3.2658915592610001  3.2115762402980002  4.2256343413690001
  5.5959314407389993  3.9025037597020003  8.6371226586310001
