La In Rh
 1.0000000000000000
     4.7113399999999999    0.0000000000000000    0.0000000000000000
     0.0000000000000000    4.7113399999999999    0.0000000000000000
     0.0000000000000000    0.0000000000000000    7.6419069999999998
 La  In  Rh 
   1   5   1
Cartesian
  0.0000000000000000  0.0000000000000000  0.0000000000000000
  2.3556699999999999  2.3556699999999999  0.0000000000000000
  2.3556699999999999  0.0000000000000000  5.2899572826099996
  0.0000000000000000  2.3556699999999999  2.3519497173899997
  2.3556699999999999  0.0000000000000000  2.3519497173899997
  0.0000000000000000  2.3556699999999999  5.2899572826099996
  0.0000000000000000  0.0000000000000000  3.8209534999999999
