Ba Zn Sn
 1.0000000000000000
     4.7821449999999999    0.0000000000000000    0.0000000000000000
     0.0000000000000000    4.7821449999999999    0.0000000000000000
     0.0000000000000000    0.0000000000000000   11.2741460000000000
 Ba  Zn  Sn 
   2   4   4
Cartesian
  3.5866087499999999  3.5866087499999999  8.5556788198960003
  1.1955362500000000  1.1955362500000000  2.7184671801040001
  3.5866087499999999  3.5866087499999999  4.1160666889939996
  1.1955362500000000  1.1955362500000000  7.1580793110060004
  1.1955362500000000  3.5866087499999999  0.0000000000000000
  3.5866087499999999  1.1955362500000000  0.0000000000000000
  1.1955362500000000  1.1955362500000000  9.8526453015900000
  3.5866087499999999  3.5866087499999999  1.4215006984100000
  1.1955362500000000  3.5866087499999999  5.6370730000000000
  3.5866087499999999  1.1955362500000000  5.6370730000000000
