Al Fe Co
 1.0000000000000000
     0.0000000000000000    2.8292690000000000    2.8292690000000000
     2.8292690000000000    0.0000000000000000    2.8292690000000000
     2.8292690000000000    2.8292690000000000    0.0000000000000000
 Al  Fe  Co 
   2   1   1
Cartesian
  2.8292690000000000  2.8292690000000000  2.8292690000000000
  0.0000000000000000  0.0000000000000000  0.0000000000000000
  4.2439035000000001  4.2439035000000001  4.2439035000000001
  1.4146345000000000  1.4146345000000000  1.4146345000000000
