Yb Ir
 1.0000000000000000
     3.3435560000000000    0.0000000000000000    0.0000000000000000
     0.0000000000000000    3.3435560000000000    0.0000000000000000
     0.0000000000000000    0.0000000000000000    3.3435560000000000
 Yb  Ir 
   1   1
Cartesian
  0.0000000000000000  0.0000000000000000  0.0000000000000000
  1.6717780000000000  1.6717780000000000  1.6717780000000000
