Sr P  Os
 1.0000000000000000
     3.8466290000000001    0.0000000000000000   -1.2952859999999999
    -0.4361660000000000    3.8218200000000002   -1.2952859999999999
     0.0073390000000000    0.0082250000000000    6.3811299999999997
 Sr  P   Os 
   1   2   2
Cartesian
  0.0000000000000000  0.0000000000000000  0.0000000000000000
  1.1982787285679999  1.3428110829600000  3.5585447034239999
  2.2195232714320001  2.4872339170399997  0.2320132965760001
  0.6382022500000000  2.8704775000000002  1.8952789999999999
  2.7795997500000000  0.9595675000000000  1.8952789999999999
