Nb Si
 1.0000000000000000
     4.8191309999999996    0.0000000000000000    0.0000000000000000
    -2.4095650000000002    4.1734900000000001    0.0000000000000000
     0.0000000000000000    0.0000000000000000    6.6234270000000004
 Nb  Si 
   3   6
Cartesian
  1.2047829999999997  2.0867450000000001  2.2078067921910001
  2.4095654999999998  0.0000000000000000  0.0000000000000000
 -1.2047825000000001  2.0867450000000001  4.4156202078089999
  1.1491074090389999  0.6634346643600000  4.4156202078089999
 -0.0000022506010001  1.3268735022100002  0.0000000000000000
 -1.2604625690560003  3.5100553356400002  2.2078067921910001
  1.2604585909609993  3.5100553356400002  4.4156202078089999
  2.4095682506009997  2.8466164977899999  0.0000000000000000
  3.6700285690559999  0.6634346643600000  2.2078067921910001
