Li Nd Hg
 1.0000000000000000
     0.0000050000000000    3.6147390000000001    3.6147380000000000
     3.6147399999999998    0.0000080000000000    3.6147360000000002
     3.6147399999999998    3.6147369999999999    0.0000070000000000
 Li  Nd  Hg 
   1   1   2
Cartesian
  1.8073712499999999  1.8073709999999998  1.8073702500000000
  5.4221137499999994  5.4221129999999995  5.4221107500000008
  0.0000000000000000  0.0000000000000000  0.0000000000000000
  3.6147424999999997  3.6147419999999997  3.6147404999999999
