Sr Mg Tl
 1.0000000000000000
     0.0000000000000000    3.8436249999999998    3.8436249999999998
     3.8436249999999998    0.0000000000000000    3.8436249999999998
     3.8436249999999998    3.8436249999999998    0.0000000000000000
 Sr  Mg  Tl 
   1   1   2
Cartesian
  5.7654451872500001  5.7654451872500001  5.7654451872500001
  1.9218201872499998  1.9218201872499998  1.9218201872499998
  0.0000000000000000  0.0000000000000000  0.0000000000000000
  3.8436249999999998  3.8436249999999998  3.8436249999999998
