Ca Zr N 
 1.0000000000000000
     6.1307349999999996   -0.0225040000000000   -0.1121570000000000
     2.2653110000000001    5.6966760000000001    0.0585090000000000
     1.5193040000000000    2.6051150000000001    8.8047280000000008
 Ca  Zr  N  
   8   2   8
Cartesian
  6.1653310843569997  4.0204604385530001  1.6734972964750001
  3.7500189156429999  4.2588265614470000  7.0775827035250005
  6.6991897970889998  3.9638049483040003  8.6798010042110008
  3.2161602029109999  4.3154820516960006  0.0712789957890000
  6.4695609317170009  4.1890450320140005  5.0051639644150008
  3.4457890682829997  4.0902419679860005  3.7459160355850005
  4.5620178526360000  6.9165969235099993  5.2666588933480005
  5.3533321473640001  1.3626900764900001  3.4844211066520003
  7.4865134349439995  6.7728837473100008  6.7053541648080008
  2.4288365650560002  1.5064032526900000  2.0457258351920005
  8.5640202234640004  5.5644156978199995  5.3518814707480002
  1.3513297765359999  2.7148713021800002  3.3991985292520002
  8.5570368937060000  7.3383444935589992  8.3774215573700008
  1.3583131062939999  0.9409425064410000  0.3736584426300000
  5.7672349582479994  5.6208744963830002  7.0386280113520003
  4.1481150417519999  2.6584125036169999  1.7124519886480003
  5.4078492171620001  5.6392845922990009  3.3315748451960001
  4.5075007828380000  2.6400024077010000  5.4195051548039999
