Sc Ni Sn
 1.0000000000000000
     4.1875460000000002    0.0000000000000000    2.4176810000000000
     1.3958489999999999    3.9480569999999999    2.4176810000000000
     0.0000000000000000    0.0000000000000000    4.8353619999999999
 Sc  Ni  Sn 
   1   4   1
Cartesian
  0.0000000000000000  0.0000000000000000  0.0000000000000000
  3.4893259550650000  2.4673263779790000  6.0436899516280000
  3.4893259550650000  2.4673263779790000  3.6270292130100001
  1.3964365272710000  2.4673263779790000  4.8353595823190005
  2.7916959792039999  0.4941309180060000  4.8353595823190005
  1.3958487500000001  0.9870142500000000  2.4176810000000000
