Tb Co Si
 1.0000000000000000
     3.9593029999999998   -0.0000000000000000    0.0000000000000000
    -0.0000000000000000    3.9122569999999999   -0.9698650000000000
     0.0000000000000000   -0.0169470000000000    8.3398769999999995
 Tb  Co  Si 
   2   2   4
Cartesian
  0.9898257499999999  3.4749380255579996  5.6692000822859994
  2.9694772499999997  0.4203873523180000  1.7009414762860000
  2.9694772499999997  1.2421601018939998  5.0325473544059998
  0.9898257499999999  2.6530764973080001  2.3370243797939998
  0.9898257499999999  0.9707860678660000  3.9300017197479997
  2.9694772499999997  2.9245431883729998  3.4401555487129998
  2.9694772499999997  1.7722285791719998  7.1753385572699999
  0.9898257499999999  2.1231162752540005  0.1948398513619999
