Ca Au
 1.0000000000000000
    11.1971419999999995    0.0000000000000000    0.0000000000000000
     0.0000000000000000    3.9931220000000001    0.0000000000000000
     0.0000000000000000    0.0000000000000000    4.6486980000000004
 Ca  Au 
   4   4
Cartesian
  9.6332483740019992  0.0000000000000000  1.1621745000000001
  1.5638936259979999  0.0000000000000000  3.4865235000000006
  4.0346773740020003  1.9965610000000000  1.1621745000000001
  7.1624646259980000  1.9965610000000000  3.4865235000000006
  0.9143474185779999  1.9965610000000000  1.1621745000000001
 10.2827945814219994  1.9965610000000000  3.4865235000000006
  6.5129184185779998  0.0000000000000000  1.1621745000000001
  4.6842235814219997  0.0000000000000000  3.4865235000000006
