Cs Nd O 
 1.0000000000000000
     3.6818179999999998    0.0000000000000000    0.0000000000000000
    -1.8409089999999999    3.1885479999999999    0.0000000000000000
     0.0000000000000000    0.0000000000000000   13.7933679999999992
 Cs  Nd  O  
   2   2   4
Cartesian
  1.8409108409090000  1.0628482704839999  3.4483557933679996
 -0.0000018409090001  2.1256997295160001 10.3450259999999989
  0.0000000000000000  0.0000000000000000  6.8966977933680003
  0.0000000000000000  0.0000000000000000 13.7933542066319994
 -0.0000018409090001  2.1256997295160001  1.1784363950799999
  1.8409108409090000  1.0628482704839999 12.6149178115519991
 -0.0000018409090001  2.1256997295160001  5.7182338115519995
  1.8409108409090000  1.0628482704839999  8.0751341884479988
