Th Ge
 1.0000000000000000
     4.1633410000000000    0.0000000000000000    0.0000000000000000
     0.0000000000000000    7.9946809999999999    0.0000000000000000
     0.0000000000000000    0.0000000000000000    7.9946809999999999
 Th  Ge 
   6   4
Cartesian
  2.0816705000000000  5.4187468137139998  6.5732746862860001
  2.0816705000000000  6.5732746862860001  2.5759341862860001
  2.0816705000000000  2.5759341862860001  1.4214063137140001
  2.0816705000000000  1.4214063137140001  5.4187468137139998
  0.0000000000000000  3.9973405000000000  3.9973405000000000
  0.0000000000000000  0.0000000000000000  0.0000000000000000
  0.0000000000000000  4.9591006242999995  0.9617601243000000
  0.0000000000000000  7.0329208757000004  4.9591006242999995
  0.0000000000000000  0.9617601243000000  3.0355803756999999
  0.0000000000000000  3.0355803756999999  7.0329208757000004
