Al Pd
 1.0000000000000000
     4.0354060000000000    0.0000000000000000    0.0000000000000000
     0.0000000000000000    8.2318180000000005    0.0000000000000000
     0.0000000000000000    0.0000000000000000   10.9241209999999995
 Al  Pd 
   4  20
Cartesian
  3.0265545000000000  0.9486758654100000 10.0459855334149992
  1.0088515000000000  5.0645848654100005  6.3401959665850001
  1.0088515000000000  7.2831421345900003  0.8781354665850000
  3.0265545000000000  3.1672331345900004  4.5839250334150003
  1.0088515000000000  1.7900499831900001  0.4688086527150000
  3.0265545000000000  5.8838236245880005  2.2227199757489999
  1.0088515000000000  4.4771458692940005  3.6773977763510000
  3.0265545000000000  3.7546721307060000  7.2467232236489991
  1.0088515000000000  7.8705811307060003  9.1394582763510002
  1.0088515000000000  2.3479943754120001  8.7014010242510000
  3.0265545000000000  5.9059589831899997  4.9932518472850003
  1.0088515000000000  4.7033479961160003  0.7614440060630000
  1.0088515000000000  7.6443790038840005  6.2235045060629997
  3.0265545000000000  6.4639033754120003  7.6847804757490001
  3.0265545000000000  3.1711432481400004  2.0096449956439999
  3.0265545000000000  0.5874389961160000  4.7006164939369999
  1.0088515000000000  2.3258590168100000  5.9308691527150001
  3.0265545000000000  6.4417680168100011 10.4553123472850000
  1.0088515000000000  1.7679146245880002  3.2393405242509998
  3.0265545000000000  0.3612368692940000  1.7846627236489998
  1.0088515000000000  5.0606747518600006  8.9144760043559987
  3.0265545000000000  3.5284700038840002 10.1626769939369996
  1.0088515000000000  7.2870522481400002  3.4524155043559999
  3.0265545000000000  0.9447657518600000  7.4717054956439997
