Lu Cu Si
 1.0000000000000000
     4.0622910000000001    0.0000000000000000    0.0000000000000000
    -2.0311439999999998    3.5180460000000000    0.0000000000000000
     0.0000000000000000    0.0000000000000000    7.2767359999999996
 Lu  Cu  Si 
   2   2   2
Cartesian
  0.0000000000000000  0.0000000000000000  3.6383679999999998
  0.0000000000000000  0.0000000000000000  0.0000000000000000
 -0.0000010311449999  2.3453651726820000  1.8191839999999999
  2.0311480311450003  1.1726808273180001  5.4575519999999997
  2.0311480311450003  1.1726808273180001  1.8191839999999999
 -0.0000010311449999  2.3453651726820000  5.4575519999999997
