Nb Se
 1.0000000000000000
     3.4990480000000002    0.0000000000000000    0.0000000000000000
    -1.7495240000000001    3.0302639999999998    0.0000000000000000
     0.0000000000000000    0.0000000000000000   13.4137389999999996
 Nb  Se 
   2   4
Cartesian
  0.0000000000000000  0.0000000000000000 10.0603042499999997
  0.0000000000000000  0.0000000000000000  3.3534347499999999
 -0.0000017495239999  2.0201770100880001  1.6821767667729999
  1.7495257495240000  1.0100869899120000  8.3890462667730006
 -0.0000017495239999  2.0201770100880001  5.0246927332269999
  1.7495257495240000  1.0100869899120000 11.7315622332269989
