Si Pt
 1.0000000000000000
     3.9816340000000001    0.0000000000000000    0.0000000000000000
     0.0000000000000000    3.9816340000000001    0.0000000000000000
     0.0000000000000000    0.0000000000000000    5.9970280000000002
 Si  Pt 
   2   4
Cartesian
  0.0000000000000000  0.0000000000000000  0.0000000000000000
  1.9908170000000001  1.9908170000000001  2.9985140000000001
  1.9908170000000001  0.0000000000000000  4.4977710000000002
  0.0000000000000000  1.9908170000000001  4.4977710000000002
  0.0000000000000000  1.9908170000000001  1.4992570000000001
  1.9908170000000001  0.0000000000000000  1.4992570000000001
