Sc N  Cl
 1.0000000000000000
     3.3621500000000002    0.0000000000000000    0.0000000000000000
    -1.6810750000000001    2.9117080000000000    0.0000000000000000
     0.0000000000000000    0.0000000000000000    9.0718929999999993
 Sc  N   Cl 
   2   1   2
Cartesian
  1.6810766810750002  0.9705683627639999  5.7239743916009997
 -0.0000016810750001  1.9411396372359999  3.3479186083990000
  0.0000000000000000  0.0000000000000000  4.5359464999999997
  1.6810766810750002  0.9705683627639999  1.6681124691610001
 -0.0000016810750001  1.9411396372359999  7.4037805308389997
