Ni Cl
 1.0000000000000000
     3.3782580000000002    0.0302080000000000    5.3006250000000001
     1.5681700000000001    2.9923880000000000    5.3006250000000001
     0.0494370000000000    0.0302080000000000    6.2854419999999998
 Ni  Cl 
   1   2
Cartesian
  0.0000000000000000  0.0000000000000000  0.0000000000000000
  1.2982554540900000  0.7933199642639999  4.3882771032720003
  3.6976095459099998  2.2594840357359995 12.4984148967279989
