Tl Se I 
 1.0000000000000000
     7.7198000000000002   -0.0000000000000000   -4.1773420000000003
    -2.2604460000000000    7.3814419999999998   -4.1773420000000003
     0.0363590000000000    0.0491610000000000    9.2890239999999995
 Tl  Se  I  
  10   4   2
Cartesian
  5.9113115307740003  5.7794621599660001 -4.8637926631460005
  5.4047439357739995  2.0887411599659997 -1.8894207255960005
  1.5721404676240001  7.3445124000159998 -3.6608226006960001
  0.0909690642260000  5.3418618400340003  2.8237607255959993
  1.0655728726240001  3.6537914000159999 -0.6864506631460002
 -0.4155985307740000  1.6511408400340000  5.7981326631459993
  4.4301401273760002  3.7768115999839997  1.6207906631459990
  3.9235725323760002  0.0860905999840000  4.5951626006959998
  2.7296770000000001  3.6907209999999999 -4.1773420000000003
  0.0000000000000000  0.0000000000000000  0.0000000000000000
  5.7024155969380006  2.4912145306739997 -4.9083517859480006
  3.2212739157379997  6.1819355306740000 -6.2660130000000001
  2.2380800842620001  1.1995064693260000 -2.0886710000000002
 -0.2430615969379998  4.8902274693259997 -3.4463322140520001
  4.1126949999999995  5.5606619999999998 -1.6215010000000012
  1.3830180000000001  1.8699409999999999  2.5558409999999996
