Co Pt
 1.0000000000000000
     2.7002839999999999    0.0000000000000000    0.0000000000000000
     0.0000000000000000    2.7002839999999999    0.0000000000000000
     0.0000000000000000    0.0000000000000000    3.7227850000000000
 Co  Pt 
   1   1
Cartesian
  0.0000000000000000  0.0000000000000000  0.0000000000000000
  1.3501420000000000  1.3501420000000000  1.8613925000000000
