Re Os
 1.0000000000000000
     5.5310240000000004   -0.0005880000000000    0.0000510000000000
    -2.7660179999999999    4.7896999999999998   -0.0000450000000000
    -0.0000330000000000    0.0000130000000000    4.4133380000000004
 Re  Os 
   6   2
Cartesian
  4.1581513245709996  0.7920371711830000  3.3095046017050000
  1.3716380360790001  0.7922471943030001  3.3094082950010000
  2.7647310100709999  3.2051359144510001  3.3094113180200000
 -1.3931921537149998  3.9971021985309996  1.1038482247850001
  1.3933404939000005  3.9968873839339998  1.1039401183490003
  0.0002475199410002  1.5839986637729999  1.1039326819920001
  2.7658771542030007  1.5958649521849999  1.1036933332980001
 -0.0008903271820000  3.1932648357639999  3.3096550801480005
