Na Tm Tl
 1.0000000000000000
    -0.0000040000000000    3.7141620000000000    3.7141620000000000
     3.7141620000000000   -0.0000040000000000    3.7141620000000000
     3.7141620000000000    3.7141620000000000   -0.0000040000000000
 Na  Tm  Tl 
   1   1   2
Cartesian
  1.8570799999999998  1.8570799999999998  1.8570800000000001
  5.5712474283200004  5.5712474283200004  5.5712474283200004
  0.0000371416000000  0.0000371416000000  0.0000371416000000
  3.7141228584000001  3.7141228584000001  3.7141228584000001
