Li Cd Sn
 1.0000000000000000
     6.7411370000000002    0.0000000000000000    0.0000000000000000
     0.0000000000000000    6.7411370000000002    0.0000000000000000
     0.0000000000000000    0.0000000000000000    6.7411370000000002
 Li  Cd  Sn 
   8   4   4
Cartesian
  5.0558527499999997  1.6852842500000000  1.6852842500000000
  1.6852842500000000  5.0558527499999997  5.0558527499999997
  5.0558527499999997  5.0558527499999997  5.0558527499999997
  1.6852842500000000  1.6852842500000000  1.6852842500000000
  1.6852842500000000  1.6852842500000000  5.0558527499999997
  5.0558527499999997  5.0558527499999997  1.6852842500000000
  1.6852842500000000  5.0558527499999997  1.6852842500000000
  5.0558527499999997  1.6852842500000000  5.0558527499999997
  0.0000000000000000  0.0000000000000000  0.0000000000000000
  0.0000000000000000  3.3705685000000001  3.3705685000000001
  3.3705685000000001  0.0000000000000000  3.3705685000000001
  3.3705685000000001  3.3705685000000001  0.0000000000000000
  3.3705685000000001  0.0000000000000000  0.0000000000000000
  3.3705685000000001  3.3705685000000001  3.3705685000000001
  0.0000000000000000  0.0000000000000000  3.3705685000000001
  0.0000000000000000  3.3705685000000001  0.0000000000000000
