Y  Si Ir
 1.0000000000000000
     4.0845450000000003    0.0000000000000000    0.0000000000000000
     0.0000000000000000    4.0845450000000003    0.0000000000000000
     0.0000000000000000    0.0000000000000000    9.9964809999999993
 Y   Si  Ir 
   2   4   4
Cartesian
  0.0000000000000000  0.0000000000000000  0.0000000000000000
  2.0422725000000002  2.0422725000000002  4.9982404999999996
  2.0422725000000002  2.0422725000000002  1.2127830714009999
  2.0422725000000002  2.0422725000000002  8.7836979285989987
  0.0000000000000000  0.0000000000000000  6.2110235714009994
  0.0000000000000000  0.0000000000000000  3.7854574285989995
  2.0422725000000002  0.0000000000000000  7.4973607499999995
  0.0000000000000000  2.0422725000000002  7.4973607499999995
  0.0000000000000000  2.0422725000000002  2.4991202499999998
  2.0422725000000002  0.0000000000000000  2.4991202499999998
