Ba H  Ru
 1.0000000000000000
     4.0336540000000003    4.0336540000000003    0.0000000000000000
     0.0000000000000000    4.0336540000000003    4.0336540000000003
     4.0336540000000003    0.0000000000000000    4.0336540000000003
 Ba  H   Ru 
   2   6   1
Cartesian
  6.0504810000000004  6.0504810000000004  6.0504810000000004
  2.0168270000000001  2.0168270000000001  2.0168270000000001
  4.0336540000000003  4.0336540000000003  6.3390244052360005
  4.0336540000000003  1.7282835947640003  4.0336540000000003
  1.7282835947640003  4.0336540000000003  4.0336540000000003
  4.0336540000000003  4.0336540000000003  1.7282835947640003
  4.0336540000000003  6.3390244052360005  4.0336540000000003
  6.3390244052360005  4.0336540000000003  4.0336540000000003
  0.0000000000000000  0.0000000000000000  0.0000000000000000
