Ti Tc Pt
 1.0000000000000000
     0.0000000000000000    3.1124220000000000    3.1124220000000000
     3.1124220000000000    0.0000000000000000    3.1124220000000000
     3.1124220000000000    3.1124220000000000    0.0000000000000000
 Ti  Tc  Pt 
   2   1   1
Cartesian
  0.0000000000000000  0.0000000000000000  0.0000000000000000
  3.1124157751560002  3.1124157751560002  3.1124157751560002
  4.6686267751559996  4.6686267751559996  4.6686267751559996
  1.5562110000000000  1.5562110000000000  1.5562110000000000
