Mn Nb Si
 1.0000000000000000
     6.4861740000000001   -0.0000150000000000    0.0000000000000000
    -3.2431000000000001    5.6172779999999998    0.0000000000000000
     0.0000000000000000    0.0000000000000000    3.6358940000000000
 Mn  Nb  Si 
   3   3   3
Cartesian
  1.5994191604860000 -0.0000036988350000  0.0000000000000000
  2.4433611392399994  4.2321077341080002  0.0000000000000000
  5.6864482417000000  1.3851664338540000  0.0000000000000000
  4.5897291148040003  3.2847163969500000  1.8179470000000000
  1.3466735061780000  2.3325572262390000  1.8179470000000000
  3.7928129480960000 -0.0000031540320000  1.8179470000000000
 -3.2430902707259999  5.6172723827069992  1.8179470000000000
  3.2431021252059997  1.8724085102610000  0.0000000000000000
  0.0000043057419999  3.7448207860409997  0.0000000000000000
