Bi Te Se
 1.0000000000000000
    10.6588340000000006   -2.1609690000000001   -0.0127520000000000
    10.6588340000000006    2.1609690000000001   -0.0127520000000000
    10.2251680000000000    0.0000000000000000    3.7049470000000002
 Bi  Te  Se 
   2   2   1
Cartesian
 19.1868447392440018 -0.0000000000000001  2.2381279085970003
 12.3559810355880000 -0.0000000000000000  1.4413113864560001
  6.9266490714200000  0.0000000000000000  0.8079872855850001
 24.6161869285799995 -0.0000000000000000  2.8714557144150001
  0.0000000000000000  0.0000000000000000  0.0000000000000000
