Ca B  N 
 1.0000000000000000
     3.5563660000000001    0.0000000000000000    0.0000000000000000
     0.0000000000000000    3.5563660000000001    0.0000000000000000
     0.0000000000000000    0.0000000000000000    8.1219760000000001
 Ca  B   N  
   3   1   3
Cartesian
  0.0000000000000000  0.0000000000000000  0.0000000000000000
  1.7781830000000001  1.7781830000000001  5.8678190249120004
  1.7781830000000001  1.7781830000000001  2.2541569750880002
  0.0000000000000000  0.0000000000000000  4.0609880000000000
  0.0000000000000000  0.0000000000000000  5.4072380099039998
  0.0000000000000000  0.0000000000000000  2.7147379900959998
  1.7781830000000001  1.7781830000000001  0.0000000000000000
