Cd Sn P 
 1.0000000000000000
     5.3965880000000004    0.0000000000000000   -2.4605199999999998
    -1.1218509999999999    5.2786939999999998   -2.4605199999999998
     0.0075230000000000    0.0092900000000000    7.1648490000000002
 Cd  Sn  P  
   2   2   4
Cartesian
  0.5115202500000001  3.9636654999999998  1.1219045000000003
  0.0000000000000000  0.0000000000000000  0.0000000000000000
  2.1373685000000000  2.6393469999999999 -2.4605199999999998
  3.7707397500000002  1.3243185000000000  1.1219045000000003
  3.6978401194080011  4.6211797499999996 -2.4944378283199997
  3.2290410538660006  0.7102690163959999  3.5079868283200004
  1.6493426305920003  1.9818327499999999 -0.0744376716799997
 -0.0117038038659999  3.2626864836039999  3.5485066716800002
