Sr H  I 
 1.0000000000000000
     4.2895659999999998    0.0000000000000000    0.0000000000000000
     0.0000000000000000    4.2895659999999998    0.0000000000000000
     0.0000000000000000    0.0000000000000000    9.0978089999999998
 Sr  H   I  
   2   2   2
Cartesian
  0.0000000000000000  2.1447829999999999  1.3162892017380001
  2.1447829999999999  0.0000000000000000  7.7815197982619999
  2.1447829999999999  2.1447829999999999  0.0000000000000000
  0.0000000000000000  0.0000000000000000  0.0000000000000000
  0.0000000000000000  2.1447829999999999  6.2299339623569994
  2.1447829999999999  0.0000000000000000  2.8678750376429996
