Zr Al Co
 1.0000000000000000
     7.9269150000000002    0.0000100000000000    0.0000000000000000
    -3.9634490000000002    6.8650110000000000    0.0000000000000000
     0.0000000000000000    0.0000000000000000    3.3284379999999998
 Zr  Al  Co 
   6   2   1
Cartesian
  0.7796879690189997  6.8650101185689998  0.0000000000000000
  1.5917120911239999  2.7564706923640001  0.0000000000000000
 -2.3717556251650000  4.1085374585649994  0.0000000000000000
  1.9724542595690000  0.0000985985240000  1.6642189999999999
  2.9774190746220008  5.1570861554720002  1.6642189999999999
 -0.9859158654100001  1.7078774367200000  1.6642189999999999
  3.9634008812640000  2.2881766178690000  1.6642189999999999
 -0.0000141504140001  4.5768443820310001  1.6642189999999999
  3.9634263653910002  6.8649935398860000  0.0000000000000000
