Ti Sn
 1.0000000000000000
     4.7539800000000003    0.0000000000000000    0.0000000000000000
    -2.3769900000000002    4.1170679999999997    0.0000000000000000
     0.0000000000000000    0.0000000000000000    5.6423189999999996
 Ti  Sn 
   4   2
Cartesian
  2.3769923769900005  1.3723546276440000  4.2317392499999995
 -0.0000023769900001  2.7447133723559998  1.4105797499999999
  0.0000000000000000  0.0000000000000000  0.0000000000000000
  0.0000000000000000  0.0000000000000000  2.8211594999999998
  2.3769923769900005  1.3723546276440000  1.4105797499999999
 -0.0000023769900001  2.7447133723559998  4.2317392499999995
