Nd Mg
 1.0000000000000000
     3.8914749999999998    0.0000000000000000    0.0000000000000000
     0.0000000000000000    3.8914749999999998    0.0000000000000000
     0.0000000000000000    0.0000000000000000    3.8914749999999998
 Nd  Mg 
   1   1
Cartesian
  1.9457374999999999  1.9457374999999999  1.9457374999999999
  0.0000000000000000  0.0000000000000000  0.0000000000000000
