Be Ru
 1.0000000000000000
    -1.5825540000000000    1.5825540000000000    3.7486459999999999
     1.5825540000000000   -1.5825540000000000    3.7486459999999999
     1.5825540000000000    1.5825540000000000   -3.7486459999999999
 Be  Ru 
   3   1
Cartesian
 -0.0000000000000000  1.5825571651080002  1.8743229999999997
  1.5825571651080002 -0.0000000000000000  1.8743230000000002
 -0.0000000000000000  0.0000000000000000  3.7486534972920000
  0.0000000000000000  0.0000000000000000  0.0000000000000000
