Sm Ge Ru
 1.0000000000000000
     4.3017899999999996    0.0000000000000000    0.0000000000000000
     0.0000000000000000    4.3017899999999996    0.0000000000000000
     0.0000000000000000    0.0000000000000000    6.6931989999999999
 Sm  Ge  Ru 
   2   2   2
Cartesian
  3.2263424999999994  3.2263424999999994  2.0695572103969999
  1.0754474999999999  1.0754474999999999  4.6236417896030000
  3.2263424999999994  3.2263424999999994  5.3730123496430000
  1.0754474999999999  1.0754474999999999  1.3201866503569999
  3.2263424999999994  1.0754474999999999  0.0000000000000000
  1.0754474999999999  3.2263424999999994  0.0000000000000000
