Sc V  Ga
 1.0000000000000000
     0.0000000000000000    0.0000000000000000    5.1488310000000004
    -3.2271660000000000    3.2271660000000000    2.5744150000000001
    -3.2271660000000000   -3.2271660000000000    2.5744150000000001
 Sc  V   Ga 
   1   2   4
Cartesian
  0.0000000000000000  0.0000000000000000  0.0000000000000000
 -3.2271660000000000  0.0000000000000000  3.8616227500000004
 -3.2271660000000000  0.0000000000000000  6.4360382500000002
 -1.2852382224959999 -1.2852382224959999  2.5744204497030001
 -1.9419277775039998 -1.9419277775039998  5.1488255502970004
 -1.9419277775039998  1.9419277775039998  5.1488255502970004
 -1.2852382224959999  1.2852382224959999  2.5744204497030001
