Sc B  Ir
 1.0000000000000000
     4.1271009999999997    0.0000000000000000    0.0000000000000000
     0.0000000000000000    4.1271009999999997    0.0000000000000000
     0.0000000000000000    0.0000000000000000    4.1271009999999997
 Sc  B   Ir 
   1   1   3
Cartesian
  0.0000000000000000  0.0000000000000000  0.0000000000000000
  2.0635504999999998  2.0635504999999998  2.0635504999999998
  0.0000000000000000  2.0635504999999998  2.0635504999999998
  2.0635504999999998  0.0000000000000000  2.0635504999999998
  2.0635504999999998  2.0635504999999998  0.0000000000000000
