Ca Sn Ir
 1.0000000000000000
     4.3563400000000003    0.0000000000000000    0.0000000000000000
     0.0000000000000000   10.9080469999999998    0.0000000000000000
     0.0000000000000000    0.0000000000000000    7.6883200000000000
 Ca  Sn  Ir 
   4   8   4
Cartesian
  0.0000000000000000  0.7398382877749999  5.7662399999999998
  0.0000000000000000 10.1682087122249989  1.9220800000000000
  2.1781700000000002  6.1938617877750000  5.7662399999999998
  2.1781700000000002  4.7141852122249999  1.9220800000000000
  2.1781700000000002  9.3293144496429985  7.3290832479999999
  2.1781700000000002  9.3293144496429985  4.2033967519999997
  2.1781700000000002  1.5787325503570000  0.3592367520000000
  2.1781700000000002  1.5787325503570000  3.4849232479999999
  0.0000000000000000  3.8752909496429999  7.3290832479999999
  0.0000000000000000  3.8752909496429999  4.2033967519999997
  0.0000000000000000  7.0327560503570004  0.3592367520000000
  0.0000000000000000  7.0327560503570004  3.4849232479999999
  0.0000000000000000  8.5956828406109995  5.7662399999999998
  0.0000000000000000  2.3123641593889999  1.9220800000000000
  2.1781700000000002  3.1416593406110001  5.7662399999999998
  2.1781700000000002  7.7663876593890002  1.9220800000000000
