Ti Ga
 1.0000000000000000
     5.6868689999999997    0.0000000000000000    0.0000000000000000
    -2.8434349999999999    4.9249720000000003    0.0000000000000000
     0.0000000000000000    0.0000000000000000    4.6189309999999999
 Ti  Ga 
   6   2
Cartesian
  0.0000055162720000  1.6803708965680002  3.4641982499999999
  4.2316161982080001  0.8401903732560001  1.1547327500000000
  2.8434284837279997  3.2446011034320001  1.1547327500000000
 -1.3881821982079998  4.0847816267440002  3.4641982499999999
  1.3881927425439999  4.0847816267440002  3.4641982499999999
  1.4552412574559999  0.8401903732560001  1.1547327500000000
  2.8434371767680000  1.6416556916760001  3.4641982499999999
 -0.0000031767680001  3.2833163083240002  1.1547327500000000
