Cu P 
 1.0000000000000000
     4.7833750000000004    0.0000000000000000    0.0000000000000000
     0.0000000000000000    5.3211519999999997   -2.2222510000000000
     0.0000000000000000    0.0086640000000000    7.4979120000000004
 Cu  P  
   4   8
Cartesian
  0.1936740703750000  4.1279924935760004  5.1658913645830005
  2.5853615703750004  3.8667315064239998  2.7476001354170001
  4.5897009296250006  1.2018235064239999  0.1097696354170000
  2.1980134296250000  1.4630844935759999  2.5280608645830003
  1.8364859471250004  3.5834761175679999 -0.8934294737589999
  4.2281734471250001  4.4025838824319994  1.3090089737590000
  2.9468890528750000  1.7463398824319998  6.1690904737589998
  0.5552015528750001  0.9272321175679998  3.9666520262410003
  3.7327353815000004  2.4209022449039996  4.2379317601590003
  1.3410478815000000  0.2526697550960000  5.8978107398410007
  1.0506396185000002  2.9089137550960000  1.0377292398410001
  3.4423271185000002  5.0771462449039992 -0.6221497398410000
