Mn C 
 1.0000000000000000
    11.5236249999999991    0.0000000000000000   -1.5050930000000000
     0.0000000000000000    4.4726049999999997    0.0000000000000000
    -0.0016560000000000    0.0000000000000000    4.9987310000000003
 Mn  C  
  20   8
Cartesian
  9.0283495367400004  2.6396464915049997  2.2864584664330003
  2.4927914632599997  2.6396464915049997  3.7065450335670000
  2.4936194632599999  1.8329585084949997  1.2071795335670001
  9.0291775367400007  1.8329585084949997 -0.2129070335670000
 -0.0012420000000000  2.5459051633100001  3.7490482500000004
 -0.0004140000000000  1.9266998366899999  1.2496827500000001
 10.3658163239469996  4.0748159839050002 -0.9500523720990000
  1.1569806760529999  4.0748159839050002  1.9443248720990001
  1.1561526760529999  0.3977890160950000  4.4436903720990006
 10.3649883239469993  0.3977890160950000  1.5493131279010000
  3.2665370367399995  0.4033439915049999  3.0390049664330006
  8.2546039632599992  0.4033439915049999  2.9539985335670003
  8.2554319632599977  4.0692610084950003  0.4546330335670002
  3.2673650367399993  4.0692610084950003  0.5396394664330001
  5.7605704999999992  0.3096026633100000  2.9965017500000002
  5.7613984999999994  4.1630023366900000  0.4971362500000001
  4.6040038239469991  1.8385134839049999 -0.1975058720989999
  6.9187931760529997  1.8385134839049999  1.1917783720989998
  6.9179651760530003  2.6340915160949998  3.6911438720990004
  4.6031758239469989  2.6340915160949998  2.3018596279010000
 10.2188558254909996  3.0555137770099998  0.7726408529040000
  1.3039411745089999  3.0555137770099998  0.2216316470960000
  1.3031131745089999  1.4170912229899999  2.7209971470960004
 10.2180278254909993  1.4170912229899999  3.2720063529040000
  4.4570433254909991  0.8192112770100000  1.5251873529040001
  7.0657536745089988  0.8192112770100000 -0.5309148529039999
  7.0649256745089986  3.6533937229899998  1.9684506470960004
  4.4562153254909997  3.6533937229899998  4.0245528529039998
