Rb Ga O 
 1.0000000000000000
     0.0000000000000000    4.1798739999999999    4.1798739999999999
     4.1798739999999999    0.0000000000000000    4.1798739999999999
     4.1798739999999999    4.1798739999999999    0.0000000000000000
 Rb  Ga  O  
   2   2   4
Cartesian
  3.1349054999999999  3.1349054999999999  3.1349054999999999
  5.2248424999999994  5.2248424999999994  5.2248424999999994
  1.0449685000000000  1.0449685000000000  1.0449685000000000
  7.3147795000000002  7.3147795000000002  7.3147795000000002
  0.0000000000000000  0.0000000000000000  0.0000000000000000
  0.0000000000000000  2.0899369999999999  2.0899369999999999
  2.0899369999999999  0.0000000000000000  2.0899369999999999
  2.0899369999999999  2.0899369999999999  0.0000000000000000
