As Pt
 1.0000000000000000
     6.0083500000000001    0.0000000000000000    0.0000000000000000
     0.0000000000000000    6.0083500000000001    0.0000000000000000
     0.0000000000000000    0.0000000000000000    6.0083500000000001
 As  Pt 
   8   4
Cartesian
  2.3077471515000001  2.3077471515000001  2.3077471515000001
  0.6964278485000001  3.7006028485000000  5.3119221515000001
  5.3119221515000001  0.6964278485000001  3.7006028485000000
  3.7006028485000000  5.3119221515000001  0.6964278485000001
  3.7006028485000000  3.7006028485000000  3.7006028485000000
  5.3119221515000001  2.3077471515000001  0.6964278485000001
  0.6964278485000001  5.3119221515000001  2.3077471515000001
  2.3077471515000001  0.6964278485000001  5.3119221515000001
  0.0000000000000000  0.0000000000000000  0.0000000000000000
  3.0041750000000000  0.0000000000000000  3.0041750000000000
  3.0041750000000000  3.0041750000000000  0.0000000000000000
  0.0000000000000000  3.0041750000000000  3.0041750000000000
