Mg Ti O 
 1.0000000000000000
     3.7406990000000002    0.0000000000000000    0.0000000000000000
    -1.8703500000000000    4.8673620000000000    0.0000000000000000
     0.0000000000000000    0.0000000000000000   10.0006649999999997
 Mg  Ti  O  
   2   4  10
Cartesian
 -0.0000001964210000  1.9121042228040002  7.5004987500000002
  1.8703491964210006  2.9552577771960000  2.5001662499999999
  1.8703491333300004  3.5694312490800000  5.6676068707949998
 -0.0000001333300000  1.2979307509200000  4.3330581292049999
  1.8703491333300004  3.5694312490800000  9.3333906292050006
 -0.0000001333300000  1.2979307509200000  0.6672743707950001
  0.0000015569990001  3.0503806327619998  5.6212337871899996
  1.8703474430010001  1.8169813672380000  4.3794312128100001
  1.8703474430010001  1.8169813672380000  0.6209012871900000
  0.0000015569990001  3.0503806327619998  9.3797637128100000
  0.0000018234390000  0.4566607702020000  6.1328978105849998
  1.8703471765610000  4.4107012297979997  3.8677671894149999
  1.8703492168300002  2.7565817950799998  7.5004987500000002
 -0.0000002168299999  2.1107802049199997  2.5001662499999999
  0.0000018234390000  0.4566607702020000  8.8680996894149988
  1.8703471765610000  4.4107012297979997  1.1325653105850000
