La Cl O 
 1.0000000000000000
     4.1154279999999996    0.0000000000000000    0.0000000000000000
     0.0000000000000000    4.1154279999999996    0.0000000000000000
     0.0000000000000000    0.0000000000000000    6.9250369999999997
 La  Cl  O  
   2   2   2
Cartesian
  3.0865709999999997  3.0865709999999997  5.7158909146149997
  1.0288569999999999  1.0288569999999999  1.2091460853850000
  1.0288569999999999  1.0288569999999999  4.3689019677449998
  3.0865709999999997  3.0865709999999997  2.5561350322550003
  3.0865709999999997  1.0288569999999999  0.0000000000000000
  1.0288569999999999  3.0865709999999997  0.0000000000000000
