Rb Na Rh F 
 1.0000000000000000
     0.0000000000000000    4.3325880000000003    4.3325880000000003
     4.3325880000000003    0.0000000000000000    4.3325880000000003
     4.3325880000000003    4.3325880000000003    0.0000000000000000
 Rb  Na  Rh  F  
   2   1   1   6
Cartesian
  6.4988820000000000  6.4988820000000000  6.4988820000000000
  2.1662940000000002  2.1662940000000002  2.1662940000000002
  4.3325880000000003  4.3325880000000003  4.3325880000000003
  0.0000000000000000  0.0000000000000000  0.0000000000000000
  2.0222701097040003  4.3325880000000003  4.3325880000000003
  4.3325880000000003  4.3325880000000003  2.0222701097040003
  6.6429058902960003  4.3325880000000003  4.3325880000000003
  4.3325880000000003  2.0222701097040003  4.3325880000000003
  4.3325880000000003  6.6429058902960003  4.3325880000000003
  4.3325880000000003  4.3325880000000003  6.6429058902960003
