Cr Cu S 
 1.0000000000000000
    -0.0000560000000000    4.9164760000000003    4.9164630000000002
     4.9164690000000002   -0.0000550000000000    4.9164630000000002
     4.9164729999999999    4.9164800000000000   -0.0000600000000000
 Cr  Cu  S  
   4   2   8
Cartesian
  1.2291107500000000  1.2291126250000000  1.2291082500000001
  1.2290827499999999  3.6873506250000001  3.6873397500000000
  3.6873521664730000  3.6873575414800004  1.2290782499400001
  3.6873452499999999  1.2290851250000001  3.6873397500000000
  4.9164479165290000  4.9164505000040011  4.9164280834770002
  7.3746644999399997  7.3746757499409998  7.3746593329860008
  3.6167321285240002  3.6167425623549998  3.6167198555970002
  8.6743951468020004  6.0749494135110007  6.0749254105800006
  6.0749426833930000  6.0749522150599997  8.6743894510199997
  6.0749398817960003  8.6744127672450002  6.0749303270430000
  6.2161697330800001  6.2161789514199999  3.6166930489199998
  6.2161676182039995  3.6167134827549998  6.2161521729570000
  8.6743704550069989  8.6743836877000007  8.6743577279399986
  3.6167074367290000  6.2161768365440011  6.2161521729570000
