Tb Fe B 
 1.0000000000000000
     3.2664800000000001    0.0000000000000000   -1.1445660000000000
    -0.4010530000000000    3.2417660000000001   -1.1445660000000000
     0.1190990000000000    0.1347410000000000    5.5732869999999997
 Tb  Fe  B  
   1   2   2
Cartesian
  0.0000000000000000  0.0000000000000000  0.0000000000000000
  0.5753797500000001  2.4986950000000001  1.6420774999999999
  2.4091462500000005  0.8778120000000000  1.6420774999999999
  1.8545860235259997  2.0981632946510000  0.0594116603310000
  1.1299399764739999  1.2783437053489999  3.2247433396689997
