Cu Au Se
 1.0000000000000000
     4.4585369999999998    0.0000000000000000   -0.2665370000000000
     0.0000000000000000    7.4521090000000001    0.0000000000000000
    -0.0312770000000000    0.0000000000000000    8.1272339999999996
 Cu  Au  Se 
   2   2   8
Cartesian
  0.1429330785930000  5.5890817500000001  5.3643361197429993
  4.2843269214069997  1.8630272500000000  2.4963608802569999
  2.2292684999999999  3.7260545000000000 -0.1332685000000000
  2.2292684999999999  0.0000000000000000 -0.1332685000000000
  1.7578175165370000  7.4451040175399994  5.5382246506729995
  2.6694424834629999  3.7190495175400002  2.3224723493270001
  2.6694424834629999  0.0070049824600000  2.3224723493270001
  1.7578175165370000  3.7330594824600003  5.5382246506729995
  0.2901966382890000  1.8630272500000000  5.1174268441189996
  4.1370633617109993  5.5890817500000001  2.7432701558810000
  0.6730149813100000  1.8630272500000000  0.4998267686519999
  3.7542450186899998  5.5890817500000001  7.3608702313479997
