Cs Na Mg F 
 1.0000000000000000
     0.0000000000000000    4.4360280000000003    4.4360280000000003
     4.4360280000000003    0.0000000000000000    4.4360280000000003
     4.4360280000000003    4.4360280000000003    0.0000000000000000
 Cs  Na  Mg  F  
   2   1   1   6
Cartesian
  2.2180140000000002  2.2180140000000002  2.2180140000000002
  6.6540420000000005  6.6540420000000005  6.6540420000000005
  0.0000000000000000  0.0000000000000000  0.0000000000000000
  4.4360280000000003  4.4360280000000003  4.4360280000000003
  6.4671432683040004  4.4360280000000003  4.4360280000000003
  4.4360280000000003  2.4049127316959997  4.4360280000000003
  4.4360280000000003  6.4671432683040004  4.4360280000000003
  4.4360280000000003  4.4360280000000003  6.4671432683040004
  4.4360280000000003  4.4360280000000003  2.4049127316959997
  2.4049127316959997  4.4360280000000003  4.4360280000000003
