Sc Zn
 1.0000000000000000
     8.8124660000000006    0.0000000000000000    0.0000000000000000
     0.0000000000000000    8.8124660000000006    0.0000000000000000
     0.0000000000000000    0.0000000000000000    5.1735980000000001
 Sc  Zn 
   2  24
Cartesian
  0.0000000000000000  0.0000000000000000  0.0000000000000000
  4.4062330000000003  4.4062330000000003  2.5867990000000001
  2.2031165000000001  6.6093495000000004  3.8801985000000001
  2.2031165000000001  2.2031165000000001  1.2933995000000000
  2.2031165000000001  2.2031165000000001  3.8801985000000001
  2.2031165000000001  6.6093495000000004  1.2933995000000000
  3.0971940504960003  0.0000000000000000  0.0000000000000000
  0.0000000000000000  5.7152719495040003  0.0000000000000000
  0.0000000000000000  3.0971940504960003  0.0000000000000000
  5.7152719495040003  0.0000000000000000  0.0000000000000000
  6.9371027354720001  0.0000000000000000  2.5867990000000001
  0.0000000000000000  1.8753632645280001  2.5867990000000001
  0.0000000000000000  6.9371027354720001  2.5867990000000001
  1.8753632645280001  0.0000000000000000  2.5867990000000001
  6.6093495000000004  2.2031165000000001  1.2933995000000000
  6.6093495000000004  6.6093495000000004  3.8801985000000001
  6.6093495000000004  6.6093495000000004  1.2933995000000000
  6.6093495000000004  2.2031165000000001  3.8801985000000001
  7.5034270504960006  4.4062330000000003  2.5867990000000001
  4.4062330000000003  1.3090389495040002  2.5867990000000001
  4.4062330000000003  7.5034270504960006  2.5867990000000001
  1.3090389495040002  4.4062330000000003  2.5867990000000001
  2.5308697354720002  4.4062330000000003  0.0000000000000000
  4.4062330000000003  6.2815962645280008  0.0000000000000000
  4.4062330000000003  2.5308697354720002  0.0000000000000000
  6.2815962645280008  4.4062330000000003  0.0000000000000000
