Sr Ag
 1.0000000000000000
     5.7104460000000001    0.0000000000000000    0.0000000000000000
    -2.8552219999999999    4.9453909999999999    0.0000000000000000
     0.0000000000000000    0.0000000000000000    4.6048960000000001
 Sr  Ag 
   1   5
Cartesian
  0.0000000000000000  0.0000000000000000  0.0000000000000000
  2.8552261885560002  1.6484620182029999  0.0000000000000000
  2.8552230000000001  0.0000000000000000  2.3024480000000001
  1.4276120000000001  2.4726954999999999  2.3024480000000001
 -1.4276110000000000  2.4726954999999999  2.3024480000000001
 -0.0000021885559999  3.2969289817970000  0.0000000000000000
