Li Zn Rh
 1.0000000000000000
     0.0000000000000000    2.9813440000000000    2.9813440000000000
     2.9813440000000000    0.0000000000000000    2.9813440000000000
     2.9813440000000000    2.9813440000000000    0.0000000000000000
 Li  Zn  Rh 
   1   2   1
Cartesian
  1.4906720000000000  1.4906720000000000  1.4906720000000000
  0.0000000000000000  0.0000000000000000  0.0000000000000000
  2.9813380373120002  2.9813380373120002  2.9813380373120002
  4.4720160000000000  4.4720160000000000  4.4720160000000000
