Al V 
 1.0000000000000000
     4.8099949999999998    0.0000000000000000    0.0000000000000000
     0.0000000000000000    4.8099949999999998    0.0000000000000000
     0.0000000000000000    0.0000000000000000    4.8099949999999998
 Al  V  
   2   6
Cartesian
  0.0000000000000000  0.0000000000000000  0.0000000000000000
  2.4049974999999999  2.4049974999999999  2.4049974999999999
  1.2024987499999999  0.0000000000000000  2.4049974999999999
  3.6074962499999996  0.0000000000000000  2.4049974999999999
  0.0000000000000000  2.4049974999999999  1.2024987499999999
  0.0000000000000000  2.4049974999999999  3.6074962499999996
  2.4049974999999999  3.6074962499999996  0.0000000000000000
  2.4049974999999999  1.2024987499999999  0.0000000000000000
