Ga Te
 1.0000000000000000
     6.4666280000000000   -0.0468840000000000   -1.8052020000000000
    -3.7357550000000002    5.2793049999999999   -1.8045810000000000
     0.0239140000000000    0.0453570000000000    6.7087310000000002
 Ga  Te 
   2   5
Cartesian
 -1.1728771888530003  3.9702506574459999  1.5497254677780006
  3.9276641888530004  1.3075273425539999  1.5492225322220001
 -1.3366675679150000  3.5741028490979998  4.1675598784460002
  4.0914545679150010  1.7036751509019998 -1.0686118784460001
  1.2830058101410000  4.3296035012639997  0.6124959920620000
  1.4717811898590001  0.9481744987359999  2.4864520079379999
  0.0000000000000000  0.0000000000000000  0.0000000000000000
