Sc Cu
 1.0000000000000000
     3.2758639999999999    0.0008550000000000   -0.0011190000000000
     0.0008550000000000    3.2758639999999999   -0.0011190000000000
    -1.6397699999999999   -1.6397699999999999    4.1640340000000000
 Sc  Cu 
   1   2
Cartesian
  0.0000000000000000  0.0000000000000000  0.0000000000000000
  1.6355245922210000  1.6355245922210000  1.4462823547240000
  0.0014244077790000  0.0014244077790000  2.7155136452759998
