Li P  N  O 
 1.0000000000000000
     2.8493189999999999   -4.9351649999999996    0.0000000000000000
     2.8493189999999999    4.9351649999999996    0.0000000000000000
     0.0000000000000000    0.0000000000000000    8.0720399999999994
 Li  P   N   O  
  14   2   6   3
Cartesian
  1.3139435116170000 -1.4592838740150000  0.7346121442800000
  3.7778864182290000 -0.4082615246250000  0.7346121442800000
  3.4561270701539999 -3.0676097310299997  0.7346121442800000
  4.3846944883830004  1.4592838740149998  7.3374278557199997
  1.9207515817709999  0.4082615246249998  7.3374278557199997
  2.2425109298460000  3.0676097310300001  7.3374278557199997
  1.1273985966869999  1.5291263290949999  4.7558603110799993
  3.6098820220319996  3.1942460649299997  4.7558603110799993
  3.8106763812810001  0.2117926059750001  4.7558603110799993
  4.5712394033130002 -1.5291263290949999  3.3161796889199997
  2.0887559779679998 -3.1942460649299997  3.3161796889199997
  1.8879616187189998 -0.2117926059750001  3.3161796889199997
  0.0000000000000000  0.0000000000000000  2.0155803159599999
  0.0000000000000000  0.0000000000000000  6.0564596840399991
  2.8493189999999999 -1.6450582901099999  6.2484773715599999
  2.8493189999999999  1.6450582901100002  1.8235626284399999
  1.2768824193839998 -1.5080581097099999  6.6658987040400000
  3.7541772348299998 -0.3517785612000000  6.6658987040400000
  3.5168973457860000 -3.0753184587600000  6.6658987040400000
  4.4217555806159998  1.5080581097100001  1.4061412959599999
  1.9444607651699999  0.3517785612000000  1.4061412959599999
  2.1817406542139999  3.0753184587599995  1.4061412959599999
  2.8493189999999999 -1.6450582901099999  4.4690526578399998
  2.8493189999999999  1.6450582901100002  3.6029873421599996
  0.0000000000000000  0.0000000000000000  4.0360199999999997
