Nd C 
 1.0000000000000000
     3.3932090000000001    0.0000000000000000   -1.8007169999999999
    -0.9556090000000000    3.2558669999999998   -1.8007169999999999
     0.0635430000000000    0.0848730000000000    4.2171180000000001
 Nd  C  
   1   2
Cartesian
  0.0000000000000000  0.0000000000000000  0.0000000000000000
  1.0261308686000001  1.3705877613000002  1.9336040802000003
  1.4750121314000002  1.9701522386999997 -1.3179200801999997
