Li Y  Tl
 1.0000000000000000
     0.0000000000000000    3.6509730000000000    3.6509730000000000
     3.6509730000000000    0.0000000000000000    3.6509730000000000
     3.6509730000000000    3.6509730000000000    0.0000000000000000
 Li  Y   Tl 
   1   1   2
Cartesian
  1.8254865000000000  1.8254865000000000  1.8254865000000000
  5.4764594999999998  5.4764594999999998  5.4764594999999998
  3.6509730000000000  3.6509730000000000  3.6509730000000000
  0.0000000000000000  0.0000000000000000  0.0000000000000000
