Sr Sb
 1.0000000000000000
     4.3603769999999997    0.0000000000000000    0.0000000000000000
     0.0000000000000000    4.8157030000000001   -1.0139640000000001
     0.0000000000000000   -0.0307600000000000    9.3296600000000005
 Sr  Sb 
   2   4
Cartesian
  3.2702827499999998  2.8076472230830003  6.0673265756759998
  1.0900942499999999  1.9772957769169999  2.2483694243240002
  3.2702827499999998  0.8589034444710000  8.9596316611920006
  1.0900942499999999  3.9260395555290000 -0.6439356611920001
  3.2702827499999998  4.5841616299689996  2.6889163776280003
  1.0900942499999999  0.2007813700310000  5.6267796223720010
