Ho Mn Te
 1.0000000000000000
     0.0000000000000000    0.0000000000000000   -4.1404120000000004
    -4.1075200000000001   -7.1144350000000003    0.0000000000000000
    -4.1074599999999997    7.1143999999999998    0.0000000000000000
 Ho  Mn  Te 
   6   1   2
Cartesian
 -2.4846347404799998 -4.3035146170649998 -2.0702060000000002
 -3.2451553358000003 -0.0003410892200001 -2.0702060000000002
 -2.4851734936400001  4.3038491640250003 -2.0702060000000002
 -0.9847655974399999 -1.7056644479450001  0.0000000000000000
 -6.2450031522599998 -0.0003111835950003  0.0000000000000000
 -0.9852276803200000  1.7059264026350001  0.0000000000000000
 -4.1068627967999998 -7.1132966904000003 -2.0702060000000002
 -4.1080838007999994  2.3715095412949996  0.0000000000000000
 -4.1071508654399995 -2.3719856362649998  0.0000000000000000
