Ba Sn O 
 1.0000000000000000
     4.1434650000000000    0.0000000000000000    0.0000000000000000
     0.0000000000000000    4.1434650000000000    0.0000000000000000
     0.0000000000000000    0.0000000000000000    4.1434650000000000
 Ba  Sn  O  
   1   1   3
Cartesian
  2.0717325000000000  2.0717325000000000  2.0717325000000000
  0.0000000000000000  0.0000000000000000  0.0000000000000000
  0.0000000000000000  2.0717325000000000  0.0000000000000000
  0.0000000000000000  0.0000000000000000  2.0717325000000000
  2.0717325000000000  0.0000000000000000  0.0000000000000000
