Ni S 
 1.0000000000000000
     4.0304110000000000   -0.0240520000000000    0.0622600000000000
     0.0609350000000000    4.0300229999999999    0.0622600000000000
    -0.0245630000000000   -0.0240520000000000    4.0308180000000000
 Ni  S  
   3   2
Cartesian
  1.0220087099599999  3.0238972692499995  2.0776690000000002
  2.0116074645799999  0.9580217307500001  3.0888178928199999
  3.0665583254599995  1.9909595000000000  1.0665201071800001
  1.0331214865370000  1.0115627208410001  1.0556179101820000
  3.0336615134629996  2.9703562791589997  3.0997200898179997
