Ta Si Rh
 1.0000000000000000
     3.7705009999999999    0.0000000000000000    0.0000000000000000
     0.0000000000000000    6.4191320000000003    0.0000000000000000
     0.0000000000000000    0.0000000000000000    7.3529780000000002
 Ta  Si  Rh 
   4   4   4
Cartesian
  0.9426252500000000  3.3745184350040001  2.4040414511440003
  2.8278757500000000  3.0446135649959998  4.9489365488560004
  0.9426252500000000  0.1649524350040000  1.2724475488560001
  2.8278757500000000  6.2541795649960008  6.0805304511439999
  0.9426252500000000  1.7146528633120002  6.4363042916740003
  2.8278757500000000  4.7044791366879997  0.9166737083260000
  0.9426252500000000  4.9242188633120003  4.5931627083260000
  2.8278757500000000  1.4949131366880002  2.7598152916740002
  2.8278757500000000  5.4883642791320000  3.2077734173900003
  0.9426252500000000  0.9307677208680000  4.1452045826100008
  2.8278757500000000  2.2787982791320003  0.4687155826100000
  0.9426252500000000  4.1403337208680000  6.8842624173899996
