Sr Ce N 
 1.0000000000000000
     6.0797829999999999   -1.8198230000000000    0.0017610000000000
     6.0797829999999999    1.8198230000000000    0.0017610000000000
     5.5341680000000002    0.0000000000000000    3.1062050000000001
 Sr  Ce  N  
   1   1   2
Cartesian
  0.0000000000000000  0.0000000000000000  0.0000000000000000
  8.8468669999999996  0.0000000000000000  1.5548635000000000
 13.5242586641019997 -0.0000000000000000  2.3769291616309998
  4.1694753358980003 -0.0000000000000000  0.7327978383690000
