Sc Os
 1.0000000000000000
     5.2271080000000003    0.0000000000000000    0.0000000000000000
    -2.6135540000000002    4.5268090000000001    0.0000000000000000
     0.0000000000000000    0.0000000000000000    8.5443879999999996
 Sc  Os 
   4   8
Cartesian
 -0.0000026135540002  3.0178741756030001  3.6990279085719999
  2.6135566135540000  1.5089348243970000  4.8453600914279997
  2.6135566135540000  1.5089348243970000  7.9712219085719997
 -0.0000026135540002  3.0178741756030001  0.5731660914280000
  0.0000052271080000  1.5698702003459999  6.4082910000000002
 -1.2539988905239998  3.7418693730179999  6.4082910000000002
  1.3595446552600001  0.7849396269820000  2.1360969999999999
  2.6135487728920004  2.9569387996540000  2.1360969999999999
  1.2540093447400003  3.7418693730179999  6.4082910000000002
  0.0000000000000000  0.0000000000000000  0.0000000000000000
  3.8675528905240002  0.7849396269820000  2.1360969999999999
  0.0000000000000000  0.0000000000000000  4.2721939999999998
