Th Ag
 1.0000000000000000
     4.8838150000000002   -0.0000000000000000    0.0000000000000000
    -2.4419080000000002    4.2295090000000002    0.0000000000000000
     0.0000000000000000    0.0000000000000000    3.3284150000000001
 Th  Ag 
   1   2
Cartesian
  0.0000000000000000  0.0000000000000000  0.0000000000000000
 -0.0000027752410001  2.8196740765029999  1.6642075000000001
  2.4419097752410002  1.4098349234970000  1.6642075000000001
