Sc Ga Rh
 1.0000000000000000
     0.0000960000000000    3.0957260000000000    3.0951830000000000
     3.0957490000000001    0.0000740000000000    3.0952039999999998
     3.0976949999999999    3.0976940000000002   -0.0018760000000000
 Sc  Ga  Rh 
   1   1   2
Cartesian
  4.6451642929889996  4.6451266973559999  4.6413801491889997
  1.5483107061779999  1.5484477975419999  1.5471215572329999
  3.0960029984490003  3.0958775124579998  6.1902445069359997
  3.0966708106940000  3.0965828010440002  3.0943949058680000
