Ba Al
 1.0000000000000000
     4.2702760000000000    0.0000000000000000   -1.6088309999999999
    -0.6061290000000000    4.2270409999999998   -1.6088309999999999
     0.0221040000000000    0.0255000000000000    6.5303240000000002
 Ba  Al 
   1   4
Cartesian
  0.0000000000000000  0.0000000000000000  0.0000000000000000
  3.0622267500000002  1.0695102500000000  1.6563310000000002
  0.6240242499999999  3.1830307499999999  1.6563310000000002
  1.4094010654470002  1.6259164895009999  3.7409220414980004
  2.2768499345529998  2.6266245104990000 -0.4282600414979997
