Pm Pd
 1.0000000000000000
     4.1523310000000002    0.0000000000000000    0.0000000000000000
     0.0000000000000000    4.1523310000000002    0.0000000000000000
     0.0000000000000000    0.0000000000000000    4.1523310000000002
 Pm  Pd 
   1   3
Cartesian
  0.0000000000000000  0.0000000000000000  0.0000000000000000
  0.0000000000000000  2.0761696523310000  2.0761696523310000
  2.0761696523310000  0.0000000000000000  2.0761696523310000
  2.0761696523310000  2.0761696523310000  0.0000000000000000
