Sr Pb O 
 1.0000000000000000
     3.5229130000000000    0.0000000000000000    0.0000000000000000
     0.0000000000000000    6.1835789999999999    0.0000000000000000
     0.0000000000000000    0.0000000000000000   10.1193790000000003
 Sr  Pb  O  
   4   2   8
Cartesian
  1.7614565000000000  2.6359978919099998  8.2869922088170007
  1.7614565000000000  3.5475811080900002  1.8323867911829999
  1.7614565000000000  5.7277873919099997  6.8920762911830007
  1.7614565000000000  0.4557916080900000  3.2273027088170001
  0.0000000000000000  3.0917895000000000  5.0596895000000002
  0.0000000000000000  0.0000000000000000  0.0000000000000000
  0.0000000000000000  0.8295085721129999  8.1658632421870010
  0.0000000000000000  5.3540704278869997  1.9535157578130000
  0.0000000000000000  3.9212980721130002  7.0132052578129995
  0.0000000000000000  2.2622809278869997  3.1061737421869999
  1.7614565000000000  1.7030751446010002  5.5781558830650004
  1.7614565000000000  4.4805038553990002  4.5412231169350008
  1.7614565000000000  1.3887143553990000  0.5184663830650000
  1.7614565000000000  4.7948646446009997  9.6009126169350001
