Mg Zr Au
 1.0000000000000000
     0.0000000000000000    3.3460470000000000    3.3460470000000000
     3.3460470000000000    0.0000000000000000    3.3460470000000000
     3.3460470000000000    3.3460470000000000    0.0000000000000000
 Mg  Zr  Au 
   1   1   2
Cartesian
  1.6730301920939998  1.6730301920939998  1.6730301920939998
  5.0190771920940005  5.0190771920940005  5.0190771920940005
  3.3460470000000000  3.3460470000000000  3.3460470000000000
  0.0000000000000000  0.0000000000000000  0.0000000000000000
