Mg Al Si O 
 1.0000000000000000
     4.9151199999999999   -8.6335840000000008    0.0000000000000000
     4.9151199999999999    8.6335840000000008    0.0000000000000000
     0.0000000000000000    0.0000000000000000    9.4401600000000006
 Mg  Al  Si  O  
   4   8  10  36
Cartesian
  4.9151199999999999  2.8064500822080003  2.3600400000000001
  4.9151199999999999 -2.8064500822080003  2.3600400000000001
  4.9151199999999999 -2.8064500822080003  7.0801200000000009
  4.9151199999999999  2.8064500822080003  7.0801200000000009
  2.4575600000000000  4.3167920000000004  2.3593225478400002
  2.4575600000000000 -4.3167920000000004  2.3607574521600005
  2.4575600000000000 -4.3167920000000004  7.0794025478400009
  2.4575600000000000  4.3167920000000004  7.0808374521599999
  3.0277237502399998  0.8700235268480004  4.7200800000000003
  6.8025162497600000 -0.8700235268480000  4.7200800000000003
  3.0277237502399998 -0.8700235268480004  0.0000000000000000
  6.8025162497600000  0.8700235268479994  0.0000000000000000
  4.1414653666400003  5.3150156156640005  4.7200800000000003
  5.6887746333599996 -5.3150156156640005  4.7200800000000003
  5.6887746333599996  5.3150156156640005  0.0000000000000000
  4.1414653666400003 -5.3150156156640005  0.0000000000000000
  4.9151199999999999  0.0000000000000000  7.0801200000000009
  4.9151199999999999  0.0000000000000000  2.3600400000000001
  7.5022769690399995 -2.3358593191199999  0.0000000000000000
  2.3279630309599999  2.3358593191199999  0.0000000000000000
  7.5022769690399995  2.3358593191199999  4.7200800000000003
  2.3279630309599999 -2.3358593191199999  4.7200800000000003
  4.0919357023999998  1.0786281834559999  3.2940305500800005
  3.0476004955199998  2.9947140149120006  8.1014981112000015
  3.0476004955199998 -2.9947140149120006  3.3814181111999999
  6.7826395044800005  2.9947140149120006  3.3814181111999999
  5.6896839305600002  5.7981078083840005  4.7200800000000003
  4.1405560694399997 -5.7981078083840005  4.7200800000000003
  5.6896839305600002 -5.7981078083840005  0.0000000000000000
  4.1405560694399997  5.7981078083840005  0.0000000000000000
  2.4424558362400002 -0.7501116786720003  4.7200800000000003
  7.3877841637599992  0.7501116786719997  4.7200800000000003
  2.4424558362400002  0.7501116786720001  0.0000000000000000
  7.3877841637600001 -0.7501116786719997  0.0000000000000000
  1.8203048617599999  2.1062664198080001  4.7200800000000003
  8.0099351382399995 -2.1062664198079983  4.7200800000000003
  1.8203048617599999 -2.1062664198080001  0.0000000000000000
  8.0099351382399995  2.1062664198079997  0.0000000000000000
  6.7826395044800005  2.9947140149120006  6.0587418888000002
  3.0476004955199998 -2.9947140149120006  6.0587418888000002
  3.9028559511199998 -4.3664437415840007  1.3358959219200002
  3.0476004955199998  2.9947140149120006  1.3386618887999999
  3.9028559511199998  4.3664437415839998  3.3841840780800001
  5.9273840488799996 -4.3664437415840007  3.3841840780800001
  5.9273840488799996  4.3664437415840007  8.1042640780799999
  3.9028559511199998 -4.3664437415840007  8.1042640780799999
  5.9273840488799996 -4.3664437415840007  6.0559759219200000
  3.9028559511199998  4.3664437415839998  6.0559759219200000
  5.7383042976000000  1.0786281834560001  1.4260494499200000
  4.0919357023999998 -1.0786281834560001  1.4260494499200000
  5.7383042975999992 -1.0786281834559999  3.2940305500800005
  5.9273840488799996  4.3664437415840007  1.3358959219200002
  4.0919357023999998 -1.0786281834560001  8.0141105500799998
  5.7383042976000000  1.0786281834560001  8.0141105500799998
  4.0919357023999998  1.0786281834559999  6.1461294499200010
  5.7383042975999992 -1.0786281834559999  6.1461294499200010
  6.7826395044799996 -2.9947140149120006  1.3386618887999999
  6.7826395044799996 -2.9947140149120006  8.1014981112000015
