Sc In Ni
 1.0000000000000000
     0.0000000000000000    3.1138370000000002    3.1138370000000002
     3.1138370000000002    0.0000000000000000    3.1138370000000002
     3.1138370000000002    3.1138370000000002    0.0000000000000000
 Sc  In  Ni 
   1   1   2
Cartesian
  3.1138370000000002  3.1138370000000002  3.1138370000000002
  0.0000000000000000  0.0000000000000000  0.0000000000000000
  4.6707555000000003  4.6707555000000003  4.6707555000000003
  1.5569185000000001  1.5569185000000001  1.5569185000000001
