Mn Ga Se
 1.0000000000000000
     5.1644779999999999    0.0004180000000000   -2.4083990000000002
    -1.1236510000000000    5.0381689999999999   -2.4066740000000002
     0.0119790000000000    0.0167600000000000    6.7603169999999997
 Mn  Ga  Se 
   1   2   4
Cartesian
  5.1642196527770006  0.0012616142110000 -2.4078613144940006
  2.0312383005910002  2.5357730175149999  4.3521538187029991
  0.4547609829720001  3.7867928153889996  0.9726296497529998
  1.6303198597859996  1.9526423945039999 -0.0858572660820002
 -0.0488018505610001  3.0383792051160001  3.2215043639829992
  3.0282186182619997  0.6782853969370000  3.1580389646269995
  3.4968902743929999  4.4411523822479992 -2.4026878714390003
