Sc S  O 
 1.0000000000000000
     3.5364019999999998    0.0000000000000000    0.0000000000000000
    -1.7682009999999999    3.0626139999999999    0.0000000000000000
     0.0000000000000000    0.0000000000000000   12.5644969999999994
 Sc  S   O  
   4   2   4
Cartesian
 -0.0000017682010000  2.0417436875380002  7.6253429713119996
  1.7682027682010002  1.0208703124620000  1.3430944713119999
  1.7682027682010002  1.0208703124620000  4.9391540286879998
 -0.0000017682010000  2.0417436875380002 11.2214025286879995
  0.0000000000000000  0.0000000000000000  3.1411242499999998
  0.0000000000000000  0.0000000000000000  9.4233727499999986
  1.7682027682010002  1.0208703124620000  7.1033509434470004
 -0.0000017682010000  2.0417436875380002  0.8211024434470000
 -0.0000017682010000  2.0417436875380002  5.4611460565529999
  1.7682027682010002  1.0208703124620000 11.7433945565529996
