Mn Sb Rh
 1.0000000000000000
     6.1108450000000003    0.0000000000000000    0.0000000000000000
     0.0000000000000000    6.1108450000000003    0.0000000000000000
     0.0000000000000000    0.0000000000000000    6.1108450000000003
 Mn  Sb  Rh 
   4   4   4
Cartesian
  0.0000000000000000  0.0000000000000000  3.0554225000000002
  0.0000000000000000  3.0554225000000002  0.0000000000000000
  3.0554225000000002  0.0000000000000000  0.0000000000000000
  3.0554225000000002  3.0554225000000002  3.0554225000000002
  0.0000000000000000  0.0000000000000000  0.0000000000000000
  0.0000000000000000  3.0554225000000002  3.0554225000000002
  3.0554225000000002  0.0000000000000000  3.0554225000000002
  3.0554225000000002  3.0554225000000002  0.0000000000000000
  4.5831337500000000  1.5277112500000001  1.5277112500000001
  4.5831337500000000  4.5831337500000000  4.5831337500000000
  1.5277112500000001  1.5277112500000001  4.5831337500000000
  1.5277112500000001  4.5831337500000000  1.5277112500000001
