Bi F 
 1.0000000000000000
     3.8970790000000002    0.0000000000000000    1.7708029999999999
     1.9484589999999999    4.5209500000000000    0.8855780000000000
     0.0782800000000000   -0.0001930000000000    5.0013600000000000
 Bi  F  
   1   5
Cartesian
  0.0000000000000000  0.0000000000000000  0.0000000000000000
  3.1585034485280001  0.8764500920220000  3.3962118824109999
  1.9485395000000001  0.0000000000000000  0.8854015000000000
  2.7653145514719997  3.6443069079780002  4.2615291175890002
  4.3379408386100007  1.7851494902330001  5.9742292054100004
  1.5858771613899998  2.7356075097669996  1.6835117945900000
