Lu Si Pd
 1.0000000000000000
     3.7968549999999999    0.0000000000000000   -1.4557270000000000
    -0.5581300000000000    3.7556080000000001   -1.4557270000000000
     0.0299060000000000    0.0346810000000000    5.7573829999999999
 Lu  Si  Pd 
   1   2   2
Cartesian
  0.0000000000000000  0.0000000000000000  0.0000000000000000
  1.9955276295740001  2.3140035441190001 -0.4746110569030000
  1.2731033704260002  1.4762854558810001  3.3205400569029999
  2.7230617499999998  0.9562425000000000  1.4229645000000000
  0.5455692500000000  2.8340464999999999  1.4229645000000000
