Nb Ga O 
 1.0000000000000000
     3.8222909999999999    0.0000000000000000    0.0000000000000000
    -1.9111460000000000    5.9661160000000004   -1.9444390000000000
     0.0000000000000000    0.0182200000000000    6.6616369999999998
 Nb  Ga  O  
   2   2   8
Cartesian
 -0.0070904535730000  1.2424296385560001  1.1488135161689998
  1.9040547539629997  4.7419063614440002  3.5683844838309997
 -0.0080308315910000  2.3798656009999997  4.6759786407099995
  1.9031183870999995  3.6044703990000007  0.0412193592899999
  1.9041293224789997  4.3329003412759999  1.7982458028189996
 -0.0070159527400000  1.6514356587240000  2.9189521971810000
  1.9042897761879998  5.3111359015120003 -0.8365501379080003
 -0.0068553340050000  0.6732000984880001  5.5537481379080003
 -0.0075244391340000  3.0966691738360002 -0.0448088643369999
  1.9036249017580000  2.8876668261640002  4.7620068643369997
 -0.0072206681500002  4.3155187408920010  3.9121246230930002
  1.9039250527519997  1.6688172591080002  0.8050733769069999
