Be Ge P 
 1.0000000000000000
     5.1822460000000001    0.0000000000000000    0.0000000000000000
     0.0000000000000000    5.1822460000000001    0.0000000000000000
    -2.5911230000000001   -2.5911230000000001    5.2010449999999997
 Be  Ge  P  
   2   2   4
Cartesian
  2.5911230000000005  0.0000000000000000  2.6005224999999998
  2.5911230000000001  2.5911230000000001  0.0000000000000000
  0.0000000000000000  2.5911230000000005  2.6005224999999998
  0.0000000000000000  0.0000000000000000  0.0000000000000000
  3.7550036291400000  3.8866845000000003  1.3002612499999999
  1.4272423708600002  1.2955615000000003  1.3002612499999999
 -1.2955615000000000  1.1638806291399999  3.9007837499999996
  1.2955614999999998 -1.1638806291400001  3.9007837499999996
