K  Co S 
 1.0000000000000000
     3.5424039999999999   -0.0000000000000000   -0.9722300000000000
    -0.2668330000000000    3.5323400000000000   -0.9722300000000000
     0.0998940000000000    0.1077240000000000    7.3036190000000003
 K   Co  S  
   1   2   2
Cartesian
  0.0000000000000000  0.0000000000000000  0.0000000000000000
  2.6400417500000000  0.9369470000000000  2.6795795000000000
  0.7354232500000000  2.7031170000000002  2.6795795000000000
  2.1426510018239999  2.3106112704840003  0.8672990636789999
  1.2328139981760000  1.3294527295159999  4.4918599363210001
