Mg In Rh
 1.0000000000000000
     0.0000000000000000    3.1520199999999998    3.1520199999999998
     3.1520199999999998    0.0000000000000000    3.1520199999999998
     3.1520199999999998    3.1520199999999998    0.0000000000000000
 Mg  In  Rh 
   1   1   2
Cartesian
  4.7280299999999995  4.7280299999999995  4.7280299999999995
  1.5760099999999999  1.5760099999999999  1.5760099999999999
  0.0000000000000000  0.0000000000000000  0.0000000000000000
  3.1520199999999998  3.1520199999999998  3.1520199999999998
