Ce Tl Au
 1.0000000000000000
     0.0000000000000000    3.6020539999999999    3.6020539999999999
     3.6020539999999999    0.0000000000000000    3.6020539999999999
     3.6020539999999999    3.6020539999999999    0.0000000000000000
 Ce  Tl  Au 
   1   1   2
Cartesian
  3.6020539999999999  3.6020539999999999  3.6020539999999999
  0.0000000000000000  0.0000000000000000  0.0000000000000000
  1.8010269999999999  1.8010269999999999  1.8010269999999999
  5.4030810000000002  5.4030810000000002  5.4030810000000002
