Mn Si Ir
 1.0000000000000000
     3.8616299999999999    0.0000000000000000    0.0000000000000000
     0.0000000000000000    6.0514710000000003    0.0000000000000000
     0.0000000000000000    0.0000000000000000    7.2490910000000000
 Mn  Si  Ir 
   4   4   4
Cartesian
  2.8962224999999999  5.8617634356210004  5.9370272762730005
  0.9654075000000000  0.1897075643790000  1.3120637237269999
  2.8962224999999999  2.8360279356209999  4.9366092237269994
  0.9654075000000000  3.2154430643790000  2.3124817762729997
  0.9654075000000000  1.6152041760810001  6.3592505815680003
  2.8962224999999999  4.4362668239190004  0.8898404184320000
  0.9654075000000000  4.6409396760810004  4.5143859184319997
  2.8962224999999999  1.4105313239190000  2.7347050815680003
  0.9654075000000000  4.0157622070710000  6.7887954687729994
  2.8962224999999999  2.0357087929290003  0.4602955312270000
  0.9654075000000000  0.9900267070710000  4.0848410312270005
  2.8962224999999999  5.0614442929290000  3.1642499687729999
