Nb Ir
 1.0000000000000000
     3.9319190000000002    0.0000000000000000    0.0000000000000000
     0.0000000000000000    3.9319190000000002    0.0000000000000000
     0.0000000000000000    0.0000000000000000    3.9319190000000002
 Nb  Ir 
   1   3
Cartesian
  0.0000000000000000  0.0000000000000000  0.0000000000000000
  1.9659595000000001  1.9659595000000001  0.0000000000000000
  1.9659595000000001  0.0000000000000000  1.9659595000000001
  0.0000000000000000  1.9659595000000001  1.9659595000000001
