Lu S  Br
 1.0000000000000000
     5.2524329999999999    0.0000000000000000    0.0000000000000000
     0.0000000000000000    3.9410509999999999    0.0000000000000000
     0.0000000000000000    0.0000000000000000    8.2131190000000007
 Lu  S   Br 
   2   2   2
Cartesian
  3.9393247499999999  2.9557882499999999  5.2039225427090008
  1.3131082500000000  0.9852627500000000  3.0091964572910004
  3.9393247499999999  0.9852627500000000  3.3927244752340004
  1.3131082500000000  2.9557882499999999  4.8203945247660007
  1.3131082500000000  2.9557882499999999  1.0970920097820001
  3.9393247499999999  0.9852627500000000  7.1160269902180007
