Nb
 1.0000000000000000
     3.3220950000000000    0.0000000000000000    0.0000000000000000
     0.0000000000000000    3.3220950000000000    0.0000000000000000
     0.0000000000000000    0.0000000000000000    3.3220950000000000
 Nb 
   2
Cartesian
  0.0000000000000000  0.0000000000000000  0.0000000000000000
  1.6610475000000000  1.6610475000000000  1.6610475000000000
