Cs Mg I 
 1.0000000000000000
     8.2972149999999996    0.0000000000000000    0.0000000000000000
    -4.1486070000000002    7.1855989999999998    0.0000000000000000
     0.0000000000000000    0.0000000000000000    7.0348309999999996
 Cs  Mg  I  
   2   2   6
Cartesian
 -0.0000038152740004  4.7904017285330003  5.2761232499999995
  4.1486118152740001  2.3951972714670000  1.7587077499999999
  0.0000000000000000  0.0000000000000000  0.0000000000000000
  0.0000000000000000  0.0000000000000000  3.5174154999999998
 -2.1197056919890001  6.0142170222180003  1.7587077499999999
  2.0288724307769996  1.1713891633809999  5.2761232499999995
  4.1485995397680000  4.8428494156339994  5.2761232499999995
  0.0000167574470000  2.3427495843660000  1.7587077499999999
  2.1197314206159987  6.0142170222180003  1.7587077499999999
  6.2683178405969997  1.1713891633809999  5.2761232499999995
