Te W 
 1.0000000000000000
     3.5186000000000002    0.0000000000000000    0.0000000000000000
     0.0000000000000000    6.3023360000000004    0.0000000000000000
     0.0000000000000000    0.0000000000000000   15.0057770000000001
 Te  W  
   8   4
Cartesian
  1.7593000000000001  5.0153989888000003 13.6588584564800009
  0.0000000000000000  1.2869370112000000  6.1559699564799999
  1.7593000000000001  4.3944298227200003  5.5408531456960004
  0.0000000000000000  1.9079061772800001 13.0437416456960005
  0.0000000000000000  5.4057656806400001  9.6921263238610003
  1.7593000000000001  0.8965703193600001  2.1892378238609997
  0.0000000000000000  4.0837372625919999  1.5730255913560001
  1.7593000000000001  2.2185987374080001  9.0759140913560010
  1.7593000000000001  6.0250080066559999  7.7239686125410003
  0.0000000000000000  0.2773279933440000  0.2210801125410000
  1.7593000000000001  2.5185710240000003  0.0052220103960000
  0.0000000000000000  3.7837712783360002  7.5081105103960004
