Tb F 
 1.0000000000000000
     4.3419150000000002    0.0000000000000000    0.0000000000000000
     0.0000000000000000    6.4425450000000000    0.0000000000000000
     0.0000000000000000    0.0000000000000000    6.8692979999999997
 Tb  F  
   4  12
Cartesian
  4.0566642102450006  4.0611999767400002  5.1519734999999995
  1.8857067102450000  5.6026175232599993  1.7173244999999999
  2.4562082897550002  0.8399274767399999  5.1519734999999995
  0.2852507897550000  2.3813450232600002  1.7173244999999999
  1.6711509805200002  1.0685025307950000  3.0022816452840000
  3.8421084805200003  2.1527699692050000  3.8670163547160001
  0.4998065194800000  4.2897750307950000  0.4323673547160000
  2.6707640194800000  5.3740424692050004  6.4369306452839989
  2.5284751230150002  3.3547362622199999  1.7173244999999999
  0.3575176230150000  6.3090812377800001  5.1519734999999995
  3.9843973769850001  0.1334702047650000  1.7173244999999999
  1.8134398769850002  3.0878022952349999  5.1519734999999995
  1.6711509805200002  1.0685025307950000  0.4323673547160000
  3.8421084805200003  2.1527699692050000  6.4369306452839989
  0.4998065194800000  4.2897750307950000  3.0022816452840000
  2.6707640194800000  5.3740424692050004  3.8670163547160001
