Li Ag Hg
 1.0000000000000000
     0.0000000000000000    3.1866430000000001    3.1866430000000001
     3.1866430000000001    0.0000000000000000    3.1866430000000001
     3.1866430000000001    3.1866430000000001    0.0000000000000000
 Li  Ag  Hg 
   2   1   1
Cartesian
  3.1866493732860004  3.1866493732860004  3.1866493732860004
  0.0000000000000000  0.0000000000000000  0.0000000000000000
  1.5933215000000001  1.5933215000000001  1.5933215000000001
  4.7799708732860005  4.7799708732860005  4.7799708732860005
