Ta C 
 1.0000000000000000
     3.1253519999999999    0.0000000000000000    0.0000000000000000
    -1.5626760000000000    2.7066340000000002    0.0000000000000000
     0.0000000000000000    0.0000000000000000    4.9669970000000001
 Ta  C  
   2   1
Cartesian
  1.5626775626760001  0.9022104311220001  3.7117474521539999
 -0.0000015626760001  1.8044235688780002  1.2552495478460000
  0.0000000000000000  0.0000000000000000  0.0000000000000000
