Hf Sb P 
 1.0000000000000000
     3.8016350000000001   -0.0000000000000000    0.0000000000000000
    -1.9008190000000000    3.2923130000000000    0.0000000000000000
     0.0000000000000000    0.0000000000000000   13.0800879999999999
 Hf  Sb  P  
   4   2   2
Cartesian
  1.9008189008179999  1.0974365692290000 11.7425574413839993
 -0.0000029008180001  2.1948764307710000  5.2025134413840002
  1.9008189008179999  1.0974365692290000  7.8775745586160006
 -0.0000029008180001  2.1948764307710000  1.3375305586160000
 -0.0000029008180001  2.1948764307710000  9.8100659999999991
  1.9008189008179999  1.0974365692290000  3.2700220000000000
  0.0000000000000000  0.0000000000000000  0.0000000000000000
  0.0000000000000000  0.0000000000000000  6.5400440000000000
