Hf Zr Tc
 1.0000000000000000
     0.0000000000000000    3.2621129999999998    3.2621129999999998
     3.2621129999999998    0.0000000000000000    3.2621129999999998
     3.2621129999999998    3.2621129999999998    0.0000000000000000
 Hf  Zr  Tc 
   1   1   2
Cartesian
  1.6310564999999999  1.6310564999999999  1.6310564999999999
  4.8931694999999999  4.8931694999999999  4.8931694999999999
  3.2621064757739999  3.2621064757739999  3.2621064757739999
  0.0000000000000000  0.0000000000000000  0.0000000000000000
