Cu Pd
 1.0000000000000000
     3.7269790000000000    0.0000000000000000    0.0000000000000000
     0.0000000000000000    3.7269790000000000    0.0000000000000000
     0.0000000000000000    0.0000000000000000    3.7273849999999999
 Cu  Pd 
   3   1
Cartesian
  1.8634895000000000  1.8634895000000000  0.0000000000000000
  1.8634895000000000  0.0000000000000000  1.8636925000000000
  0.0000000000000000  1.8634895000000000  1.8636925000000000
  0.0000000000000000  0.0000000000000000  0.0000000000000000
