Lu In Pt
 1.0000000000000000
     7.5568379999999999    0.0000000000000000    0.0000000000000000
    -3.7784190000000000    6.5444149999999999    0.0000000000000000
     0.0000000000000000    0.0000000000000000    3.7676840000000000
 Lu  In  Pt 
   3   3   3
Cartesian
 -2.2495459847729999  3.8963287253049996  1.8838420000000000
  4.4990919695459999  0.0000000000000000  1.8838420000000000
  1.5288730152270000  2.6480862746950002  1.8838420000000000
 -0.9951751098960000  1.7236942003600000  0.0000000000000000
  1.9903502197920000  0.0000000000000000  0.0000000000000000
  2.7832438901040000  4.8207207996400001  0.0000000000000000
  0.0000000000000000  0.0000000000000000  1.8838420000000000
  3.7784227784189994  2.1814694851950001  0.0000000000000000
 -0.0000037784190001  4.3629455148050003  0.0000000000000000
