Te Pd
 1.0000000000000000
     3.8974099999999998   -0.0000000000000000    0.0000000000000000
    -1.9487060000000000    6.3819759999999999    0.0000000000000000
     0.0000000000000000    0.0000000000000000    7.9848169999999996
 Te  Pd 
   4   6
Cartesian
  0.0000000000000000  0.0000000000000000  0.0000000000000000
  0.0000000000000000  0.0000000000000000  3.9924084999999998
  0.0000014307980000  3.3052700442320000  5.9886127499999997
  1.9487025692019995  3.0767059557679999  1.9962042499999999
 -0.0000048307780000  5.9567321751679998  5.9886127499999997
  1.9487088307780001  0.4252438248320000  1.9962042499999999
  0.0000012751940001  4.2983310377359993  0.5457941812179999
  1.9487027248059998  2.0836449622639996  7.4390228187819991
  1.9487027248059998  2.0836449622639996  4.5382026812180003
  0.0000012751940001  4.2983310377359993  3.4466143187819998
