Tb Ge
 1.0000000000000000
     4.2962220000000002    0.0000000000000000    0.0000000000000000
    -2.1481110000000001    5.3667769999999999    0.0000000000000000
     0.0000000000000000    0.0000000000000000    3.9560749999999998
 Tb  Ge 
   2   2
Cartesian
  0.0000064443330001  1.4844129507609998  2.9670562499999997
  2.1481088518889999  3.8823640492389999  0.9890187499999999
  2.1481152962220000  0.9056865529660000  0.9890187499999999
 -0.0000042962220002  4.4610904470340005  2.9670562499999997
