Th Br
 1.0000000000000000
     6.9994920000000000    2.8408250000000002   -3.6557550000000001
    -1.5414010000000000    7.3948970000000003   -3.6561319999999999
    -1.5149809999999999   -2.8406140000000000    7.7500629999999999
 Th  Br 
   2   8
Cartesian
  2.0533891249999998  1.2795179999999999  0.1095911249999999
  1.8897208750000005  6.1155900000000010  0.3285848750000000
  2.6324543700879999  3.5758852321510011  1.8361325484049997
  1.3254001305829999  0.4810998334410001  2.9568733253259998
  1.3106556299120000  3.8192227678490007 -1.3979565484050003
  6.1319622825879998  4.3519759435120005 -3.4819295737700005
 -2.1888522825879999  3.0431320564880009  3.9201055737699999
  4.7099624811999998  2.3289048962940004 -0.9467268510680001
  2.6177098694169998  6.9140081665590003 -2.5186973253259999
 -0.7668524811999998  5.0662031037060009  1.3849028510679990
