Eu Zn Ge
 1.0000000000000000
     4.3172959999999998    0.0000000000000000    0.0000000000000000
     0.0000000000000000    4.3172959999999998    0.0000000000000000
     0.0000000000000000    0.0000000000000000   10.5100529999999992
 Eu  Zn  Ge 
   2   4   4
Cartesian
  3.2379720000000001  3.2379720000000001  2.6240449325099999
  1.0793240000000000  1.0793240000000000  7.8860080674899997
  1.0793240000000000  3.2379720000000001  5.2550264999999996
  3.2379720000000001  1.0793240000000000  5.2550264999999996
  1.0793240000000000  1.0793240000000000  1.3974481770389999
  3.2379720000000001  3.2379720000000001  9.1126048229609982
  3.2379720000000001  1.0793240000000000  0.0000000000000000
  1.0793240000000000  3.2379720000000001  0.0000000000000000
  1.0793240000000000  1.0793240000000000  3.8383659460769999
  3.2379720000000001  3.2379720000000001  6.6716870539229998
