Na Fe As
 1.0000000000000000
     3.8767680000000002    0.0000000000000000    0.0000000000000000
     0.0000000000000000    3.8767680000000002    0.0000000000000000
     0.0000000000000000    0.0000000000000000    7.3221660000000002
 Na  Fe  As 
   2   2   2
Cartesian
  2.9075760000000002  2.9075760000000002  2.6153605405440001
  0.9691920000000001  0.9691920000000001  4.7068054594560005
  2.9075760000000002  0.9691920000000001  0.0000000000000000
  0.9691920000000001  2.9075760000000002  0.0000000000000000
  0.9691920000000001  0.9691920000000001  1.5648859953540000
  2.9075760000000002  2.9075760000000002  5.7572800046459998
