Li Si O 
 1.0000000000000000
     4.9818170000000004    0.0034660000000000   -0.0017870000000000
     1.8441959999999999    4.6305790000000000    0.0040140000000000
     2.4313330000000000    0.0556680000000000    7.0510609999999998
 Li  Si  O  
   8   2   8
Cartesian
  5.1666556998509998  3.4061103269060000  0.0380978162310000
  4.0906903001490003  1.2836026730940000  7.0151901837689996
  5.0334517236040002  3.5569140913780002  3.1288402181599997
  4.2238942763959999  1.1327989086220001  3.9244477818399996
  1.8341742720370000  1.1793173725110000  2.8747224599750001
  7.4231717279630001  3.5103956274889998  4.1785655400249997
  3.9020835620060002  0.9985808154450000  1.3710413645560000
  5.3552624379939999  3.6911321845549998  5.6822466354439998
  6.4471364979440002  1.0556821438290001  5.3802139444060000
  2.8102095020560003  3.6340308561710000  1.6730740555940000
  5.1500777891930003  0.1077845618170000  5.6823047614390001
  4.1072682108069998  4.5819284381830006  1.3709832385609999
  3.3617459511370003  2.4180846401839999  2.6434459777610000
  5.8956000488629998  2.2716283598159999  4.4098420222390002
  6.7715382759850007  4.5210213144139999  2.6072162684930000
  2.4858077240150003  0.1686916855860000  4.4460717315069997
  2.0889890653989998  3.0826973881290001  0.3336035240690000
  7.1683569346009994  1.6070156118710002  6.7196844759309995
