Fe
 1.0000000000000000
     2.8378600000000000    0.0000000000000000    0.0000000000000000
     0.0000000000000000    2.8378600000000000    0.0000000000000000
     0.0000000000000000    0.0000000000000000    2.8378600000000000
 Fe 
   2
Cartesian
  0.0000000000000000  0.0000000000000000  0.0000000000000000
  1.4189300000000000  1.4189300000000000  1.4189300000000000
