Zr C  S 
 1.0000000000000000
     3.4269669999999999   -0.0000000000000000    0.0000000000000000
    -1.7134840000000000    2.9678420000000001    0.0000000000000000
     0.0000000000000000    0.0000000000000000   12.1933310000000006
 Zr  C   S  
   4   2   2
Cartesian
 -0.0000020468170002  1.9785623226140001  4.8725404209169998
  1.7134850468170000  0.9892796773860000 10.9692059209170019
  1.7134850468170000  0.9892796773860000  7.3207905790829999
 -0.0000020468170002  1.9785623226140001  1.2241250790830001
  0.0000000000000000  0.0000000000000000  6.0966655000000003
  0.0000000000000000  0.0000000000000000  0.0000000000000000
  1.7134850468170000  0.9892796773860000  3.0483327500000001
 -0.0000020468170002  1.9785623226140001  9.1449982500000004
