Li Ca In
 1.0000000000000000
     0.0000000000000000    3.8582049999999999    3.8582049999999999
     3.8582049999999999    0.0000000000000000    3.8582049999999999
     3.8582049999999999    3.8582049999999999    0.0000000000000000
 Li  Ca  In 
   1   2   1
Cartesian
  5.7873074999999998  5.7873074999999998  5.7873074999999998
  3.8581972835900000  3.8581972835900000  3.8581972835900000
  0.0000000000000000  0.0000000000000000  0.0000000000000000
  1.9291102164099998  1.9291102164099998  1.9291102164099998
