La S 
 1.0000000000000000
     4.1583500000000004    0.0000000000000000    0.0000000000000000
     0.0000000000000000    7.6278110000000003    0.0000000000000000
     0.0000000000000000    0.0000000000000000   15.8954029999999999
 La  S  
   8  12
Cartesian
  1.0395875000000001  4.9289694232240002  4.6931177357500005
  3.1187625000000003  2.6988415767760001 11.2022852642499995
  1.0395875000000001  1.1150639232240001  3.2545837642500000
  3.1187625000000003  6.5127470767760007 12.6408192357499995
  1.0395875000000001  2.0155804064510003 15.1936050621469985
  3.1187625000000003  5.6122305935490004  0.7017979378530000
  1.0395875000000001  5.8294859064509996  8.6494994378530006
  3.1187625000000003  1.7983250935490001  7.2459035621470003
  1.0395875000000001  6.6454786159870007 14.8302997311790001
  3.1187625000000003  0.9823323840130002  1.0651032688210000
  1.0395875000000001  2.8315731159870001  9.0128047688210007
  3.1187625000000003  4.7962378840130002  6.8825982311790002
  1.0395875000000001  4.9251631455349996 11.4377915550980003
  3.1187625000000003  2.7026478544649999  4.4576114449020006
  1.0395875000000001  1.1112576455350001 12.4053129449019988
  3.1187625000000003  6.5165533544650005  3.4900900550980003
  3.1187625000000003  7.5381460816950003  9.6882322330970005
  1.0395875000000001  0.0896649183050000  6.2071707669029994
  3.1187625000000003  3.7242405816950002 14.1548722669030003
  1.0395875000000001  3.9035704183049997  1.7405307330969999
