Zr Zn N 
 1.0000000000000000
     2.8416500000000000   -1.6406289999999999    0.0000000000000000
    -0.0000000000000000    3.2812549999999998    0.0000000000000000
     0.0000000000000000    0.0000000000000000    5.2822730000000000
 Zr  Zn  N  
   1   1   2
Cartesian
  0.0000000000000000  0.0000000000000000  0.0112565237630000
  1.8944342805500001 -0.0000026406280000  2.3771707536440001
  0.9472157194499999  1.6406286406280000  1.3759634469510000
  1.8944342805500001 -0.0000026406280000  4.3173284974520003
