Be Nb
 1.0000000000000000
     7.3319500000000000    0.0000000000000000    0.0000000000000000
     0.0000000000000000    7.3319500000000000    0.0000000000000000
     0.0000000000000000    0.0000000000000000    4.2064880000000002
 Be  Nb 
  24   2
Cartesian
  5.7384386509000000  0.0000000000000000  2.1032440000000001
  0.0000000000000000  2.5848423127499998  0.0000000000000000
  2.5848423127499998  0.0000000000000000  0.0000000000000000
  4.7471076872499998  0.0000000000000000  0.0000000000000000
  0.0000000000000000  1.5935113490999999  2.1032440000000001
  1.8329875000000000  1.8329875000000000  3.1548660000000002
  1.5935113490999999  0.0000000000000000  2.1032440000000001
  0.0000000000000000  4.7471076872499998  0.0000000000000000
  0.0000000000000000  5.7384386509000000  2.1032440000000001
  5.4989625000000002  1.8329875000000000  3.1548660000000002
  5.4989625000000002  1.8329875000000000  1.0516220000000001
  1.8329875000000000  1.8329875000000000  1.0516220000000001
  2.0724636509000001  3.6659750000000000  0.0000000000000000
  3.6659750000000000  6.2508173127499997  2.1032440000000001
  6.2508173127499997  3.6659750000000000  2.1032440000000001
  1.0811326872500000  3.6659750000000000  2.1032440000000001
  3.6659750000000000  5.2594863491000003  0.0000000000000000
  5.4989625000000002  5.4989625000000002  1.0516220000000001
  5.2594863491000003  3.6659750000000000  0.0000000000000000
  3.6659750000000000  1.0811326872500000  2.1032440000000001
  3.6659750000000000  2.0724636509000001  0.0000000000000000
  1.8329875000000000  5.4989625000000002  1.0516220000000001
  1.8329875000000000  5.4989625000000002  3.1548660000000002
  5.4989625000000002  5.4989625000000002  3.1548660000000002
  0.0000000000000000  0.0000000000000000  0.0000000000000000
  3.6659750000000000  3.6659750000000000  2.1032440000000001
