Li Y  Tl
 1.0000000000000000
     0.0000000000000000    3.4030399999999998    3.4030399999999998
     3.4030399999999998    0.0000000000000000    3.4030399999999998
     3.4030399999999998    3.4030399999999998    0.0000000000000000
 Li  Y   Tl 
   2   1   1
Cartesian
  0.0000000000000000  0.0000000000000000  0.0000000000000000
  3.4030331939199998  3.4030331939199998  3.4030331939199998
  5.1045599999999993  5.1045599999999993  5.1045599999999993
  1.7015199999999999  1.7015199999999999  1.7015199999999999
