Cs Ca F 
 1.0000000000000000
     4.3220910000000003   -0.0000650000000000   -1.2475300000000000
    -0.3602970000000000    4.3070389999999996   -1.2475400000000001
    -0.0110750000000000   -0.0120600000000000    8.0694540000000003
 Cs  Ca  F  
   2   1   4
Cartesian
  2.5691158077580005  2.7928134073189996  0.7897315919679998
  1.3816031922420000  1.5021005926809996  4.7846524080320005
  0.0000000000000000  0.0000000000000000  0.0000000000000000
  2.1610455000000002 -0.0000325000000000 -0.6237650000000000
 -0.1801485000000000  2.1535194999999998 -0.6237700000000000
  3.3516281296170001  3.6436556201769994  3.4990353873739997
  0.5990908703830001  0.6512583798229999  2.0753486126259997
