Ba Ge
 1.0000000000000000
     4.3290119999999996    0.0000000000000000    0.0000000000000000
     0.0000000000000000    4.6862380000000003   -1.9844500000000000
     0.0000000000000000    0.0256790000000000    6.5860909999999997
 Ba  Ge 
   2   2
Cartesian
  1.0822529999999999  4.0602464060540004  3.0627217280219998
  3.2467590000000000  0.6516705939460000  1.5389192719780000
  1.0822529999999999  2.6431604555510004 -0.2836769708850002
  3.2467590000000000  2.0687565444490001  4.8853179708849996
