Ti Re B 
 1.0000000000000000
     5.9490949999999998    0.0000000000000000    0.0000000000000000
     0.0000000000000000    5.9490949999999998    0.0000000000000000
     0.0000000000000000    0.0000000000000000    3.1783470000000000
 Ti  Re  B  
   4   2   4
Cartesian
  4.8777760233049996  4.0458664766950001  1.5891735000000000
  1.9032285233049999  4.8777760233049996  1.5891735000000000
  1.0713189766950000  1.9032285233049999  1.5891735000000000
  4.0458664766950001  1.0713189766950000  1.5891735000000000
  2.9745474999999999  2.9745474999999999  0.0000000000000000
  0.0000000000000000  0.0000000000000000  0.0000000000000000
  0.6438229590900000  3.6183704590900003  0.0000000000000000
  3.6183704590900003  5.3052720409099994  0.0000000000000000
  2.3307245409099999  0.6438229590900000  0.0000000000000000
  5.3052720409099994  2.3307245409099999  0.0000000000000000
