Cr P 
 1.0000000000000000
     4.6604060000000000   -0.0057870000000000    2.2480540000000002
     1.8210450000000000    5.3558979999999998    0.8787230000000000
     0.0064800000000000   -0.0025420000000000    5.9407660000000000
 Cr  P  
   2   8
Cartesian
  0.7456336496730001  1.3366304981780002  5.5723910440749993
  5.7422973503270001  4.0109385018220003  3.4951519559250004
  2.8682293526020000  1.6546551636789999  4.7098619407240001
  4.7602955182120006  1.0119629267060000  5.6222523844920005
  1.4466162395250000  1.7264202607710000  1.7496336923730000
  3.3015864844449996  0.9467872735300000  2.6443895880129999
  5.0413147604750002  3.6211487392290000  7.3179093076270005
  3.1863445155550001  4.4007817264700000  6.4231534119870002
  1.7276354817880000  4.3356060732940005  3.4452906155080001
  3.6197016473979997  3.6929138363209995  4.3576810592760005
