Ca B  C 
 1.0000000000000000
     4.6183079999999999   -0.0079160000000000   -2.5868699999999998
    -3.0302009999999999    4.3386959999999997   -0.1197120000000000
    -0.0055280000000000    0.0079160000000000    5.2934530000000004
 Ca  B   C  
   2   4   4
Cartesian
 -2.2767967499999999  3.2599589999999998  3.8803057500000002
 -0.7589322500000000  1.0866529999999999  1.2934352500000001
 -0.0702679276440000  1.5735102852039999  3.9401592746340008
 -0.3049058881920002  3.7389002931199999  1.9832811998400002
  1.8874848881919999  0.5997957068800001  0.6035898001600002
  1.6528469276439999  2.7651857147959999 -1.3532882746339998
  0.3056878749909999  2.8646414037399999  3.0760422315550002
  3.2962423395469997  0.6913354274879999  1.3532994202430004
  1.2768911250090000  1.4740545962599998 -0.4891712315549998
 -1.7136633395469998  3.6473605725119995  1.2335715797569999
