Cs Cu O 
 1.0000000000000000
     3.0038659999999999   -5.2187809999999999    0.0000000000000000
     3.0038659999999999    5.2187809999999999    0.0000000000000000
     0.0000000000000000    0.0000000000000000    4.9714780000000003
 Cs  Cu  O  
   2   2   2
Cartesian
  3.0038659999999999 -3.2979773402639996  3.7286085000000000
  3.0038659999999999  3.2979773402640000  1.2428695000000001
  3.0038659999999999  0.0000000000000000  0.0000000000000000
  3.0038659999999999  0.0000000000000000  2.4857390000000001
  3.0038659999999999  1.3288060182200001  3.7286085000000000
  3.0038659999999999 -1.3288060182200003  1.2428695000000001
