Ca Au
 1.0000000000000000
     6.9758269999999998   -4.0274960000000002    1.9903919999999999
     0.0000000000000000    8.0549909999999993    1.9903919999999999
    -6.9758279999999999   -4.0274950000000000    1.9903919999999999
 Ca  Au 
   6   8
Cartesian
  2.6073897107859998  0.5464302650749997  1.4070419414639999
 -1.7769178134390000  1.9848505971499999  1.4070419414639999
 -0.8304726042639998 -2.5312808622250000  1.4070419414640001
 -2.6073907107860004 -0.5464302650750006  4.5641340585360002
  1.7769168134389992 -1.9848505971500008  4.5641340585360002
  0.8304716042639999  2.5312808622249987  4.5641340585360002
 -3.4821171425359996 -0.6735379603580001  1.6559026436159998
  1.1577570241049999  3.3523703738469992  1.6559026436159998
  2.3243592864829998 -2.6788324134889998  1.6559026436159998
 -1.1577580241049994 -3.3523703738470005  4.3152733563840000
  3.4821161425360003  0.6735379603579996  4.3152733563840000
 -2.3243602864830004  2.6788324134889994  4.3152733563840000
 -0.0000005000000001 -0.0000000000000004  2.9855879999999999
  0.0000000000000000  0.0000000000000000  0.0000000000000000
