Mg Mn Ge
 1.0000000000000000
     4.0116360000000002    0.0000000000000000    0.0000000000000000
     0.0000000000000000    4.0116360000000002    0.0000000000000000
     0.0000000000000000    0.0000000000000000    6.5353930000000000
 Mg  Mn  Ge 
   2   2   2
Cartesian
  0.0000000000000000  2.0058180000000001  1.0713861868479999
  2.0058180000000001  0.0000000000000000  5.4640068131520003
  0.0000000000000000  0.0000000000000000  3.2676965000000000
  2.0058180000000001  2.0058180000000001  3.2676965000000000
  2.0058180000000001  0.0000000000000000  1.6632117707490002
  0.0000000000000000  2.0058180000000001  4.8721812292509998
