Fe Sn C 
 1.0000000000000000
     3.8894980000000001    0.0000000000000000    0.0000000000000000
     0.0000000000000000    3.8894980000000001    0.0000000000000000
     0.0000000000000000    0.0000000000000000    3.8894980000000001
 Fe  Sn  C  
   3   1   1
Cartesian
  1.9447490000000001  0.0000000000000000  1.9447490000000001
  0.0000000000000000  1.9447490000000001  1.9447490000000001
  1.9447490000000001  1.9447490000000001  0.0000000000000000
  0.0000000000000000  0.0000000000000000  0.0000000000000000
  1.9447490000000001  1.9447490000000001  1.9447490000000001
