Lu Sb Pt
 1.0000000000000000
     3.9701810000000002    0.0000000000000000    2.2921860000000001
     1.3233940000000000    3.7431220000000001    2.2921860000000001
     0.0000000000000000    0.0000000000000000    4.5843710000000000
 Lu  Sb  Pt 
   1   1   1
Cartesian
  2.6467875000000003  1.8715610000000000  4.5843714999999996
  0.0000000000000000  0.0000000000000000  0.0000000000000000
  1.3233937500000001  0.9357805000000000  2.2921857499999998
