Li Sc Ru
 1.0000000000000000
     0.0000000000000000    3.2638159999999998    3.2638159999999998
     3.2638159999999998    0.0000000000000000    3.2638159999999998
     3.2638159999999998    3.2638159999999998    0.0000000000000000
 Li  Sc  Ru 
   1   2   1
Cartesian
  1.6319079999999999  1.6319079999999999  1.6319079999999999
  0.0000000000000000  0.0000000000000000  0.0000000000000000
  3.2638159999999998  3.2638159999999998  3.2638159999999998
  4.8957239999999995  4.8957239999999995  4.8957239999999995
