Sr Nb N 
 1.0000000000000000
     5.6308080000000000    3.0276879999999999    0.0051820000000000
    -5.6308080000000000    3.0276879999999999    0.0051820000000000
     0.0000000000000000    0.5674910000000000   12.5983359999999998
 Sr  Nb  N  
   8   4  12
Cartesian
 -1.3019779489920000  4.7395494608390001  7.2816917314640000
 -2.2739286102960001  1.7788504584459999  4.5135310056939995
  2.2739286102960001  2.0625959584459999 10.8126990056940002
  2.2739286102959997  4.8440165415540006  8.0951689943060003
  1.3019779489920000  1.8833175391610000  5.3270082685359998
  1.3019779489920003  4.4558039608389999  0.9825237314640000
 -1.3019779489920000  2.1670630391610000 11.6261762685359997
 -2.2739286102960001  4.5602710415540004  1.7960009943059998
 -0.0154284139200001  1.5000053887540001  2.0591374944040002
 -0.0154284139200005  4.8391161112459997  4.2503945055959997
  0.0154284139200004  5.1228616112459999 10.5495625055960005
  0.0154284139200000  1.7837508887539999  8.3583054944040001
 -0.0509588124000001  3.1695607500000000  3.1547660000000000
  0.0509588124000001  3.4533062499999998  9.4539340000000003
 -4.6139516448959998  3.1695607500000000  3.1547660000000000
  4.6139516448959998  3.4533062499999998  9.4539340000000003
 -1.8289652697120005  5.2842162417659999  4.7444691132959997
 -1.8289652697120002  1.0549052582339999  1.5650628867040000
  1.8289652697120002  1.3386507582340001  7.8642308867040001
  1.8289652697120005  5.5679617417660001 11.0436371132959987
  1.0514407778400001  1.7957489236580000  0.5073460003720001
 -1.0514407778400001  2.0794944236580002  6.8065140003720002
 -1.0514407778399997  4.8271180763419999 12.1013539996279995
  1.0514407778399997  4.5433725763420005  5.8021859996279996
