Sc Sn Pd
 1.0000000000000000
     6.5977959999999998    0.0000000000000000    0.0000000000000000
     0.0000000000000000    6.5977959999999998    0.0000000000000000
     0.0000000000000000    0.0000000000000000    6.5977959999999998
 Sc  Sn  Pd 
   4   4   8
Cartesian
  0.0000000000000000  0.0000000000000000  3.2988979999999999
  0.0000000000000000  3.2988979999999999  0.0000000000000000
  3.2988979999999999  0.0000000000000000  0.0000000000000000
  3.2988979999999999  3.2988979999999999  3.2988979999999999
  0.0000000000000000  0.0000000000000000  0.0000000000000000
  0.0000000000000000  3.2988979999999999  3.2988979999999999
  3.2988979999999999  0.0000000000000000  3.2988979999999999
  3.2988979999999999  3.2988979999999999  0.0000000000000000
  1.6494489999999999  4.9483470000000001  4.9483470000000001
  4.9483470000000001  1.6494489999999999  1.6494489999999999
  1.6494489999999999  1.6494489999999999  1.6494489999999999
  4.9483470000000001  4.9483470000000001  4.9483470000000001
  4.9483470000000001  4.9483470000000001  1.6494489999999999
  1.6494489999999999  1.6494489999999999  4.9483470000000001
  4.9483470000000001  1.6494489999999999  4.9483470000000001
  1.6494489999999999  4.9483470000000001  1.6494489999999999
