Cr P 
 1.0000000000000000
     3.0575130000000001    0.0000000000000000    0.0000000000000000
     0.0000000000000000    5.3143110000000000    0.0000060000000000
     0.0000000000000000    0.0000060000000000    5.8870719999999999
 Cr  P  
   4   4
Cartesian
  0.7643782500000000  2.7045769644090001  1.8322129238100000
  2.2931347500000001  2.6097400355909999  4.0548650761899996
  0.7643782500000000  0.0474260440140000  1.1113320703439999
  2.2931347500000001  5.2668909559859998  4.7757459296559999
  0.7643782500000000  3.6298872734369998  5.4968691919300001
  2.2931347500000001  1.6844297265629999  0.3902088080700000
  0.7643782500000000  0.9727242545040000  3.3337381174600003
  2.2931347500000001  4.3415927454959995  2.5533398825400000
