Ti Si Tc
 1.0000000000000000
     0.0000000000000000    3.0188579999999998    3.0188579999999998
     3.0188579999999998    0.0000000000000000    3.0188579999999998
     3.0188579999999998    3.0188579999999998    0.0000000000000000
 Ti  Si  Tc 
   1   1   2
Cartesian
  4.5282930377159998  4.5282930377159998  4.5282930377159998
  1.5094289999999999  1.5094289999999999  1.5094289999999999
  0.0000000000000000  0.0000000000000000  0.0000000000000000
  3.0188579999999998  3.0188579999999998  3.0188579999999998
