Fe Co Ge
 1.0000000000000000
     3.4924430000000002    0.0000000000000000    2.0163620000000000
     1.1641480000000000    3.2927059999999999    2.0163620000000000
    -0.0000000000000000    0.0000000000000000    4.0327250000000001
 Fe  Co  Ge 
   1   2   1
Cartesian
  0.0000000000000000  0.0000000000000000  0.0000000000000000
  1.1641477500000001  0.8231765000000000  2.0163622500000002
  3.4924432500000000  2.4695295000000002  6.0490867499999998
  2.3282955000000003  1.6463530000000000  4.0327245000000005
