Sn Pd
 1.0000000000000000
     4.0452180000000002    0.0000000000000000    0.0000000000000000
     0.0000000000000000    4.0452180000000002    0.0000000000000000
     0.0000000000000000    0.0000000000000000    4.0452180000000002
 Sn  Pd 
   1   3
Cartesian
  0.0000000000000000  0.0000000000000000  0.0000000000000000
  0.0000000000000000  2.0226090000000001  2.0226090000000001
  2.0226090000000001  2.0226090000000001  0.0000000000000000
  2.0226090000000001  0.0000000000000000  2.0226090000000001
