Sr P  Br O 
 1.0000000000000000
     5.0617450000000002   -8.7672000000000008    0.0000000000000000
     5.0617450000000002    8.7672000000000008    0.0000000000000000
     0.0000000000000000    0.0000000000000000    7.2631030000000001
 Sr  P   Br  O  
  10   6   2  24
Cartesian
  8.7865110461700002 -2.2681798464000007  5.4473272499999998
  6.3575567817450001  6.4752522744000007  1.8157757500000000
  7.4906992644250003  0.0237678791999994  1.8157757500000000
  2.6327907355750000 -0.0237678792000003  5.4473272499999998
  3.7659332182549998 -6.4752522743999998  5.4473272499999998
  1.3369789538300001  2.2681798464000003  1.8157757500000000
  5.0617450000000002  2.9224058448000001  3.6216010488900001
  5.0617450000000002 -2.9224058448000001  7.2531525488900002
  5.0617450000000002 -2.9224058448000001  3.6415019511100000
  5.0617450000000002  2.9224058448000001  0.0099504511100000
  3.9531722275500001 -0.3095172288000001  1.8157757500000000
  2.2446358819949999  3.2687891496000003  5.4473272499999998
  6.1703177724499998  0.3095172288000000  5.4473272499999998
  7.8788541180050000 -3.2687891495999999  1.8157757500000000
  3.3532086544449999 -5.1888936216000001  1.8157757500000000
  6.7702813455550004  5.1888936216000001  5.4473272499999998
  0.0000000000000000  0.0000000000000000  3.6315515000000000
  0.0000000000000000  0.0000000000000000  0.0000000000000000
  3.1728080626450001 -0.7760988456000000  3.0780667358849998
  2.2585253102750000  2.3596831128000000  6.7096182358850003
  5.9760277523700003  5.6314180415999999  6.7096182358850003
  4.1474622476300000 -5.6314180416000008  3.0780667358849998
  7.8649646897250003 -2.3596831128000004  3.0780667358849998
  6.9506819373550002  0.7760988456000000  6.7096182358850003
  6.9506819373550002  0.7760988456000000  4.1850362641149994
  7.8649646897250003 -2.3596831128000004  0.5534847641149999
  4.1474622476300000 -5.6314180416000008  0.5534847641149999
  5.9760277523700003  5.6314180415999999  4.1850362641149994
  2.2585253102750000  2.3596831128000000  4.1850362641149994
  3.1728080626450001 -0.7760988456000000  0.5534847641149999
  4.8044008224550003  1.0788477960000002  5.4473272499999998
  6.5296358647649999 -4.0670427095999999  1.8157757500000000
  3.3365099576900001 -3.6213094944000006  1.8157757500000000
  6.7869800423099997  3.6213094944000006  5.4473272499999998
  3.5938541352350004  4.0670427096000008  5.4473272499999998
  5.3190891775450000 -1.0788477960000002  1.8157757500000000
  4.1801965525450004  1.2333784632000002  1.8157757500000000
  6.0837113155000004 -4.5303629279999997  5.4473272499999998
  3.1582302370450002 -3.0034761431999999  5.4473272499999998
  6.9652597629550002  3.0034761432000003  1.8157757500000000
  4.0397786844999999  4.5303629280000006  1.8157757500000000
  5.9432934474549999 -1.2333784632000002  5.4473272499999998
