Sr Si
 1.0000000000000000
     4.0558240000000003    0.0000000000000000    0.0000000000000000
     0.0000000000000000    4.4429850000000002   -1.8913160000000000
     0.0000000000000000   -0.0048010000000000    6.1530019999999999
 Sr  Si 
   2   2
Cartesian
  1.0139560000000001  2.8364514893130006  0.4989737871679999
  3.0418680000000000  1.6017325106870002  3.7627122128320001
  1.0139560000000001  4.1557553455870009  3.5982059949559999
  3.0418680000000000  0.2824286544130000  0.6634800050440000
