Rb Mg F 
 1.0000000000000000
     3.8927849999999999    0.0000000000000000   -1.0981930000000000
    -0.3098110000000000    3.8804370000000001   -1.0981930000000000
     0.0021630000000000    0.0023430000000000    7.4561789999999997
 Rb  Mg  F  
   2   1   4
Cartesian
  2.3266081304630002  2.5197661853760005  0.7986687153909999
  1.2585288695370001  1.3630138146240001  4.4611242846089993
  0.0000000000000000  0.0000000000000000  0.0000000000000000
  1.9463925000000000  0.0000000000000000 -0.5490965000000000
 -0.1549055000000000  1.9402185000000001 -0.5490965000000000
  3.0649139329260002  3.3193672374720000  3.4157630848619998
  0.5202230670740000  0.5634127625280001  1.8440299151380000
