Li Y  Ru
 1.0000000000000000
     0.0000000000000000    3.4772249999999998    3.4772249999999998
     3.4772249999999998    0.0000000000000000    3.4772249999999998
     3.4772249999999998    3.4772249999999998    0.0000000000000000
 Li  Y   Ru 
   1   2   1
Cartesian
  1.7386124999999999  1.7386124999999999  1.7386124999999999
  0.0000000000000000  0.0000000000000000  0.0000000000000000
  3.4772249999999998  3.4772249999999998  3.4772249999999998
  5.2158374999999992  5.2158374999999992  5.2158374999999992
