Cd Sn Sb
 1.0000000000000000
     6.6445040000000004    0.0000000000000000    0.0000000000000000
     0.0000000000000000    6.6445040000000004    0.0000000000000000
     0.0000000000000000    0.0000000000000000   13.1412080000000007
 Cd  Sn  Sb 
   4   4   8
Cartesian
  0.0000000000000000  3.3222520000000002  9.8559060000000009
  0.0000000000000000  0.0000000000000000  6.5706040000000003
  3.3222520000000002  0.0000000000000000  3.2853020000000002
  3.3222520000000002  3.3222520000000002  0.0000000000000000
  3.3222520000000002  0.0000000000000000  9.8559060000000009
  3.3222520000000002  3.3222520000000002  6.5706040000000003
  0.0000000000000000  3.3222520000000002  3.2853020000000002
  0.0000000000000000  0.0000000000000000  0.0000000000000000
  4.9833780000000001  4.9709727110320010 11.4985569999999999
  1.6487207110320001  4.9833780000000001  8.2132550000000002
  4.9957832889680001  1.6611260000000001  8.2132550000000002
  1.6611260000000001  1.6735312889680001 11.4985569999999999
  1.6611260000000001  1.6487207110320001  4.9279530000000005
  4.9709727110320010  1.6611260000000001  1.6426510000000001
  1.6735312889680001  4.9833780000000001  1.6426510000000001
  4.9833780000000001  4.9957832889680001  4.9279530000000005
