Pr In Au
 1.0000000000000000
     4.3645090000000000    0.0000000000000000    2.5198510000000001
     1.4548369999999999    4.1148980000000002    2.5198510000000001
     0.0000000000000000    0.0000000000000000    5.0397010000000000
 Pr  In  Au 
   1   1   2
Cartesian
  2.9096729999999997  2.0574490000000001  5.0397014999999996
  0.0000000000000000  0.0000000000000000  0.0000000000000000
  1.4548364999999999  1.0287245000000000  2.5198507499999998
  4.3645094999999996  3.0861735000000001  7.5595522500000003
