Cd Au
 1.0000000000000000
     3.2349869999999998    0.0000000000000000    0.0000000000000000
     0.0000000000000000    4.8541200000000000    0.0000000000000000
     0.0000000000000000    0.0000000000000000    4.9879069999999999
 Cd  Au 
   2   2
Cartesian
  0.0000000000000000  3.6405900000000000  3.5004433019020000
  0.0000000000000000  1.2135300000000000  1.4874636980979998
  1.6174934999999999  3.6405900000000000  0.9781185868860000
  1.6174934999999999  1.2135300000000000  4.0097884131140002
