Eu Si Pd
 1.0000000000000000
     3.9400149999999998    0.0000000000000000   -1.5577289999999999
    -0.6158660000000000    3.8915850000000001   -1.5577289999999999
     0.0185130000000000    0.0216730000000000    5.8084980000000002
 Eu  Si  Pd 
   1   2   2
Cartesian
  0.0000000000000000  0.0000000000000000  0.0000000000000000
  2.0706185618739998  2.4240754498419999 -0.5243956761719999
  1.2720434381259997  1.4891825501580003  3.2174356761720002
  2.8103012500000002  0.9837327500000000  1.3465200000000002
  0.5323607499999999  2.9295252500000002  1.3465200000000002
