Li Ca
 1.0000000000000000
     8.7368489999999994    0.0000000000000000    0.0000000000000000
     0.0000000000000000    8.7368489999999994    0.0000000000000000
     0.0000000000000000    0.0000000000000000    8.7368489999999994
 Li  Ca 
  16   8
Cartesian
  4.3684244999999997  2.1842122499999999  2.1842122499999999
  4.3684244999999997  0.0000000000000000  0.0000000000000000
  6.5526367499999996  0.0000000000000000  2.1842122499999999
  2.1842122499999999  2.1842122499999999  4.3684244999999997
  4.3684244999999997  6.5526367499999996  6.5526367499999996
  4.3684244999999997  4.3684244999999997  4.3684244999999997
  6.5526367499999996  4.3684244999999997  6.5526367499999996
  2.1842122499999999  6.5526367499999996  0.0000000000000000
  0.0000000000000000  2.1842122499999999  6.5526367499999996
  0.0000000000000000  0.0000000000000000  4.3684244999999997
  2.1842122499999999  0.0000000000000000  6.5526367499999996
  6.5526367499999996  2.1842122499999999  0.0000000000000000
  0.0000000000000000  6.5526367499999996  2.1842122499999999
  0.0000000000000000  4.3684244999999997  0.0000000000000000
  2.1842122499999999  4.3684244999999997  2.1842122499999999
  6.5526367499999996  6.5526367499999996  4.3684244999999997
  1.0921061249999999  1.0921061249999999  1.0921061249999999
  3.2763183749999998  7.6447428749999995  3.2763183749999998
  1.0921061249999999  5.4605306249999996  5.4605306249999996
  3.2763183749999998  3.2763183749999998  7.6447428749999995
  5.4605306249999996  1.0921061249999999  5.4605306249999996
  7.6447428749999995  7.6447428749999995  7.6447428749999995
  5.4605306249999996  5.4605306249999996  1.0921061249999999
  7.6447428749999995  3.2763183749999998  3.2763183749999998
