Cu Te O 
 1.0000000000000000
     3.0312139999999999    0.0000000000000000    0.0000000000000000
     0.0000000000000000    5.1061940000000003   -0.4605100000000000
     0.0000000000000000    1.6756899999999999    4.8450569999999997
 Cu  Te  O  
   1   1   4
Cartesian
  0.0000000000000000  0.0000000000000000  0.0000000000000000
  1.5156069999999999  3.3909419999999999  2.1922734999999998
  0.0000000000000000  4.4894157771160002  2.9091873345070001
  1.5156069999999999  4.4576718965740003  0.5587487042970000
  0.0000000000000000  2.2924682228840001  1.4753596654929999
  1.5156069999999999  2.3242121034259999  3.8257982957029997
