Pr Cu Ge
 1.0000000000000000
     3.8954540000000000    0.0000000000000000   -1.4679270000000000
    -0.5531610000000000    3.8559790000000000   -1.4679270000000000
    -0.0108380000000000   -0.0125030000000000    5.8739070000000000
 Pr  Cu  Ge 
   1   2   2
Cartesian
  0.0000000000000000  0.0000000000000000  0.0000000000000000
  2.7778812500000001  0.9577432500000000  1.4690265000000000
  0.5535737500000001  2.8857327500000003  1.4690265000000000
  2.0844902520880000  2.4048613445910001 -0.3710259692129999
  1.2469647479120001  1.4386146554090000  3.3090789692130000
