Sr S 
 1.0000000000000000
     3.7036490000000000    0.0000000000000000    2.1383030000000001
     1.2345489999999999    3.4918339999999999    2.1383030000000001
     0.0000000000000000    0.0000000000000000    4.2766050000000000
 Sr  S  
   1   1
Cartesian
  0.0000000000000000  0.0000000000000000  0.0000000000000000
  2.4690989999999999  1.7459169999999999  4.2766055000000005
