Fe Cl
 1.0000000000000000
     1.7844390000000001   -3.0415830000000001    0.0189820000000000
     1.7890050000000000    3.0442950000000000   -0.0164120000000000
     0.0044820000000000   -0.0361560000000000    6.1142149999999997
 Fe  Cl 
   1   2
Cartesian
  0.0000178717020000 -0.0000000225960000  0.0000061270650000
  1.7889297506040001 -1.0341887453100003  4.7374741239910003
  1.7889783821760001  1.0007447317500000  1.3793108631590001
