Nb Zn N 
 1.0000000000000000
     5.6911329999999998   -0.0435050000000000    0.0000000000000000
    -2.8819990000000000    4.9932160000000003    0.0000000000000000
     0.0000000000000000    0.0000000000000000    5.3893190000000004
 Nb  Zn  N  
   2   4   6
Cartesian
 -1.9340086589350001  3.3507724950400002  2.6249540480540001
 -0.9479903410649999  1.6424435049599999  5.3196135480540008
  0.9880118389509999  1.6496266110220001  2.6754789136790005
  0.8864985313459995  4.9193693581300009  2.6754789136790005
  1.8211221610489998  3.3000843889780000  5.3701384136790002
  1.9226354686539999  0.0303416418700000  5.3701384136790002
  0.8807159154120001  1.6311685629590003  4.7110516465740000
  3.8381545479449999  0.0098228071530000  4.7110516465740000
  1.9284180845879997  3.3185424370410006  2.0163921465740002
 -1.0290205479449996  4.9398881928470004  2.0163921465740002
 -1.8964418019700000  3.2856859244800001  4.6335424607159998
 -0.9855571980300000  1.7075300755200000  1.9388829607160001
