Ac Mg
 1.0000000000000000
     2.9034599999999999    0.0000000000000000    2.9296620000000000
     0.0000000000000000    4.1345359999999998    0.0000000000000000
    -0.0317740000000000    0.0000000000000000    5.8315929999999998
 Ac  Mg 
   1   1
Cartesian
  1.4201586649519997  0.0000000000000000  7.2710160543399995
  1.4359148065820000  2.0672721345360001  4.3545891044829999
