Ba Cu As
 1.0000000000000000
     3.9251190000000000   -0.0000000000000000   -1.5853379999999999
    -0.6403100000000000    3.8725410000000000   -1.5853379999999999
     0.3561020000000000    0.4198180000000000    6.5334219999999998
 Ba  Cu  As 
   1   2   2
Cartesian
  0.0000000000000000  0.0000000000000000  0.0000000000000000
  2.9618127500000000  1.1780442500000001  1.6813730000000000
  0.6790982499999999  3.1143147500000001  1.6813730000000000
  2.2145369408200004  2.6107715157800002 -0.1688005124800003
  1.4263740591800000  1.6815874842200000  3.5315465124800003
