Fe Si
 1.0000000000000000
     5.5722589999999999    0.0000000000000000    0.0000000000000000
     0.0000000000000000    5.5722589999999999    0.0000000000000000
     0.0000000000000000    0.0000000000000000    5.5722589999999999
 Fe  Si 
  11   5
Cartesian
  1.4086392139049999  4.1636197860949995  4.1636197860949995
  4.1636197860949995  1.4086392139049999  4.1636197860949995
  4.1636197860949995  4.1636197860949995  4.1636197860949995
  2.7861294999999999  0.0000000000000000  0.0000000000000000
  0.0000000000000000  0.0000000000000000  2.7861294999999999
  0.0000000000000000  2.7861294999999999  0.0000000000000000
  4.1636197860949995  4.1636197860949995  1.4086392139049999
  4.1636197860949995  1.4086392139049999  1.4086392139049999
  1.4086392139049999  1.4086392139049999  4.1636197860949995
  1.4086392139049999  4.1636197860949995  1.4086392139049999
  1.4086392139049999  1.4086392139049999  1.4086392139049999
  2.7861294999999999  2.7861294999999999  2.7861294999999999
  0.0000000000000000  2.7861294999999999  2.7861294999999999
  2.7861294999999999  0.0000000000000000  2.7861294999999999
  2.7861294999999999  2.7861294999999999  0.0000000000000000
  0.0000000000000000  0.0000000000000000  0.0000000000000000
