Sr Tl Hg
 1.0000000000000000
     0.0000000000000000    3.8193690000000000    3.8193690000000000
     3.8193690000000000    0.0000000000000000    3.8193690000000000
     3.8193690000000000    3.8193690000000000    0.0000000000000000
 Sr  Tl  Hg 
   1   1   2
Cartesian
  1.9096845000000000  1.9096845000000000  1.9096845000000000
  5.7290458612619997  5.7290458612619997  5.7290458612619997
  0.0000000000000000  0.0000000000000000  0.0000000000000000
  3.8193690000000000  3.8193690000000000  3.8193690000000000
