Ce Ga Co
 1.0000000000000000
     2.1981050000000000    5.5166320000000004    0.3141350000000000
    -2.1981050000000000    5.5166320000000004    0.3141350000000000
     0.0000000000000000    1.1241159999999999    4.5289760000000001
 Ce  Ga  Co 
   2   2   2
Cartesian
 -0.0000000000000000  2.1739881918439998  3.0686037057220004
 -0.0000000000000000  9.9833918081560018  2.0886422942780003
  0.0000000000000000  5.5037724744120000  4.0051922150700001
 -0.0000000000000000  6.6536075255880007  1.1520537849300001
  0.0000000000000000  2.2659338895480006  0.8646549953700001
  0.0000000000000001  9.8914461104519997  4.2925910046300002
