Nd Si
 1.0000000000000000
     7.9015880000000003    0.0000010000000000    0.0000000000000000
     0.0000010000000000    7.9015870000000001    0.0000000000000000
     0.0000000000000000    0.0000000000000000   15.1550700000000003
 Nd  Si 
  20  16
Cartesian
  3.8036984104810001  2.9448350388270002  1.8951415034999999
  7.7545079682790004  1.0059599239430002  9.4711609965000001
  6.8956289487470004  0.1470889146940000 13.2614440034999994
  1.0059600512530000  7.7544990853059996  5.6839090035000002
  4.0978905895189994  4.9567529611729997  9.4726765035000007
  2.9448354115169999  3.8037058306840001 13.2599133414299999
  4.9567535884830001  4.0978821693160006  5.6823783414299998
  0.1470810317210000  6.8956280760570001  1.8936259965000002
  4.9158949479620011  7.8197429839940007  6.7898653918199994
  2.9856940520379998  0.0818450160060000 14.3674003918200004
  7.8197597768120000  4.9158943258240004  8.3652046081799991
  3.8689502293560003  6.9364876534619997  3.0010978918200002
  4.0326387706440006  0.9651003465380000 10.5786328918199999
  6.9364885313239997  3.8689655428880001 12.1539721081799996
  0.9651004686760001  4.0326224571120006  4.5764371081800004
  0.0818292231880000  2.9856936741759998  0.7876696081800000
  2.4421362106390001  2.4421200983980000  7.5775350000000001
  1.5086826122590000  6.3929134802630001 11.3663176550700005
  6.3929063877410002  1.5086745197370000  3.7887826550699994
  5.4594527893609994  5.4594679016020002  0.0000000000000000
  2.2779339237200000  7.2882344989999996  8.4736239789599992
  5.6236550762800004  0.6133535010000000  0.8960889789600001
  7.2882354213750000  2.2779257338450001  6.6814611761100000
  3.3374413447989997  1.6728533077330001  4.6848413238899997
  4.5641476552010003  6.2287346922670004 12.2623763238900008
  1.6728693226190003  3.3374330208380001 10.4702135210400016
  6.2287196773810001  4.5641549791620006  2.8926785210400001
  0.6133535786250000  5.6236622661550006 14.2589961761099993
  6.3501594359210003  6.5598430199469995 10.6249922509499992
  1.5514295640789999  1.3417449800530001  3.0474572509500004
  6.5598438501400000  6.3501586322650008  4.5300777490500002
  2.6090576444169997  5.5022309297090004  6.8362247509500005
  5.2925313555829998  2.3993570702910003 14.4137597509499997
  5.5022237244649999  2.6090494126350001  8.3188300939800008
  2.3993652755350001  5.2925385873650006  0.7412950939800000
  1.3417451498600002  1.5514293677350000 12.1076127490500003
