Hf P 
 1.0000000000000000
     3.5849600000000001    0.0000000000000000    0.0000000000000000
     0.0000000000000000   12.2196259999999999    0.0000000000000000
     0.0000000000000000    0.0000000000000000   15.0080390000000001
 Hf  P  
  24  12
Cartesian
  0.0000000000000000 10.8022960195119992 13.7376685308059994
  0.0000000000000000  1.4173299804880000  1.2703704691940001
  1.7924800000000001  4.6924830195120002  8.7743899691940008
  1.7924800000000001  7.5271429804879997  6.2336490308060002
  0.0000000000000000  9.9347514520160001 10.6459974887669997
  0.0000000000000000  2.2848745479840002  4.3620415112329995
  1.7924800000000001  3.8249384520160001 11.8660610112330005
  1.7924800000000001  8.3946875479840006  3.1419779887670001
  0.0000000000000000  5.7959763454419999 13.4143053225120017
  0.0000000000000000  6.4236496545580000  1.5937336774880000
  1.7924800000000001 11.9057893454419990  9.0977531774879985
  1.7924800000000001  0.3138366545580000  5.9102858225119999
  0.0000000000000000  1.1948105910280000 11.3133749670189996
  0.0000000000000000 11.0248154089719996  3.6946640329810001
  1.7924800000000001  7.3046235910280002 11.1986835329810006
  1.7924800000000001  4.9150024089720006  3.8093554670190004
  0.0000000000000000  1.9538937581480000  7.8344364866240008
  0.0000000000000000 10.2657322418519996  7.1735875053370002
  1.7924800000000001  8.0637067581479993 14.6776220133760003
  1.7924800000000001  4.1559192418520006  0.3304169866240000
  0.0000000000000000  7.1895880318640000  8.6476170637610004
  0.0000000000000000  5.0300379681359999  6.3604219362389998
  1.7924800000000001  1.0797750318640000 13.8644414362389998
  1.7924800000000001 11.1398509681360007  1.1435975637610001
  0.0000000000000000  8.4063206319359995 12.7621459958060015
  0.0000000000000000  3.8133053680639999  2.2458779961549999
  1.7924800000000001  2.2965076319360000  9.7499125041939987
  1.7924800000000001  9.9231183680639994  5.2581264958059997
  0.0000000000000000  5.4213103926560002 10.6847782615430003
  0.0000000000000000  6.7983156073439996  4.3232607384569999
  1.7924800000000001 11.5311233926560011 11.8272802384569999
  1.7924800000000001  0.6885026073439999  3.1807737695819998
  0.0000000000000000  2.9944926690560001 13.6373698061689996
  0.0000000000000000  9.2251333309439989  1.3706691938309998
  1.7924800000000001  9.1043056690560000  8.8746886938310006
  1.7924800000000001  3.1153203309439998  6.1333503061690005
