Pm Si Ag
 1.0000000000000000
    -0.0000010000000000    3.6513330000000002    3.6513330000000002
     3.6513320000000000   -0.0000020000000000    3.6513330000000002
     3.6513309999999999    3.6513320000000000   -0.0000000000000000
 Pm  Si  Ag 
   2   1   1
Cartesian
  0.0000000000000000  0.0000000000000000  0.0000000000000000
  3.6513383026620003  3.6513388026630005  3.6513403026660005
  5.4769965000000003  5.4769972500000002  5.4769994999999998
  1.8256581973379999  1.8256584473370001  1.8256591973340002
