Ti Be
 1.0000000000000000
     4.2352509999999999    0.0000000000000000    0.0000000000000000
    -2.1176249999999999    3.6678350000000002    0.0000000000000000
     0.0000000000000000    0.0000000000000000    7.3205229999999997
 Ti  Be 
   1  12
Cartesian
  0.0000000000000000  0.0000000000000000  0.0000000000000000
 -0.0000017842920000  2.4452245559450003  0.0000000000000000
  2.1176277842919999  1.2226104440550001  0.0000000000000000
 -0.0000017842920000  2.4452245559450003  3.6602614999999998
  2.1176277842919999  1.2226104440550001  3.6602614999999998
  0.0000000000000000  0.0000000000000000  4.7822707396870001
  0.0000000000000000  0.0000000000000000  2.5382522603130000
  1.0588130000000000  1.8339175000000001  5.5591026788779994
  2.1176254999999999  0.0000000000000000  5.5591026788779994
 -1.0588124999999999  1.8339175000000001  5.5591026788779994
  1.0588130000000000  1.8339175000000001  1.7614203211219999
  2.1176254999999999  0.0000000000000000  1.7614203211219999
 -1.0588124999999999  1.8339175000000001  1.7614203211219999
