La Ir
 1.0000000000000000
     4.7210789999999996    0.0000000000000000    2.7257169999999999
     1.5736930000000000    4.4510769999999997    2.7257169999999999
     0.0000000000000000    0.0000000000000000    5.4514339999999999
 La  Ir 
   2   4
Cartesian
  5.5079254999999989  3.8946923750000000  9.5400095000000000
  0.7868465000000000  0.5563846250000000  1.3628585000000000
  3.1473860000000000  2.2255384999999999  5.4514339999999999
  3.1473860000000000  2.2255384999999999  2.7257169999999999
  0.7868465000000000  2.2255384999999999  4.0885755000000001
  2.3605394999999998  0.0000000000000000  4.0885755000000001
