Zr Tl
 1.0000000000000000
     4.4739000000000004    0.0000000000000000    0.0000000000000000
     0.0000000000000000    4.4739000000000004    0.0000000000000000
     0.0000000000000000    0.0000000000000000    4.4739000000000004
 Zr  Tl 
   3   1
Cartesian
  0.0000000000000000  2.2369455261000004  2.2369455261000004
  2.2369455261000004  0.0000000000000000  2.2369455261000004
  2.2369455261000004  2.2369455261000004  0.0000000000000000
  0.0000000000000000  0.0000000000000000  0.0000000000000000
