Ca Cd Pb
 1.0000000000000000
     0.0000000000000000    3.8716979999999999    3.8716979999999999
     3.8716979999999999    0.0000000000000000    3.8716979999999999
     3.8716979999999999    3.8716979999999999    0.0000000000000000
 Ca  Cd  Pb 
   2   1   1
Cartesian
  1.9358489999999999  1.9358489999999999  1.9358489999999999
  5.8075469999999996  5.8075469999999996  5.8075469999999996
  3.8716979999999999  3.8716979999999999  3.8716979999999999
  0.0000000000000000  0.0000000000000000  0.0000000000000000
