Co P 
 1.0000000000000000
     5.5196040000000002    0.0000000000000000    0.0000000000000000
     0.0000000000000000    5.0165439999999997   -2.2897029999999998
     0.0000000000000000    0.0201800000000000    5.5825690000000003
 Co  P  
   4   8
Cartesian
  2.7701678163120005  3.6573744435359998 -0.4828281809549998
  0.0103658163120000  1.3692595564640000  0.9844096809550001
  2.7494361836880001  1.3793495564639999  3.7756941809550000
  5.5092381836879998  3.6674644435359998  2.3084563190450007
  0.6967340933160001  4.2267066623840002 -1.1890021860950000
  3.4565360933160001  0.7999273376160000  1.6905836860950001
  4.8228699066839997  0.8100173376160000  4.4818681860950003
  2.0630679066840001  4.2367966623840001  1.6022823139050004
  3.4628229222720002  3.3305963001239993  3.0551599025700007
  0.7030209222720001  1.7162176998759999  3.0289905974300000
  2.0567810777280000  1.7061276998759998  0.2377060974300001
  4.8165830777279997  3.3205063001239994  0.2638754025700003
