Na B  H 
 1.0000000000000000
     4.2763239999999998    0.0000000000000000    0.0000000000000000
     0.0000000000000000    4.2763239999999998    0.0000000000000000
     0.0000000000000000    0.0000000000000000    5.7988270000000002
 Na  B   H  
   2   2   8
Cartesian
  2.1381619999999999  2.1381619999999999  2.8994135000000001
  0.0000000000000000  0.0000000000000000  0.0000000000000000
  2.1381619999999999  2.1381619999999999  0.0000000000000000
  0.0000000000000000  0.0000000000000000  2.8994135000000001
  4.2396288637559998  0.9972943490120000  2.1993733057329998
  0.0366951362440000  3.2790296509879999  2.1993733057329998
  0.9972943490120000  0.0366951362440000  3.5994536942669999
  2.1014668637559999  1.1408676509880000  0.7000401942670000
  1.1408676509880000  2.1748571362439999  5.0987868057329999
  3.2790296509879999  4.2396288637559998  3.5994536942669999
  3.1354563490119998  2.1014668637559999  5.0987868057329999
  2.1748571362439999  3.1354563490119998  0.7000401942670000
