Zr In Co
 1.0000000000000000
     7.2052620000000003    0.0000000000000000    0.0000000000000000
     0.0000000000000000    7.2052620000000003    0.0000000000000000
     0.0000000000000000    0.0000000000000000    3.3645559999999999
 Zr  In  Co 
   4   2   4
Cartesian
  4.8455963370960005  1.2429653370960001  1.6822779999999999
  1.2429653370960001  2.3596656629040003  1.6822779999999999
  5.9622966629040004  4.8455963370960005  1.6822779999999999
  2.3596656629040003  5.9622966629040004  1.6822779999999999
  0.0000000000000000  0.0000000000000000  0.0000000000000000
  3.6026310000000001  3.6026310000000001  0.0000000000000000
  2.7581382672900001  0.8444927327100000  0.0000000000000000
  0.8444927327100000  4.4471237327100006  0.0000000000000000
  4.4471237327100006  6.3607692672900003  0.0000000000000000
  6.3607692672900003  2.7581382672900001  0.0000000000000000
