Zr Rh
 1.0000000000000000
     3.9341070000000000    0.0000000000000000    0.0000000000000000
     0.0000000000000000    3.9341070000000000    0.0000000000000000
     0.0000000000000000    0.0000000000000000    3.9341070000000000
 Zr  Rh 
   1   3
Cartesian
  0.0000000000000000  0.0000000000000000  0.0000000000000000
  1.9670535000000000  1.9670535000000000  0.0000000000000000
  1.9670535000000000  0.0000000000000000  1.9670535000000000
  0.0000000000000000  1.9670535000000000  1.9670535000000000
