Sr Hf O 
 1.0000000000000000
     5.7605350000000000    0.0000000000000000    0.0000000000000000
     0.0000000000000000    5.7770149999999996    0.0000000000000000
     0.0000000000000000    0.0000000000000000    8.1407089999999993
 Sr  Hf  O  
   4   4  12
Cartesian
  0.0300642321650000  3.0294839970449994  2.0351772499999998
  2.9103317321650000  5.6360385029549995  6.1055317499999990
  2.8502032678350000  0.1409938280900000  2.0351772499999998
  5.7304707678350004  2.7475136719099997  6.1055317499999990
  5.7605177183950005  0.0000115540300000  8.1407008592910000
  2.8802502183950001  2.8884959459699999  0.0000081407090000
  2.8802502183950001  2.8884959459699999  4.0703544999999997
  5.7605177183950005  0.0000115540300000  4.0703544999999997
  1.2633371703150000  1.6216543266199999  3.7873508923239996
  4.1436046703149998  1.2668531733799999  4.3533581076759997
  1.6169418507550002  4.5101502725899998  0.2830036076760000
  4.4972093507549999  4.1553722274100000  7.8577053923239992
  4.4972093507549999  4.1553722274100000  4.3533581076759997
  1.6169418507550002  4.5101502725899998  3.7873508923239996
  4.1436046703149998  1.2668531733799999  7.8577053923239992
  1.2633371703150000  1.6216543266199999  0.2830036076760000
  5.3783753475650000  5.6996781001949994  2.0351772499999998
  2.4981078475650000  2.9658443998049999  6.1055317499999990
  3.2624156313650001  2.8111763772099998  2.0351772499999998
  0.3821481313650000  0.0773311227900000  6.1055317499999990
