Pr Tl Cd
 1.0000000000000000
     0.0000020000000000    3.8997039999999998    3.8997069999999998
     3.8997060000000001    0.0000020000000000    3.8997080000000000
     3.8997060000000001    3.8997050000000000    0.0000010000000000
 Pr  Tl  Cd 
   2   1   1
Cartesian
  0.0000000000000000  0.0000000000000000  0.0000000000000000
  3.8997147994140002  3.8997132994110002  3.8997157994160006
  5.8495527005860000  5.8495504505889997  5.8495542005839996
  1.9498535000000001  1.9498527499999998  1.9498540000000000
