Na Hg
 1.0000000000000000
     5.1057399999999999    0.0000000000000000    0.0000000000000000
    -2.5528689999999998    4.4216990000000003    0.0000000000000000
     0.0000000000000000    0.0000000000000000    3.2599890000000000
 Na  Hg 
   1   2
Cartesian
  0.0000000000000000  0.0000000000000000  0.0000000000000000
  2.5528728862030001  1.4738981927670001  1.6299945000000000
 -0.0000018862029999  2.9478008072330004  1.6299945000000000
