Te
 1.0000000000000000
     4.5051540000000001    0.0000000000000000    0.0000000000000000
    -2.2525770000000001    3.9015780000000002    0.0000000000000000
     0.0000000000000000    0.0000000000000000    5.9611879999999999
 Te 
   3
Cartesian
 -0.6083174291580000  1.0536367452120001  1.9870606796040000
  1.2166348583160000  0.0000000000000000  3.9741273203960001
  1.6442595708420000  2.8479412547880001  0.0000000000000000
