Ca Ni Ge
 1.0000000000000000
     4.0555450000000004    0.0000000000000000    0.0000000000000000
     0.0000000000000000    4.0934109999999997   -0.9945050000000000
     0.0000000000000000   -0.0295880000000000    8.7997680000000003
 Ca  Ni  Ge 
   2   2   4
Cartesian
  1.0138862500000001  3.6245472239669998  5.9971997892709998
  3.0416587500000003  0.4392757760329999  1.8080632107290000
  3.0416587500000003  1.2965506839449998  5.3366410979970000
  1.0138862500000001  2.7672723160550001  2.4686219020030000
  3.0416587500000003  3.0551472571850002  3.6535237041010000
  1.0138862500000001  1.0086757428149999  4.1517392958990005
  1.0138862500000001  2.2199275416059998  0.2157167215420000
  3.0416587500000003  1.8438954583939999  7.5895462784580001
