Nb C 
 1.0000000000000000
     3.1099770000000002    0.0000000000000000    0.0000000000000000
     0.0000000000000000    5.0002709999999997    0.0000000000000000
     0.0000000000000000    0.0000000000000000   11.0132829999999995
 Nb  C  
   8   4
Cartesian
  2.3324827500000000  3.6746841570869999  3.2664296049699999
  0.7774942500000001  1.3255868429129998  7.7468533950299996
  0.7774942500000001  3.7713793976849996  6.0089903774789999
  2.3324827500000000  3.8257223429129996  8.7730711049700005
  0.7774942500000001  3.7290271023149999  0.5023488774790000
  2.3324827500000000  1.2288916023150001  5.0042926225209996
  2.3324827500000000  1.2712438976849998 10.5109341225210002
  0.7774942500000001  1.1745486570869998  2.2402118950299998
  0.7774942500000001  4.9537984813259994  4.1314018385069993
  2.3324827500000000  0.0464725186740000  6.8818811614929993
  0.7774942500000001  2.5466080186740001  9.6380433385069999
  2.3324827500000000  2.4536629813259996  1.3752396614929998
