Dy Mg
 1.0000000000000000
     3.7828789999999999    0.0000000000000000    0.0000000000000000
     0.0000000000000000    3.7828789999999999    0.0000000000000000
     0.0000000000000000    0.0000000000000000    3.7828789999999999
 Dy  Mg 
   1   1
Cartesian
  1.8914394999999999  1.8914394999999999  1.8914394999999999
  0.0000000000000000  0.0000000000000000  0.0000000000000000
