Tb Tl
 1.0000000000000000
     3.7784789999999999    0.0000000000000000    0.0000000000000000
     0.0000000000000000    3.7784789999999999    0.0000000000000000
     0.0000000000000000    0.0000000000000000    3.7784789999999999
 Tb  Tl 
   1   1
Cartesian
  0.0000000000000000  0.0000000000000000  0.0000000000000000
  1.8892395000000000  1.8892395000000000  1.8892395000000000
