Pm Cu Pt
 1.0000000000000000
     0.0000000000000000    3.5564640000000001    3.5564640000000001
     3.5564640000000001    0.0000000000000000    3.5564640000000001
     3.5564640000000001    3.5564640000000001    0.0000000000000000
 Pm  Cu  Pt 
   2   1   1
Cartesian
  0.0000000000000000  0.0000000000000000  0.0000000000000000
  3.5564640000000001  3.5564640000000001  3.5564640000000001
  1.7782320000000000  1.7782320000000000  1.7782320000000000
  5.3346960000000001  5.3346960000000001  5.3346960000000001
