Zr In Co
 1.0000000000000000
     3.2903229999999999    0.0000000000000000    0.0000000000000000
     0.0000000000000000    7.4924070000000000   -0.6061650000000000
     0.0000000000000000   -0.0245850000000000    9.0375049999999995
 Zr  In  Co 
   4   5   2
Cartesian
  1.6451614999999999  1.4926042382100000  3.8703834963600001
  1.6451614999999999  6.1265858010690000  0.9391029245049999
  1.6451614999999999  5.9753877761609999  4.5617920873150002
  1.6451614999999999  1.3412378215409999  7.4916406001649989
  0.0000000000000000  3.4281961813409998  5.7584334561150001
  0.0000000000000000  6.2862504497009999  7.2341953775149994
  0.0000000000000000  3.7213273286969999  8.7340665652249996
  0.0000000000000000  1.1818055850360001  1.1964751310099999
  0.0000000000000000  4.0393255077540005  2.6731567281099995
  0.0000000000000000  6.9017672866800002  2.7508416451800000
  0.0000000000000000  0.5662405238100001  5.6810344884999999
