Tc Os
 1.0000000000000000
     5.4949409999999999    0.0000000000000000    0.0000000000000000
    -2.7474690000000002    4.7587570000000001    0.0000000000000000
     0.0000000000000000    0.0000000000000000    4.3227960000000003
 Tc  Os 
   2   6
Cartesian
  0.0000009999989999  3.1725014941619998  3.2421013227960005
  2.7474764949419996  1.5862555058380001  1.0807033227959999
 -0.0000022455300002  1.5924085786390001  1.0807033227959999
  1.3683981638519997  3.9625646075730003  1.0807033227959999
 -1.3684121506080003  3.9625646075730003  1.0807033227959999
  2.7474824879400002  3.1663436626040000  3.2421013227960005
  1.3790738361509998  0.7962019099409999  3.2421013227960005
  4.1158841506110004  0.7962019099409999  3.2421013227960005
