Zn Pt O 
 1.0000000000000000
     3.1819790000000001    0.0000000000000000    0.0000000000000000
     0.0000000000000000    5.7941079999999996   -1.9736089999999999
     0.0000000000000000   -0.0053020000000000    6.1210110000000002
 Zn  Pt  O  
   1   3   6
Cartesian
  0.0000000000000000  2.8944029999999996  2.0737010000000002
  1.5909895000000001  2.8970539999999998 -0.9868045000000000
  0.0000000000000000  0.0000000000000000  0.0000000000000000
  1.5909895000000001 -0.0026510000000000  3.0605055000000001
  0.0000000000000000  5.3060646608499997  2.2381649395649998
  0.0000000000000000  0.4827413391500000  1.9092370604350000
  0.0000000000000000  3.8257478601199995  4.3043409784250004
  0.0000000000000000  1.9630581398799998 -0.1569389784249998
  1.5909895000000001  2.0299893406799998  3.2802203002399999
  1.5909895000000001  3.7588166593199994  0.8671816997600001
