Ti Be Rh
 1.0000000000000000
     0.0000080000000000    2.9439479999999998    2.9439479999999998
     2.9439519999999999    0.0000020000000000    2.9439540000000002
     2.9439530000000000    2.9439549999999999    0.0000010000000000
 Ti  Be  Rh 
   1   1   2
Cartesian
  4.4159347500079997  4.4159316939480000  4.4159301939480002
  1.4719782499999998  1.4719762500000000  1.4719757500000001
  0.0000029439530000  0.0000029439550000  0.0000000000010000
  2.9439594439520000  2.9439525000020001  2.9439544439540000
