Mg Cu Sn
 1.0000000000000000
     6.2485369999999998    0.0000000000000000    0.0000000000000000
     0.0000000000000000    6.2485369999999998    0.0000000000000000
     0.0000000000000000    0.0000000000000000    6.2485369999999998
 Mg  Cu  Sn 
   4   4   4
Cartesian
  1.5621342499999999  1.5621342499999999  1.5621342499999999
  1.5621342499999999  4.6864027500000001  4.6864027500000001
  4.6864027500000001  1.5621342499999999  4.6864027500000001
  4.6864027500000001  4.6864027500000001  1.5621342499999999
  0.0000000000000000  0.0000000000000000  0.0000000000000000
  0.0000000000000000  3.1242684999999999  3.1242684999999999
  3.1242684999999999  0.0000000000000000  3.1242684999999999
  3.1242684999999999  3.1242684999999999  0.0000000000000000
  4.6864027500000001  1.5621342499999999  1.5621342499999999
  4.6864027500000001  4.6864027500000001  4.6864027500000001
  1.5621342499999999  1.5621342499999999  4.6864027500000001
  1.5621342499999999  4.6864027500000001  1.5621342499999999
