Sr Cl
 1.0000000000000000
     4.2862970000000002   -0.0000000000000000    2.4746939999999999
     1.4287660000000000    4.0411599999999996    2.4746939999999999
    -0.0000000000000000   -0.0000000000000000    4.9493910000000003
 Sr  Cl 
   1   2
Cartesian
  0.0000000000000000  0.0000000000000000  0.0000000000000000
  4.2862972499999996  3.0308699999999997  7.4240842499999999
  1.4287657500000002  1.0102899999999999  2.4746947500000003
