Mn Sb
 1.0000000000000000
     4.0954389999999998    0.0000000000000000    0.0000000000000000
    -2.0477200000000000    3.5467540000000000    0.0000000000000000
     0.0000000000000000    0.0000000000000000    5.6028710000000004
 Mn  Sb 
   2   2
Cartesian
  0.0000000000000000  0.0000000000000000  0.0000000000000000
  0.0000000000000000  0.0000000000000000  2.8014355000000002
 -0.0000023810530002  2.3645038489179999  1.4007177500000001
  2.0477213810529999  1.1822501510820000  4.2021532500000003
