Ho Bi
 1.0000000000000000
     3.8492449999999998   -0.0000000000000000    2.2223609999999998
     1.2830820000000001    3.6291020000000001    2.2223609999999998
    -0.0000000000000000   -0.0000000000000000    4.4447239999999999
 Ho  Bi 
   1   1
Cartesian
  0.0000000000000000  0.0000000000000000  0.0000000000000000
  2.5661635000000000  1.8145510000000000  4.4447229999999998
