Tb
 1.0000000000000000
     3.6724749999999999   -0.0000000000000000    0.0000000000000000
    -1.8362380000000000    3.1804579999999998    0.0000000000000000
     0.0000000000000000    0.0000000000000000    5.6014309999999998
 Tb 
   2
Cartesian
 -0.0000021695710002  2.1203063934860000  1.4003577500000000
  1.8362391695709999  1.0601516065140000  4.2010732500000003
