Ti C 
 1.0000000000000000
     4.3358290000000004    0.0000000000000000    0.0000000000000000
     0.0000000000000000    4.3358290000000004    0.0000000000000000
     0.0000000000000000    0.0000000000000000    4.3358290000000004
 Ti  C  
   4   4
Cartesian
  0.0000000000000000  0.0000000000000000  0.0000000000000000
  0.0000000000000000  2.1679145000000002  2.1679145000000002
  2.1679145000000002  0.0000000000000000  2.1679145000000002
  2.1679145000000002  2.1679145000000002  0.0000000000000000
  2.1679145000000002  0.0000000000000000  0.0000000000000000
  2.1679145000000002  2.1679145000000002  2.1679145000000002
  0.0000000000000000  0.0000000000000000  2.1679145000000002
  0.0000000000000000  2.1679145000000002  0.0000000000000000
