Ti Co Sn
 1.0000000000000000
     6.0925909999999996    0.0000000000000000    0.0000000000000000
     0.0000000000000000    6.0925909999999996    0.0000000000000000
     0.0000000000000000    0.0000000000000000    6.0925909999999996
 Ti  Co  Sn 
   4   8   4
Cartesian
  0.0000000000000000  0.0000000000000000  3.0462954999999998
  0.0000000000000000  3.0462954999999998  0.0000000000000000
  3.0462954999999998  0.0000000000000000  0.0000000000000000
  3.0462954999999998  3.0462954999999998  3.0462954999999998
  1.5231477499999999  4.5694432500000000  4.5694432500000000
  4.5694432500000000  1.5231477499999999  1.5231477499999999
  1.5231477499999999  1.5231477499999999  1.5231477499999999
  4.5694432500000000  4.5694432500000000  4.5694432500000000
  4.5694432500000000  4.5694432500000000  1.5231477499999999
  1.5231477499999999  1.5231477499999999  4.5694432500000000
  4.5694432500000000  1.5231477499999999  4.5694432500000000
  1.5231477499999999  4.5694432500000000  1.5231477499999999
  0.0000000000000000  0.0000000000000000  0.0000000000000000
  0.0000000000000000  3.0462954999999998  3.0462954999999998
  3.0462954999999998  0.0000000000000000  3.0462954999999998
  3.0462954999999998  3.0462954999999998  0.0000000000000000
