Li Hg
 1.0000000000000000
    -2.1024409999999998    2.1024409999999998    3.8407689999999999
     2.1024409999999998   -2.1024409999999998    3.8407689999999999
     2.1024409999999998    2.1024409999999998   -3.8407689999999999
 Li  Hg 
   3   1
Cartesian
  0.0000000000000000  2.1024409999999998  1.9203844999999999
  2.1024409999999998  0.0000000000000000  1.9203844999999999
  0.0000000000000001 -0.0000000000000001  3.8407766815380002
  0.0000000000000000  0.0000000000000000  0.0000000000000000
