Mg S  O 
 1.0000000000000000
     4.7138710000000001    0.0018860000000000    0.0000000000000000
    -1.8724680000000000    4.3260199999999998    0.0000000000000000
     0.0000000000000000    0.0000000000000000    6.4474499999999999
 Mg  S   O  
   2   2   8
Cartesian
  0.0000000000000000  0.0000000000000000  0.0000000000000000
  0.0000000000000000  0.0000000000000000  3.2237250000000000
  0.4391130534740000  2.8083959865560000  4.8355874999999999
  2.4022899465259999  1.5195100134439998  1.6118625000000000
  0.5048558246679999  1.3150552191920000  4.8355874999999999
  2.3365471753320004  3.0128507808079998  1.6118625000000000
  1.0059181504319998  0.9860924010079999  1.6118625000000000
  1.8354848495679998  3.3418135989919997  4.8355874999999999
 -0.2307768998770001  3.2481993315620001  6.0445488494999999
  3.0721798998770002  1.0797066684379999  2.8208302969499996
  3.0721798998770002  1.0797066684379999  0.4028947030500000
 -0.2307768998770001  3.2481993315620001  3.6266261505000004
