Cs Pb I 
 1.0000000000000000
     4.8471419999999998    0.0000000000000000    0.0000000000000000
     0.0000000000000000   10.6504469999999998    0.0000000000000000
     0.0000000000000000    0.0000000000000000   18.0311990000000009
 Cs  Pb  I  
   4   4  12
Cartesian
  3.6353564999999999  6.1908492303719997  3.1035299718800000
  1.2117855000000000  4.4595977696280000 14.9276690281200004
  3.6353564999999999  0.8656257303720000  5.9120695281200000
  1.2117855000000000  9.7848212696279990 12.1191294718800009
  1.2117855000000000  7.0489876965030005  7.9196091311830008
  3.6353564999999999  3.6014593034969997 10.1115898688170009
  1.2117855000000000  1.7237641965029999  1.0959903688170001
  3.6353564999999999  8.9266828034970001 16.9352086311829986
  3.6353564999999999  8.9166713833170004  9.0524733019550006
  1.2117855000000000  1.7337756166829998  8.9787256980450003
  3.6353564999999999  3.5914478833169996 17.9943251980450007
  1.2117855000000000  7.0589991166829993  0.0368738019550000
  1.2117855000000000  5.6369833845839992 11.0406473972920001
  3.6353564999999999  5.0134636154159997  6.9905516027079999
  1.2117855000000000  0.3117598845840000 16.0061511027080030
  3.6353564999999999 10.3386871154160005  2.0250478972920001
  1.2117855000000000  8.4811320036990008  5.1804716598940006
  3.6353564999999999  2.1693149963009999 12.8507273401060012
  1.2117855000000000  3.1559085036990000  3.8351278401060003
  3.6353564999999999  7.4945384963009989 14.1960711598940001
