Sr Zn
 1.0000000000000000
     4.3503030000000003    0.0000000000000000    1.8829080000000000
     2.1813460000000000    5.4413049999999998    0.9271400000000000
     0.0138280000000000   -0.0330190000000000    5.9350129999999996
 Sr  Zn 
   2   4
Cartesian
  5.8745325972410001  4.3619104607060004  4.3282614593949997
  0.6709444027590000  1.0463755392940000  4.4167995406049991
  1.9719597469380001  1.2619172531870000  1.4109291300539999
  4.5735172530619996  4.1463687468129997  7.3341318699459999
  2.7708475939120003  3.2116600857190001  5.5321255845649997
  3.7746294060880001  2.1966259142809998  3.2129354154350001
