Ba Hg
 1.0000000000000000
     4.0855910000000000    0.0000000000000000   -1.0888020000000000
    -0.2901640000000000    4.0752740000000003   -1.0888020000000000
     0.0085600000000000    0.0091900000000000    8.2418410000000009
 Ba  Hg 
   2   1
Cartesian
  1.4173715354550001  1.5218772793100002  5.3184990876700011
  2.3866154645450002  2.5625867206900002  0.7457379123300000
  0.0000000000000000  0.0000000000000000  0.0000000000000000
