Nd In
 1.0000000000000000
     4.6986140000000001    0.0000000000000000    0.0000000000000000
     0.0000000000000000    4.6986140000000001    0.0000000000000000
     0.0000000000000000    0.0000000000000000    4.6986140000000001
 Nd  In 
   1   3
Cartesian
  0.0000000000000000  0.0000000000000000  0.0000000000000000
  2.3493070000000000  0.0000000000000000  2.3493070000000000
  0.0000000000000000  2.3493070000000000  2.3493070000000000
  2.3493070000000000  2.3493070000000000  0.0000000000000000
