Sr Li N 
 1.0000000000000000
     3.7716449999999999    0.0011740000000000   -0.5288300000000000
    -0.0726920000000000    3.7709450000000002   -0.5288300000000000
    -0.0113240000000000   -0.0115490000000000   13.6846040000000002
 Sr  Li  N  
   2   8   4
Cartesian
  2.2891431364469996  3.2877622410990002  9.4702079999999995
  1.3984743305420000  0.4728190682140000  3.1567360000000000
  2.6725882208480001  3.6672295927720007 12.2087516793859994
  1.7703747595199999  0.8636146187370000  5.8952375679140001
  0.1794253204830000  1.1338223384560000  8.1080538837960017
  2.9852301805849999  2.0934184012270003  0.7368687318700000
  3.5082150218479997  2.6267438479250003  4.5189437969600004
  1.0150407451800001  0.0933403725810000  0.4182333744260000
  1.9172617450499998  2.8969591892030002  6.7316637917840003
  0.7023990827870000  1.6671403321339999 11.8900221162039994
  0.6514208401310000  3.5394906630060006 11.5338189290599988
  1.6095665086499999  2.6112968711279998  4.6915111119299997
  3.0361858934590003  0.2210604752250000  1.0931308880699999
  2.0780809134229998  1.1492957604120000  7.9354270709400012
