Nd Ir
 1.0000000000000000
     4.6894060000000000   -0.0000000000000000    2.7074289999999999
     1.5631340000000000    4.4212140000000000    2.7074289999999999
     0.0000000000000000    0.0000000000000000    5.4148589999999999
 Nd  Ir 
   2   4
Cartesian
  0.7815675000000000  0.5526517500000000  1.3537146249999998
  5.4709725000000002  3.8685622500000001  9.4760023750000002
  0.7815670000000000  2.2106070000000000  4.0611439999999996
  2.3447030000000000  0.0000000000000000  4.0611439999999996
  3.1262699999999999  2.2106070000000000  2.7074289999999999
  3.1262699999999999  2.2106070000000000  5.4148584999999994
