Co
 1.0000000000000000
     3.5219179999999999    0.0000000000000000    0.0000000000000000
     0.0000000000000000    3.5219179999999999    0.0000000000000000
     0.0000000000000000    0.0000000000000000    3.5219179999999999
 Co 
   4
Cartesian
  0.0000000000000000  0.0000000000000000  0.0000000000000000
  0.0000000000000000  1.7609589999999999  1.7609589999999999
  1.7609589999999999  0.0000000000000000  1.7609589999999999
  1.7609589999999999  1.7609589999999999  0.0000000000000000
