Na Nb O 
 1.0000000000000000
     2.9750809999999999    0.0000000000000000    0.0000000000000000
    -1.4875400000000001    2.5764969999999998    0.0000000000000000
     0.0000000000000000    0.0000000000000000   11.5154730000000001
 Na  Nb  O  
   2   2   4
Cartesian
  0.0000000000000000  0.0000000000000000  0.0000000000000000
  0.0000000000000000  0.0000000000000000  5.7577365000000000
 -0.0000011542070001  1.7176655254989999  8.6366047500000001
  1.4875421542070000  0.8588314745009999  2.8788682500000000
 -0.0000011542070001  1.7176655254989999  4.1980923523530000
  1.4875421542070000  0.8588314745009999  9.9558288523530010
 -0.0000011542070001  1.7176655254989999  1.5596441476470000
  1.4875421542070000  0.8588314745009999  7.3173806476470000
