Zr Ge S 
 1.0000000000000000
     3.6386859999999999    0.0000000000000000    0.0000000000000000
     0.0000000000000000    3.6386859999999999    0.0000000000000000
     0.0000000000000000    0.0000000000000000    8.0725529999999992
 Zr  Ge  S  
   2   2   2
Cartesian
  2.7290144999999999  2.7290144999999999  5.8541670002819997
  0.9096715000000000  0.9096715000000000  2.2183859997179995
  0.9096715000000000  2.7290144999999999  0.0000000000000000
  2.7290144999999999  0.9096715000000000  0.0000000000000000
  2.7290144999999999  2.7290144999999999  3.0559618087859999
  0.9096715000000000  0.9096715000000000  5.0165911912140002
