Tm Fe Si C 
 1.0000000000000000
     1.9453309999999999    5.2349350000000001    0.0000000000000000
    -1.9453309999999999    5.2349350000000001    0.0000000000000000
     0.0000000000000000    4.2138239999999998    5.1343790000000000
 Tm  Fe  Si  C  
   2   2   2   1
Cartesian
  0.0000000000000001  8.8347509207939989  3.6331173866739999
  0.0000000000000000  5.8489430792059993  1.5012616133259999
 -0.0000000000000000  5.9211814121919994  4.6320724336719996
  0.0000000000000000  8.7625125878080006  0.5023065663280000
  0.0000000000000000  2.8819757793520000  1.4844670596170002
 -0.0000000000000001 11.8017182206480005  3.6499119403829998
  0.0000000000000000  0.0000000000000000  0.0000000000000000
