Dy As O 
 1.0000000000000000
     5.6594899999999999    0.0021610000000000   -1.6829950000000000
    -3.1482709999999998    4.7030000000000003   -1.6829950000000000
    -0.0011540000000000   -0.0021610000000000    5.9044299999999996
 Dy  As  O  
   2   2   8
Cartesian
  0.1537738750000003  2.9385646250000002  2.7453274999999997
  2.3562911249999998  1.7644353750000001 -0.2068875000000001
  4.5576543750000003  0.5881451250000000  2.7453274999999997
 -2.0475893749999998  4.1148548749999998 -0.2068875000000001
  0.9682896595630002  1.0917100885340001  1.6535701317399996
  3.9690219643429998  1.4131621723840002  1.3874592991199994
  0.3674461318910001  1.4110011680620003  4.6057851317399994
 -1.0345480633289996  4.0850337519120004 -1.5647557008800002
 -1.4589569643429996  3.2898378276160001  1.1509807008799997
  1.5417753404370003  3.6112899114660002  0.8848698682599996
  3.5446130633289998  0.6179662480880000  4.1031957008799997
  2.1426188681090004  3.2919988319380002 -2.0673451317399998
