Ba Te
 1.0000000000000000
     4.3416220000000001    0.0000000000000000    2.5066370000000000
     1.4472069999999999    4.0933210000000004    2.5066370000000000
     0.0000000000000000    0.0000000000000000    5.0132729999999999
 Ba  Te 
   1   1
Cartesian
  0.0000000000000000  0.0000000000000000  0.0000000000000000
  2.8944144999999999  2.0466605000000002  5.0132735000000004
