Sc Pt
 1.0000000000000000
     3.3063440000000002    0.0000000000000000    0.0000000000000000
     0.0000000000000000    3.3063440000000002    0.0000000000000000
     0.0000000000000000    0.0000000000000000    3.3063440000000002
 Sc  Pt 
   1   1
Cartesian
  1.6531720000000001  1.6531720000000001  1.6531720000000001
  0.0000000000000000  0.0000000000000000  0.0000000000000000
