Mg Mo N 
 1.0000000000000000
     2.9108740000000002   -0.0000000000000000    0.0000000000000000
    -1.4554380000000000    2.5208900000000001    0.0000000000000000
     0.0000000000000000    0.0000000000000000   10.5258470000000006
 Mg  Mo  N  
   2   2   4
Cartesian
  0.0000000000000000  0.0000000000000000  0.0000000000000000
  0.0000000000000000  0.0000000000000000  5.2629235000000003
  1.4554381221060000  0.8402907845900000  2.6314617500000002
 -0.0000006666700000  1.6806017363000001  7.8943852500000009
 -0.0000006666660000  1.6805916527400000  1.3413718382919999
 -0.0000006666660000  1.6805916527400000  3.9215516617080004
  1.4554381221020001  0.8403008681500000  6.6042953382920002
  1.4554381221020001  0.8403008681500000  9.1844751617080007
