Mn Pt
 1.0000000000000000
     3.9336780000000000    0.0000000000000000    0.0000000000000000
     0.0000000000000000    3.9336780000000000    0.0000000000000000
     0.0000000000000000    0.0000000000000000    3.9336780000000000
 Mn  Pt 
   1   3
Cartesian
  0.0000000000000000  0.0000000000000000  0.0000000000000000
  0.0000000000000000  1.9668390000000000  1.9668390000000000
  1.9668390000000000  1.9668390000000000  0.0000000000000000
  1.9668390000000000  0.0000000000000000  1.9668390000000000
