Li Pm Ga
 1.0000000000000000
     0.0000000000000000    3.6921539999999999    3.6921539999999999
     3.6921539999999999    0.0000000000000000    3.6921539999999999
     3.6921539999999999    3.6921539999999999    0.0000000000000000
 Li  Pm  Ga 
   1   2   1
Cartesian
  5.5382383843080003  5.5382383843080003  5.5382383843080003
  0.0000000000000000  0.0000000000000000  0.0000000000000000
  3.6921539999999999  3.6921539999999999  3.6921539999999999
  1.8460770000000000  1.8460770000000000  1.8460770000000000
