Sr As O 
 1.0000000000000000
     4.6740060000000003    0.0000000000000000   -1.3233999999999999
    -0.3747080000000000    4.6589630000000000   -1.3233999999999999
    -0.0138130000000000   -0.0149680000000000    8.8667850000000001
 Sr  As  O  
   4   2   1
Cartesian
  2.8899681888350006  3.1317335253750000  1.2912818887150002
  1.3955168111650000  1.5122614746250000  4.9287031112850004
 -0.1873540000000000  2.3294815000000000 -0.6617000000000000
  2.3370030000000002  0.0000000000000000 -0.6617000000000000
  3.7052765796300000  4.0152481197349994  4.1708120247800009
  0.5802084203700000  0.6287468802650000  2.0491729752200003
  2.1496490000000001  2.3294815000000000 -1.3233999999999999
