Bi Br O 
 1.0000000000000000
     2.7864990000000001   -2.7864740000000001   -0.0128520000000000
    -0.0001130000000000   -5.5730469999999999    0.0000110000000000
    -0.0279790000000000    5.5730370000000002   -9.3260579999999997
 Bi  Br  O  
   3   1   4
Cartesian
  1.4386499862819999 -4.1793526803749996 -2.5654906286290000
  1.4381017597990000  1.3936064247439996 -6.7740476913179997
  1.4524784341449999 -6.9657869448650001 -0.0068753352390000
  1.4362333111100001 -1.3947401365059993 -4.6696473563070002
  0.0508812731200000  0.0004508142180001 -1.4789560332580001
  0.0392971196500000  2.7869202483750004 -7.8476978784350004
  0.0391964222870000  0.0001125223260005 -7.8475616074959991
  0.0509117978800000 -2.7862983924210001 -1.4787364323140000
