Hf Sb
 1.0000000000000000
     3.7744290000000000    0.0000000000000000    0.0000000000000000
     0.0000000000000000   10.4648810000000001    0.0000000000000000
     0.0000000000000000    0.0000000000000000   14.0626350000000002
 Hf  Sb 
  12  12
Cartesian
  1.8872145000000000  1.1706643779460000  3.5156587500000001
  1.8872145000000000  9.2942166220539999 10.5469762500000002
  0.0000000000000000  0.7489610682889999  8.5571555854050008
  0.0000000000000000  9.7159199317109994  5.5054794145949995
  0.0000000000000000  9.7159199317109994  1.5258380854050000
  0.0000000000000000  0.7489610682889999 12.5367969145949996
  0.0000000000000000  6.4031048779460003  3.5156587500000001
  0.0000000000000000  4.0617761220539998 10.5469762500000002
  1.8872145000000000  5.9814015682889998  8.5571555854050008
  1.8872145000000000  4.4834794317110003  5.5054794145949995
  1.8872145000000000  4.4834794317110003  1.5258380854050000
  1.8872145000000000  5.9814015682889998 12.5367969145949996
  1.8872145000000000  8.6303036416520005  3.5156587500000001
  1.8872145000000000  1.8345773583479998 10.5469762500000002
  1.8872145000000000  8.9768481759669996  7.7268976150050008
  1.8872145000000000  1.4880328240330001  6.3357373849950003
  1.8872145000000000  1.4880328240330001  0.6955801150050001
  1.8872145000000000  8.9768481759669996 13.3670548849949995
  0.0000000000000000  3.3978631416520000  3.5156587500000001
  0.0000000000000000  7.0670178583480006 10.5469762500000002
  0.0000000000000000  3.7444076759670000  7.7268976150050008
  0.0000000000000000  6.7204733240330006  6.3357373849950003
  0.0000000000000000  6.7204733240330006  0.6955801150050001
  0.0000000000000000  3.7444076759670000 13.3670548849949995
