Ca Cd P 
 1.0000000000000000
     4.2923070000000001    0.0000000000000000    0.0000000000000000
    -2.1461530000000000    3.7172470000000000    0.0000000000000000
     0.0000000000000000    0.0000000000000000    7.0554490000000003
 Ca  Cd  P  
   1   2   2
Cartesian
  0.0000000000000000  0.0000000000000000  0.0000000000000000
 -0.0000018128200000  2.4781659057490000  4.5021243395940003
  2.1461558128200000  1.2390810942510000  2.5533246604060000
  2.1461558128200000  1.2390810942510000  5.3584159629280004
 -0.0000018128200000  2.4781659057490000  1.6970330370719999
