Mg Re O 
 1.0000000000000000
     2.8739840000000001   -4.9782770000000003    0.0001720000000000
     2.8740090000000000    4.9782810000000000   -0.0001170000000000
     0.0000590000000000   -0.0001820000000000    6.2419359999999999
 Mg  Re  O  
   1   2   8
Cartesian
  5.7477954491810008 -0.0000720494870002  3.1204799489620001
  2.8739979344280004  1.6594636072290001  4.8798250215360000
  2.8739046186050001 -1.6596316533230000  1.3622533638490000
  2.8963965027619998  3.3010282079109996  4.2997893789040003
  1.4413836548110002  0.8578770409669999  4.2997028071700001
  2.8740701970500000  1.6595953174329998  0.3626482942840000
  1.4635530348390002 -0.8194405101840001  1.9422910771110000
  4.2845449505760005  0.8194018985699997  4.2998185160669999
  2.8741916065040001 -1.6598280843619999  5.8795486932009995
  4.3067172029099998 -0.8581894548299999  1.9423006810710002
  2.8517302222590004 -3.3011862980189997  1.9423139760810000
