Sn Pd
 1.0000000000000000
     6.5625220000000004    0.0000000000000000    0.0000000000000000
     0.0000000000000000   17.5089320000000015    0.0000000000000000
     0.0000000000000000    0.0000000000000000    6.6007949999999997
 Sn  Pd 
  24   8
Cartesian
  1.0515194625820001  0.0000000000000000  4.3681751031750000
  4.3327804625820008  0.0000000000000000  5.5330173968249996
  2.2297415374180001  0.0000000000000000  1.0677776031749999
  5.5110025374180003  0.0000000000000000  2.2326198968250002
  2.1619244350700000  2.9383664771720004  5.4757488994050005
  5.4431854350700002 14.5705655228280015  4.4254436005949991
  1.1193365649300000 14.5705655228280015  2.1753513994049998
  4.4005975649300000  2.9383664771720004  1.1250461005950001
  4.4005975649300000 14.5705655228280015  1.1250461005950001
  1.1193365649300000  2.9383664771720004  2.1753513994049998
  5.4431854350700002  2.9383664771720004  4.4254436005949991
  2.1619244350700000 14.5705655228280015  5.4757488994050005
  4.3327804625820008  8.7544660000000007  4.3681751031750000
  1.0515194625820001  8.7544660000000007  5.5330173968249996
  5.5110025374180003  8.7544660000000007  1.0677776031749999
  2.2297415374180001  8.7544660000000007  2.2326198968250002
  5.4431854350700002 11.6928324771720007  5.4757488994050005
  2.1619244350700000  5.8160995228280008  4.4254436005949991
  4.4005975649300000  5.8160995228280008  2.1753513994049998
  1.1193365649300000 11.6928324771720007  1.1250461005950001
  1.1193365649300000  5.8160995228280008  1.1250461005950001
  4.4005975649300000 11.6928324771720007  2.1753513994049998
  2.1619244350700000 11.6928324771720007  4.4254436005949991
  5.4431854350700002  5.8160995228280008  5.4757488994050005
  0.0000000000000000  1.4876989341760001  0.0000000000000000
  3.2812610000000002 16.0212505747559995  3.3003974999999999
  0.0000000000000000 16.0212505747559995  0.0000000000000000
  3.2812610000000002  1.4876989341760001  3.3003974999999999
  3.2812610000000002 10.2421474252440010  0.0000000000000000
  0.0000000000000000  7.2667845747560005  3.3003974999999999
  3.2812610000000002  7.2667845747560005  0.0000000000000000
  0.0000000000000000 10.2421474252440010  3.3003974999999999
