Na Nb O 
 1.0000000000000000
     4.8108209999999998    0.0130840000000000    2.8997839999999999
     1.6442960000000000    4.5211119999999996    2.8997839999999999
     0.0186270000000000    0.0130840000000000    5.6171519999999999
 Na  Nb  O  
   2   2   6
Cartesian
  1.7845393235520002  1.2534941102399999  3.1471102017600003
  5.0214113235519999  3.5271341102399991  8.8554702017599993
  0.0836213512480000  0.0587372157600000  0.1474697722400000
  3.3204933512479995  2.3323772157599998  5.8558297722399999
  2.5336522999210001  3.7421812874359999  6.8736679883920004
  5.0800425898410007  3.0557979602119998  5.7031481355520004
  3.6501276656939998  1.1139423590719997  7.2874090053360003
  1.3796688263910000  1.4816252874359999  5.6119401355519996
  3.8600801893190000  0.7952419602119999  4.4788330053359999
  2.7872015397459999  3.3614143590719996  4.0650919883920000
