Mn Si Rh
 1.0000000000000000
     3.8203440000000000    0.0000000000000000    0.0000000000000000
     0.0000000000000000    6.0020429999999996    0.0000000000000000
     0.0000000000000000    0.0000000000000000    7.2610679999999999
 Mn  Si  Rh 
   4   4   4
Cartesian
  2.8652579999999999  2.8153122875370000  4.9513730966759999
  0.9550860000000000  0.1857092124630000  1.3208390966760000
  2.8652579999999999  5.8163337875369994  5.9402289033239999
  0.9550860000000000  3.1867307124629995  2.3096949033240000
  0.9550860000000000  1.5821745470580000  6.3780495205200003
  0.9550860000000000  4.5831960470579993  4.5135524794799995
  2.8652579999999999  4.4198684529419996  0.8830184794800000
  2.8652579999999999  1.4188469529419998  2.7475155205199999
  0.9550860000000000  3.9696552075119995  6.7908194531159998
  0.9550860000000000  0.9686337075120000  4.1007825468840000
  2.8652579999999999  5.0334092924879998  3.1602854531159998
  2.8652579999999999  2.0323877924879996  0.4702485468840000
