Cd Au
 1.0000000000000000
     8.2175790000000006    0.0000330000000000    0.0000000000000000
    -4.1088160000000000    7.1166130000000001    0.0000000000000000
     0.0000000000000000    0.0000000000000000    5.8304029999999996
 Cd  Au 
   9   9
Cartesian
  1.4481674033440002  2.2360365711979999  1.2172890295490000
  5.3211359157989992  4.7444789906130005  1.2172890295490000
  5.5570304632780001  0.1361634381560000  1.2172890295490000
  2.5728857761850001  4.7439199737700006  5.3757656652690002
 -1.2869110034589999  2.5164706064320002  5.3757656652690002
 -1.2860400991210001  6.9728755363779999  5.3757656652690002
  4.1087847754650006  2.3722239611400000  2.8596727418280001
 -0.0000217754649998  4.7444220388599998  3.8307613438959995
  0.0000000000000000  0.0000000000000000  2.8555389861009997
  1.4793492099819998  2.1814877312990002  4.1299368130350000
  5.2583125233369996  4.7447491702490003  4.1299368130350000
  5.5886802666810000  0.1904420984520000  4.1299368130350000
  2.5445515627330000  4.7442045251660003  2.4720209071639996
 -1.2724974607349999  2.5408664702400001  2.4720209071639996
 -1.2721194283929997  6.9481951211739998  2.4720209071639996
  4.1087847754650006  2.3722239611400000  5.7408888227409998
 -0.0000217754649998  4.7444220388599998  0.9512302494499999
  0.0000000000000000  0.0000000000000000  5.7342713153359997
