Ca Al Si
 1.0000000000000000
     4.2086220000000001    0.0000000000000000    0.0000000000000000
    -2.1043120000000002    3.6447740000000000    0.0000000000000000
     0.0000000000000000    0.0000000000000000   21.7855430000000005
 Ca  Al  Si 
   5   5   5
Cartesian
  0.0000000000000000  0.0000000000000000  4.3311402327440005
  0.0000000000000000  0.0000000000000000 17.4544027672559992
  0.0000000000000000  0.0000000000000000 13.0453574327439998
  0.0000000000000000  0.0000000000000000  8.7401855672560007
  0.0000000000000000  0.0000000000000000  0.0000000000000000
 -0.0000027709780000  2.4298505482580000  1.8967583012950002
 -0.0000027709780000  2.4298505482580000 19.8887846987050025
  2.1043127709779998  1.2149234517420000 15.0643979868980011
  2.1043127709779998  1.2149234517420000 10.8927715000000003
  2.1043127709779998  1.2149234517420000  6.7211450131020003
  2.1043127709779998  1.2149234517420000 19.4621366245930005
 -0.0000027709780000  2.4298505482580000 15.4031631805480007
 -0.0000027709780000  2.4298505482580000  6.3823798194519998
  2.1043127709779998  1.2149234517420000  2.3234063754070000
 -0.0000027709780000  2.4298505482580000 10.8927715000000003
