Ti Ga
 1.0000000000000000
     3.4943050000000002    0.0000000000000000   -1.3906570000000000
    -0.5534510000000000    3.4501970000000002   -1.3906570000000000
     0.0114610000000000    0.0134440000000000    5.1141930000000002
 Ti  Ga 
   1   3
Cartesian
  0.0000000000000000  0.0000000000000000  0.0000000000000000
  0.4642185000000000  2.5943697500000003  1.1664395000000001
  2.4880964999999997  0.8692712500000001  1.1664395000000001
  1.4704270000000002  1.7250985000000001 -1.3906570000000000
