Hf Ga Ru
 1.0000000000000000
     0.0000000000000000    3.1152090000000001    3.1152090000000001
     3.1152090000000001    0.0000000000000000    3.1152090000000001
     3.1152090000000001    3.1152090000000001    0.0000000000000000
 Hf  Ga  Ru 
   1   1   2
Cartesian
  4.6728135000000002  4.6728135000000002  4.6728135000000002
  1.5576107304179998  1.5576107304179998  1.5576107304179998
  0.0000000000000000  0.0000000000000000  0.0000000000000000
  3.1152090000000001  3.1152090000000001  3.1152090000000001
