Ba Y  Sb O 
 1.0000000000000000
    -4.2651719999999997   -4.2651719999999997    0.0000000000000000
    -4.2651719999999997    0.0000000000000000   -4.2651719999999997
     0.0000000000000000   -4.2651719999999997   -4.2651719999999997
 Ba  Y   Sb  O  
   2   1   1   6
Cartesian
 -2.1325859999999999 -2.1325859999999999 -2.1325859999999999
 -6.3977579999999996 -6.3977579999999996 -6.3977579999999996
  0.0000000000000000  0.0000000000000000  0.0000000000000000
 -4.2651719999999997 -4.2651719999999997 -4.2651719999999997
 -4.2651719999999997 -2.2471741109519998 -4.2651719999999997
 -4.2651719999999997 -4.2651719999999997 -6.2831698890479997
 -4.2651719999999997 -4.2651719999999997 -2.2471741109519998
 -6.2831698890479997 -4.2651719999999997 -4.2651719999999997
 -4.2651719999999997 -6.2831698890479997 -4.2651719999999997
 -2.2471741109519998 -4.2651719999999997 -4.2651719999999997
