Ca Se
 1.0000000000000000
     3.6377830000000002    0.0000000000000000    2.1002749999999999
     1.2125950000000001    3.4297360000000001    2.1002749999999999
    -0.0000000000000000   -0.0000000000000000    4.2005509999999999
 Ca  Se 
   1   1
Cartesian
  0.0000000000000000  0.0000000000000000  0.0000000000000000
  2.4251890000000000  1.7148680000000001  4.2005505000000003
