Mn Al W 
 1.0000000000000000
     0.0000000000000000    2.9297789999999999    2.9297789999999999
     2.9297789999999999    0.0000000000000000    2.9297789999999999
     2.9297789999999999    2.9297789999999999    0.0000000000000000
 Mn  Al  W  
   2   1   1
Cartesian
  0.0000000000000000  0.0000000000000000  0.0000000000000000
  2.9297789999999999  2.9297789999999999  2.9297789999999999
  1.4648836404420000  1.4648836404420000  1.4648836404420000
  4.3946626404419993  4.3946626404419993  4.3946626404419993
