Na Yb S 
 1.0000000000000000
     6.6866089999999998   -1.9472959999999999    0.0346190000000000
     6.6866089999999998    1.9472959999999999    0.0346190000000000
     6.1023129999999997   -0.0000000000000000    3.3564379999999998
 Na  Yb  S  
   1   1   2
Cartesian
  9.7377655000000001  0.0000000000000000  1.7128379999999999
  0.0000000000000000  0.0000000000000000  0.0000000000000000
 14.4444365523009992 -0.0000000000000001  2.5407245445959998
  5.0310944476989992 -0.0000000000000000  0.8849514554039999
