Nd Zn
 1.0000000000000000
     4.2008770000000002   -0.0000000000000000    1.8251139999999999
     2.0828509999999998    5.2583060000000001    0.9530370000000000
     0.0051820000000000   -0.0591820000000000    5.7352259999999999
 Nd  Zn 
   2   4
Cartesian
  3.7496008953000000  3.7179795437000003  2.8638189793250000
  2.5393091047000000  1.4811444563000000  5.6495580206750002
  5.0170087364949998  3.7648181034740000  5.6937636864019998
  1.2719012635050000  1.4343058965260000  2.8196133135979999
  3.7321592343600001  0.5488794819540000  2.9039596243369998
  2.5567507656399999  4.6502445180460006  5.6094173756629999
