Al Co C 
 1.0000000000000000
     3.7223139999999999    0.0000000000000000    0.0000000000000000
     0.0000000000000000    3.7223139999999999    0.0000000000000000
     0.0000000000000000    0.0000000000000000    3.7223139999999999
 Al  Co  C  
   1   3   1
Cartesian
  0.0000000000000000  0.0000000000000000  0.0000000000000000
  0.0000000000000000  1.8611570000000000  1.8611570000000000
  1.8611570000000000  0.0000000000000000  1.8611570000000000
  1.8611570000000000  1.8611570000000000  0.0000000000000000
  1.8611570000000000  1.8611570000000000  1.8611570000000000
