Li Cd
 1.0000000000000000
    -2.1389600000000000    2.1389600000000000    3.9613779999999998
     2.1389600000000000   -2.1389600000000000    3.9613779999999998
     2.1389600000000000    2.1389600000000000   -3.9613779999999998
 Li  Cd 
   3   1
Cartesian
  0.0000000000000000  2.1389600000000000  1.9806889999999999
  2.1389600000000000  0.0000000000000000  1.9806889999999999
  0.0000000000000000  0.0000000000000000  3.9613779999999998
  0.0000000000000000  0.0000000000000000  0.0000000000000000
