Ti Mn Co
 1.0000000000000000
     0.0000040000000000    2.9258929999999999    2.9258940000000000
     2.9258940000000000    0.0000030000000000    2.9258940000000000
     2.9258940000000000    2.9258929999999999    0.0000030000000000
 Ti  Mn  Co 
   1   1   2
Cartesian
  4.3888469258939997  4.3888417500029995  4.3888461758939998
  1.4629567776899999  1.4629589535750001  1.4629565276879999
  0.0000039999960000  2.9258900741070000  2.9258910741060000
  2.9258989258939998  2.9258945000029999  2.9258984258940002
