Nb H 
 1.0000000000000000
     2.7980019999999999    0.0000000000000000    1.6154280000000001
     0.9326670000000000    2.6379800000000002    1.6154280000000001
     0.0000000000000000    0.0000000000000000    3.2308530000000002
 Nb  H  
   1   2
Cartesian
  0.0000000000000000  0.0000000000000000  0.0000000000000000
  2.7980017499999996  1.9784850000000000  4.8462817500000002
  0.9326672499999999  0.6594950000000001  1.6154272500000002
