Ta Cu S 
 1.0000000000000000
     5.4865570000000004    0.0000000000000000    0.0000000000000000
     0.0000000000000000    5.4865570000000004    0.0000000000000000
     0.0000000000000000    0.0000000000000000    5.4865570000000004
 Ta  Cu  S  
   1   3   4
Cartesian
  0.0000000000000000  0.0000000000000000  0.0000000000000000
  0.0000000000000000  0.0000000000000000  2.7432785000000002
  0.0000000000000000  2.7432785000000002  0.0000000000000000
  2.7432785000000002  0.0000000000000000  0.0000000000000000
  1.3324323136780001  4.1541301728790003  4.1541301728790003
  4.1541301728790003  4.1541301728790003  1.3324323136780001
  4.1541301728790003  1.3324323136780001  4.1541301728790003
  1.3324323136780001  1.3324323136780001  1.3324323136780001
