Ti Tc Sb
 1.0000000000000000
     0.0000000000000000    3.1513900000000001    3.1513900000000001
     3.1513900000000001    0.0000000000000000    3.1513900000000001
     3.1513900000000001    3.1513900000000001    0.0000000000000000
 Ti  Tc  Sb 
   1   2   1
Cartesian
  4.7270786972199996  4.7270786972199996  4.7270786972199996
  0.0000000000000000  0.0000000000000000  0.0000000000000000
  3.1513836972200004  3.1513836972200004  3.1513836972200004
  1.5756950000000001  1.5756950000000001  1.5756950000000001
