Mg Fe H 
 1.0000000000000000
     3.8916629999999999    0.0000000000000000    2.2468539999999999
     1.2972200000000000    3.6690960000000001    2.2468539999999999
     0.0000000000000000    0.0000000000000000    4.4937069999999997
 Mg  Fe  H  
   2   1   6
Cartesian
  1.2972207499999999  0.9172740000000000  2.2468537499999996
  3.8916622500000000  2.7518220000000002  6.7405612499999998
  0.0000000000000000  0.0000000000000000  0.0000000000000000
  1.9276021934820000  2.7776010684960002  5.6487070353819995
  1.9276021934820000  2.7776010684960002  3.3387079646180000
  3.2612808065179997  0.8914949315040001  5.6487070353819995
  3.2612808065179997  0.8914949315040001  3.3387079646180000
  3.9281193419579998  2.7776010684960002  4.4937077570259998
  1.2607636580419999  0.8914949315040001  4.4937072429739997
