Na Mg Al F 
 1.0000000000000000
    -3.5792320000000002    3.7158359999999999    5.0667320000000000
     3.5792320000000002   -3.7158359999999999    5.0667320000000000
     3.5792320000000002    3.7158359999999999   -5.0667320000000000
 Na  Mg  Al  F  
   4   2   2  14
Cartesian
  1.7896160000000001  1.8579180000000000  2.5333660000000000
 -1.7896160000000001  1.8579180000000000  2.5333660000000000
  0.0000000000000000  0.0000000000000000  5.0667320000000000
  0.0000000000000000  0.0000000000000000  0.0000000000000000
  1.7896160000000001 -1.8579180000000000  2.5333660000000000
  1.7896160000000001  1.8579180000000000 -2.5333660000000000
  3.5792320000000002  0.0000000000000000  0.0000000000000000
  0.0000000000000000  3.7158359999999999  0.0000000000000000
  3.5792320000000002  2.6934906096480002 -2.5333660000000000
  0.0000000000000001  1.0223453903519997  7.6000980000000000
 -0.0000000000000001  2.0718758368799999  4.1894172207359999
  3.5792320000000002  1.6439601631200000  0.8773147792640000
 -0.0000000000000001  2.0718758368799999  0.8773147792640003
  3.5792320000000002  1.6439601631200003  4.1894172207360008
  1.3227230817600002  4.2252362414040006  3.9216252343399995
  4.9019550817600006 -0.5094002414040000  1.1451067656599998
  1.3227230817600004  4.2252362414039997  1.1451067656599996
  1.3227230817600002  3.2064357585959997 -1.1451067656600005
  2.2565089182400002 -0.5094002414039999  3.9216252343399991
  2.2565089182400002  0.5094002414040001  6.2118387656600005
  2.2565089182400002 -0.5094002414040001  1.1451067656600000
 -1.3227230817600002  4.2252362414040006  3.9216252343400000
