Sm Pt
 1.0000000000000000
     4.1465030000000000    0.0000000000000000    0.0000000000000000
     0.0000000000000000    4.1465030000000000    0.0000000000000000
     0.0000000000000000    0.0000000000000000    4.1465030000000000
 Sm  Pt 
   1   3
Cartesian
  0.0000000000000000  0.0000000000000000  0.0000000000000000
  2.0732515000000000  2.0732515000000000  0.0000000000000000
  2.0732515000000000  0.0000000000000000  2.0732515000000000
  0.0000000000000000  2.0732515000000000  2.0732515000000000
