Ti Co Si
 1.0000000000000000
     3.7096520000000002    0.0000000000000000    0.0000000000000000
     0.0000000000000000    6.1255220000000001    0.0000000000000000
     0.0000000000000000    0.0000000000000000    6.8945179999999997
 Ti  Co  Si 
   4   4   4
Cartesian
  0.9274130000000000  0.0921768550560000  1.3211275391599999
  2.7822390000000001  2.9705841449440000  4.7683865391599998
  0.9274130000000000  3.1549378550559997  2.1261314608399999
  2.7822390000000001  6.0333451449440005  5.5733904608399998
  0.9274130000000000  3.9542327187480004  6.4383491110479998
  2.7822390000000001  2.1712892812520002  0.4561688889520000
  0.9274130000000000  0.8914717187480000  3.9034278889519998
  2.7822390000000001  5.2340502812520002  2.9910901110479999
  2.7822390000000001  4.4531809877360002  0.7808800031980000
  0.9274130000000000  4.7351020122640000  4.2281390031979997
  2.7822390000000001  1.3904199877360000  2.6663789968020000
  0.9274130000000000  1.6723410122639999  6.1136379968019998
