Ge Te As
 1.0000000000000000
     2.0678860000000001   -3.5816599999999998    0.0000270000000000
     2.0675710000000000    3.5814789999999999   -0.0000040000000000
     0.0002040000000000   -0.0000980000000000   16.9507720000000006
 Ge  Te  As 
   2   5   2
Cartesian
  2.0675154609839996  1.1935360524839995  1.7791254608480001
  2.0681083150249999 -1.1938293744869999 15.1712118681630006
  2.0678314130060000 -1.1939481437919996  3.5017579987060001
  2.0678127620940003  1.1932557550200003  6.8950210097919999
  2.0688490093950000 -1.1935133054849998 10.0550959648009997
  0.0010835117330000 -0.0003796963370000  0.0004407277410000
  2.0679309009729998  1.1937300270190003 13.4488674938739994
  4.1335634440349995 -0.0001653800069996  5.3665187487040003
  4.1354061823469994  0.0000170657810000 11.5851298258269999
