Al B  O 
 1.0000000000000000
     2.8383250000000002   -7.4877209999999996    0.0000000000000000
     2.8383250000000002    7.4877209999999996    0.0000000000000000
     0.0000000000000000    0.0000000000000000    7.6893399999999996
 Al  B   O  
  10   2  18
Cartesian
  1.4303511771500002 -1.7351595382140002  3.8411867289799999
  2.8383250000000002  3.0397002417180001  2.5614191154199997
  2.8383250000000002 -3.0397002417180006  6.4060891154199995
  2.8383250000000002 -0.8455434062040003  1.4181680442200000
  2.8383250000000002  0.8455434062040003  5.2628380442199996
  2.8383250000000002 -3.6630230640839998  1.4117935813599998
  2.8383250000000002  3.6630230640839998  5.2564635813599994
  1.4303511771500002  1.7351595382139999  7.6858567289799993
  4.2462988228500000 -1.7351595382139997  3.8411867289799999
  4.2462988228500000  1.7351595382140002  7.6858567289799993
  2.8383250000000002 -7.2568146598020000  5.5502809520999996
  2.8383250000000002  7.2568146598020000  1.7056109521000000
  2.8383250000000002  4.6238923491299992  3.3473619354999999
  2.8383250000000002 -6.7936392141840001  0.7123250789200000
  2.8383250000000002  6.7936392141840001  4.5569950789200000
  2.8383250000000002  0.6814874390939997  0.5587689591199999
  2.8383250000000002 -0.6814874390940001  4.4034389591199998
  2.8383250000000002 -2.5381427382539998  2.8270396763800001
  2.8383250000000002  2.5381427382540003  6.6717096763799999
  4.4811872465500002 -0.7169942120759996  2.2011735364199998
  2.8383250000000002 -4.6238923491299992  7.1920319354999993
  2.8383250000000002 -2.2125317028479996  0.2820065445000000
  4.4811872465500002  0.7169942120760000  6.0458435364199996
  1.1954627534500002 -0.7169942120760000  2.2011735364199998
  1.1954627534500002  0.7169942120760000  6.0458435364199996
  1.4602529310250001 -2.8474679804849994  5.3796468081599995
  1.4602529310250001  2.8474679804849998  1.5349768081599999
  4.2163970689749997  2.8474679804850003  1.5349768081599999
  4.2163970689749997 -2.8474679804849994  5.3796468081599995
  2.8383250000000002  2.2125317028479996  4.1266765444999995
