Be Cr
 1.0000000000000000
     4.2076989999999999    0.0000000000000000    0.0000000000000000
    -2.1038500000000000    3.6439740000000000    0.0000000000000000
     0.0000000000000000    0.0000000000000000    6.8956600000000003
 Be  Cr 
   8   4
Cartesian
  0.0000000000000000  0.0000000000000000  0.0000000000000000
  0.0000000000000000  0.0000000000000000  3.4478300000000002
  2.1038512739980000  2.4039405797220001  1.7239150000000001
 -1.0299525607480000  3.0239591118480003  5.1717450000000005
  1.0299475231970001  3.0239591118480003  5.1717450000000005
  1.0739014768030002  0.6200148881520000  1.7239150000000001
  3.1338015607480001  0.6200148881520000  1.7239150000000001
 -0.0000022739980001  1.2400334202780001  5.1717450000000005
 -0.0000024371830002  2.4293172146580000  0.4271102847400000
  2.1038514371830002  1.2146567853420001  3.8749402847400001
  2.1038514371830002  1.2146567853420001  6.4685497152600009
 -0.0000024371830002  2.4293172146580000  3.0207197152599998
