Cu As Se
 1.0000000000000000
    -2.7797399999999999    2.7797399999999999    5.5250849999999998
     2.7797399999999999   -2.7797399999999999    5.5250849999999998
     2.7797399999999999    2.7797399999999999   -5.5250849999999998
 Cu  As  Se 
   3   1   4
Cartesian
  2.7797399999999999  0.0000000000000000  2.7625424999999999
  0.0000000000000002  2.7797399999999994  2.7625424999999999
  0.0000000000000000  0.0000000000000000  5.5250849999999998
  0.0000000000000000  0.0000000000000000  0.0000000000000000
 -1.3689802538999998  1.3689802538999998  6.9488496787349998
  1.4107625258399998  1.4107625258399998 -1.4237702038200000
  1.3689802538999998 -1.3689802538999998  6.9488496787349998
  1.3689774741599998  1.3689774741600000  4.1013258463499991
