Hf Sc Co
 1.0000000000000000
     0.0000000000000000    3.1477949999999999    3.1477949999999999
     3.1477949999999999    0.0000000000000000    3.1477949999999999
     3.1477949999999999    3.1477949999999999    0.0000000000000000
 Hf  Sc  Co 
   1   1   2
Cartesian
  1.5738974999999999  1.5738974999999999  1.5738974999999999
  4.7216862044100001  4.7216862044100001  4.7216862044100001
  3.1477887044099999  3.1477887044099999  3.1477887044099999
  0.0000000000000000  0.0000000000000000  0.0000000000000000
