Sr Zr O 
 1.0000000000000000
     5.7952409999999999    0.0000000000000000    0.0000000000000000
     0.0000000000000000    5.8442900000000000    0.0000000000000000
     0.0000000000000000    0.0000000000000000    8.2145740000000007
 Sr  Zr  O  
   4   4  12
Cartesian
  0.0402827201910000  3.1055271316200002  2.0536435000000002
  2.9379032201910000  5.6609078683799998  6.1609305000000010
  2.8573377798089998  0.1833821316200000  2.0536435000000002
  5.7549582798089993  2.7387628683799998  6.1609305000000010
  0.0000000000000000  0.0000000000000000  0.0000000000000000
  2.8976204999999999  2.9221450000000000  0.0000000000000000
  2.8976204999999999  2.9221450000000000  4.1072870000000004
  0.0000000000000000  0.0000000000000000  4.1072870000000004
  1.2422330893139999  1.6682525804999999  3.7855467801420004
  4.1398535893139998  1.2538924194999999  4.4290272198579999
  1.6553874106860000  4.5903975804999995  0.3217402198580001
  4.5530079106859995  4.1760374195000001  7.8928337801420012
  4.5530079106859995  4.1760374195000001  4.4290272198579999
  1.6553874106860000  4.5903975804999995  3.7855467801420004
  4.1398535893139998  1.2538924194999999  7.8928337801420012
  1.2422330893139999  1.6682525804999999  0.3217402198580001
  5.3652862749689998  5.7353991887199998  2.0536435000000002
  2.4676657749689999  3.0310358112799998  6.1609305000000010
  3.3275752250310000  2.8132541887200002  2.0536435000000002
  0.4299547250310000  0.1088908112800000  6.1609305000000010
