Sm Tl Te
 1.0000000000000000
    -2.2644310000000001   -3.9221080000000001   -0.0000000000000000
    -4.5288599999999999   -0.0000000000000000   -0.0000000000000000
    -2.2644310000000001   -1.3073699999999999   -8.1277539999999995
 Sm  Tl  Te 
   1   1   2
Cartesian
  0.0000000000000000  0.0000000000000000  0.0000000000000000
 -4.5288610000000000 -2.6147390000000001 -4.0638769999999997
 -6.7932915214260001 -3.9221085214260003 -6.3570333858060000
 -2.2644304785739999 -1.3073694785739998 -1.7707206141940000
