Ca Sn N  F 
 1.0000000000000000
     0.0000000000000000    4.9218719999999996    4.9218719999999996
     4.9218719999999996    0.0000000000000000    4.9218719999999996
     4.9218719999999996    4.9218719999999996    0.0000000000000000
 Ca  Sn  N   F  
   6   2   1   1
Cartesian
  7.4741973192959987  4.9218719999999996  4.9218719999999996
  4.9218719999999996  2.3695466807040000  4.9218719999999996
  4.9218719999999996  7.4741973192959987  4.9218719999999996
  4.9218719999999996  4.9218719999999996  7.4741973192959987
  4.9218719999999996  4.9218719999999996  2.3695466807040000
  2.3695466807040000  4.9218719999999996  4.9218719999999996
  2.4609359999999998  2.4609359999999998  2.4609359999999998
  7.3828079999999989  7.3828079999999989  7.3828079999999989
  0.0000000000000000  0.0000000000000000  0.0000000000000000
  4.9218719999999996  4.9218719999999996  4.9218719999999996
