Mg Cd Ag
 1.0000000000000000
     4.0698569999999998   -0.0000000000000000    2.3497340000000002
     1.3566180000000001    3.8370989999999998    2.3497340000000002
     0.0000000000000000    0.0000000000000000    4.6994670000000003
 Mg  Cd  Ag 
   1   1   2
Cartesian
  2.7132375000000000  1.9185494999999999  4.6994675000000008
  0.0000000000000000  0.0000000000000000  0.0000000000000000
  4.0698562500000000  2.8778242499999998  7.0492012500000012
  1.3566187500000000  0.9592747500000000  2.3497337500000004
