Al Co Os
 1.0000000000000000
     0.0000010000000000    2.9256300000000000    2.9256300000000000
     2.9256289999999998    0.0000020000000000    2.9256280000000001
     2.9256289999999998    2.9256289999999998    0.0000020000000000
 Al  Co  Os 
   2   1   1
Cartesian
  2.9256353512589999  2.9256363512610002  2.9256358512600000
  0.0000000000000000  0.0000000000000000  0.0000000000000000
  1.4628147499999999  1.4628152499999998  1.4628150000000000
  4.3884501012590000  4.3884516012610000  4.3884508512600000
