Sc Ga Ru
 1.0000000000000000
    -0.0000050000000000    3.0975910000000000    3.0975899999999998
     3.0975880000000000   -0.0000040000000000    3.0975910000000000
     3.0975880000000000    3.0975910000000000   -0.0000050000000000
 Sc  Ga  Ru 
   1   1   2
Cartesian
  4.6463813475929996  4.6463773048099997  4.6463850975969994
  1.5487958475829999  1.5488006951819997  1.5487970975850001
  0.0000000000000000  0.0000000000000000  0.0000000000000000
  3.0975793048289999  3.0975828048220002  3.0975818048240003
