Sm Mg Ga
 1.0000000000000000
     7.3640879999999997   -0.0000010000000000    0.0000000000000000
    -3.6820450000000000    6.3774889999999997    0.0000000000000000
     0.0000000000000000    0.0000000000000000    4.4972149999999997
 Sm  Mg  Ga 
   3   3   3
Cartesian
 -2.1213181756249999  3.6742308501249998  0.0000000000000000
  1.5607259766249997  2.7032577259999999  0.0000000000000000
  4.2426351989999995 -0.0000005761250000  0.0000000000000000
 -0.8962392093600000  1.5523318425120001  2.2486074999999999
  2.7858042774559997  4.8251564008959997  2.2486074999999999
  1.7924779319040001 -0.0000002434080000  2.2486074999999999
 -0.0000043487110001  4.2516611258300001  2.2486074999999999
  3.6820473487109999  2.1258268741699999  2.2486074999999999
  0.0000000000000000  0.0000000000000000  0.0000000000000000
