Ca Cu Sb
 1.0000000000000000
     4.4756890000000000    0.0000000000000000    0.0000000000000000
    -2.2378439999999999    3.8760599999999998    0.0000000000000000
     0.0000000000000000    0.0000000000000000    8.2411989999999999
 Ca  Cu  Sb 
   2   2   2
Cartesian
  0.0000000000000000  0.0000000000000000  0.0000000000000000
  0.0000000000000000  0.0000000000000000  4.1205995000000000
 -0.0000019045110001  2.5840412920199998  2.0602997500000000
  2.2378469045110001  1.2920187079799998  6.1808992499999995
 -0.0000019045110001  2.5840412920199998  6.1808992499999995
  2.2378469045110001  1.2920187079799998  2.0602997500000000
