Sr Sn Pt
 1.0000000000000000
     4.7462280000000003    0.0000000000000000    0.0000000000000000
     0.0000000000000000    7.7033880000000003    0.0000000000000000
     0.0000000000000000    0.0000000000000000    8.0203950000000006
 Sr  Sn  Pt 
   4   4   4
Cartesian
  3.5596710000000003  7.5491969857920003  2.5497477336600003
  1.1865570000000001  0.1541910142080000  5.4706472663400003
  3.5596710000000003  3.6975029857920005  1.4604497663400002
  1.1865570000000001  4.0058850142080002  6.5599452336600006
  3.5596710000000003  2.6061871179959999  4.6115667171000005
  1.1865570000000001  1.2455068820040001  0.6013692171000001
  1.1865570000000001  5.0972008820040005  3.4088282829000005
  3.5596710000000003  6.4578811179960001  7.4190257829000004
  1.1865570000000001  6.1586199009720000  0.8554874122800000
  1.1865570000000001  2.3069259009719998  3.1547100877200003
  3.5596710000000003  5.3964620990280006  4.8656849122799999
  3.5596710000000003  1.5447680990279999  7.1649075877200010
