Sc Mn Sn
 1.0000000000000000
     5.4114009999999997    0.0000000000000000    0.0000000000000000
    -2.7057000000000002    4.6864109999999997    0.0000000000000000
     0.0000000000000000    0.0000000000000000    8.9571819999999995
 Sc  Mn  Sn 
   1   6   6
Cartesian
  0.0000000000000000  0.0000000000000000  0.0000000000000000
  2.7057004999999998  0.0000000000000000  6.7370011263879990
  1.3528504999999997  2.3432054999999998  6.7370011263879990
 -1.3528500000000001  2.3432054999999998  6.7370011263879990
  2.7057004999999998  0.0000000000000000  2.2201808736120001
  1.3528504999999997  2.3432054999999998  2.2201808736120001
 -1.3528500000000001  2.3432054999999998  2.2201808736120001
  0.0000000000000000  0.0000000000000000  6.0266338935139991
  0.0000000000000000  0.0000000000000000  2.9305481064859999
 -0.0000023723670003  3.1242755621370000  4.4785909999999998
  2.7057033723670001  1.5621354378629999  4.4785909999999998
 -0.0000023723670003  3.1242755621370000  0.0000000000000000
  2.7057033723670001  1.5621354378629999  0.0000000000000000
