Nb Cu S 
 1.0000000000000000
     5.4812529999999997    0.0000000000000000    0.0000000000000000
     0.0000000000000000    5.4812529999999997    0.0000000000000000
     0.0000000000000000    0.0000000000000000    5.4812529999999997
 Nb  Cu  S  
   1   3   4
Cartesian
  0.0000000000000000  0.0000000000000000  0.0000000000000000
  2.7406264999999999  0.0000000000000000  0.0000000000000000
  0.0000000000000000  0.0000000000000000  2.7406264999999999
  0.0000000000000000  2.7406264999999999  0.0000000000000000
  1.3391413641890000  4.1421116358110002  4.1421116358110002
  4.1421116358110002  4.1421116358110002  1.3391413641890000
  4.1421116358110002  1.3391413641890000  4.1421116358110002
  1.3391413641890000  1.3391413641890000  1.3391413641890000
