Sc Co
 1.0000000000000000
     6.3074349999999999    0.0000000000000000    0.0000000000000000
     0.0000000000000000    6.3074349999999999    0.0000000000000000
     0.0000000000000000    0.0000000000000000    5.6305560000000003
 Sc  Co 
   8   4
Cartesian
  5.1885591053499995  2.0348416053500000  0.0000000000000000
  4.2725933946500003  5.1885591053499995  0.0000000000000000
  1.1188758946499999  4.2725933946500003  0.0000000000000000
  5.1885591053499995  4.2725933946500003  2.8152780000000002
  2.0348416053500000  5.1885591053499995  2.8152780000000002
  1.1188758946499999  2.0348416053500000  2.8152780000000002
  4.2725933946500003  1.1188758946499999  2.8152780000000002
  2.0348416053500000  1.1188758946499999  0.0000000000000000
  0.0000000000000000  0.0000000000000000  4.2229170000000007
  0.0000000000000000  0.0000000000000000  1.4076390000000001
  3.1537175000000000  3.1537175000000000  1.4076390000000001
  3.1537175000000000  3.1537175000000000  4.2229170000000007
