Sr Li P 
 1.0000000000000000
     4.3712960000000001    0.0000000000000000    0.0000000000000000
    -2.1856469999999999    3.7856540000000001    0.0000000000000000
     0.0000000000000000    0.0000000000000000    8.0412640000000000
 Sr  Li  P  
   2   2   2
Cartesian
  0.0000000000000000  0.0000000000000000  0.0000000000000000
  0.0000000000000000  0.0000000000000000  4.0206320000000000
 -0.0000015189810000  2.5237705952180001  2.0103160000000000
  2.1856505189810003  1.2618834047820000  6.0309480000000004
 -0.0000015189810000  2.5237705952180001  6.0309480000000004
  2.1856505189810003  1.2618834047820000  2.0103160000000000
