Nb Rh
 1.0000000000000000
     3.9102960000000002    0.0000000000000000    0.0000000000000000
     0.0000000000000000    3.9102960000000002    0.0000000000000000
     0.0000000000000000    0.0000000000000000    3.9102960000000002
 Nb  Rh 
   1   3
Cartesian
  0.0000000000000000  0.0000000000000000  0.0000000000000000
  0.0000000000000000  1.9551480000000001  1.9551480000000001
  1.9551480000000001  1.9551480000000001  0.0000000000000000
  1.9551480000000001  0.0000000000000000  1.9551480000000001
