Li La In
 1.0000000000000000
     0.0000000000000000    3.5531050000000000    3.5531050000000000
     3.5531050000000000    0.0000000000000000    3.5531050000000000
     3.5531050000000000    3.5531050000000000    0.0000000000000000
 Li  La  In 
   2   1   1
Cartesian
  5.3296574999999997  5.3296574999999997  5.3296574999999997
  1.7765525000000000  1.7765525000000000  1.7765525000000000
  3.5531050000000000  3.5531050000000000  3.5531050000000000
  0.0000000000000000  0.0000000000000000  0.0000000000000000
