Cs Ag O 
 1.0000000000000000
     5.7023479999999998    0.0000000000000000    2.4280420000000000
     2.8511750000000000    7.2650600000000001    1.2140200000000001
     0.0050040000000000   -0.0000000000000000    7.8983610000000004
 Cs  Ag  O  
   4   4   4
Cartesian
  3.7262347985669999  1.4048664473799999  3.1135366283130002
  3.7265433386129998  5.8601935526200002  3.1136671293270002
  7.6831639769889994  5.8601935526200002  9.6407786854610009
  1.9811175881789997  1.4048664473799999  7.2128659849410006
  5.7048559194140003  1.5769975139600001  6.3772247109759999
  5.7048450805859998  5.6880624860399998  6.3772192890239996
  4.8995665348719992  3.6325300000000000  8.2684466255180009
  6.5101344651280000  3.6325300000000000  4.4859973744820003
  4.8997501070810001  5.6851056066199996  8.2653106214290002
  4.9017054473910004  1.5799543933800000  8.2661440048890000
  6.5099457556250000  5.6851056066199996  4.4891303854749998
  0.8056526899030000  1.5799543933800000  2.0602609882070002
