Na Tb Se
 1.0000000000000000
    -2.0675490000000001   -3.5811000000000002    0.0000000000000000
    -4.1350980000000002    0.0000000000000000    0.0000000000000000
    -2.0675490000000001   -1.1936990000000001   -6.9262439999999996
 Na  Tb  Se 
   1   1   2
Cartesian
  0.0000000000000000  0.0000000000000000  0.0000000000000000
 -4.1350980000000002 -2.3873994999999999 -3.4631219999999998
 -6.2026470000000007 -3.5810992673939999 -5.0742079118639998
 -2.0675490000000001 -1.1936997326060002 -1.8520360881360001
