Sb F 
 1.0000000000000000
     4.3666410000000004    0.0017740000000000    0.0000000000000000
    -1.7101649999999999    4.0178200000000004    0.0000000000000000
     0.0000000000000000    0.0000000000000000    7.1372770000000001
 Sb  F  
   2   6
Cartesian
 -0.4597284012990000  3.1886493702940002  1.7843192500000000
  3.1136462149110007  0.8270737606840001  5.3529577499999998
  0.7085541055260000  1.5964941678540001  1.7843192500000000
  1.1909431194180000  1.2776924042819999  5.3529577499999998
  3.3062737122240007  2.3021679586160002  6.6470816783630005
  0.8217837327360000  3.9441203336240007  0.4901953216370000
  3.3062737122240007  2.3021679586160002  4.0588338216370001
  0.8217837327360000  3.9441203336240007  3.0784431783630000
