Dy Ge Au
 1.0000000000000000
     4.4218789999999997    0.0000000000000000    0.0000000000000000
    -2.2109390000000002    3.8294600000000001    0.0000000000000000
     0.0000000000000000    0.0000000000000000    7.3535409999999999
 Dy  Ge  Au 
   2   2   2
Cartesian
  0.0000000000000000  0.0000000000000000  6.2038369252729995
  0.0000000000000000  0.0000000000000000  2.5270664252730000
  2.2109418776059999  1.2764853901800000  0.3744202470969999
 -0.0000018776060004  2.5529746098200001  4.0511907470969994
  2.2109418776059999  1.2764853901800000  4.6432390400890000
 -0.0000018776060004  2.5529746098200001  0.9664685400890000
