Be Pd
 1.0000000000000000
     7.2724950000000002    0.0000000000000000    0.0000000000000000
     0.0000000000000000    7.2724950000000002    0.0000000000000000
     0.0000000000000000    0.0000000000000000    4.1912960000000004
 Be  Pd 
  24   2
Cartesian
  1.8181237500000000  1.8181237500000000  3.1434720000000000
  5.4543712500000003  1.8181237500000000  3.1434720000000000
  5.4543712500000003  1.8181237500000000  1.0478240000000001
  1.8181237500000000  1.8181237500000000  1.0478240000000001
  4.7403504184050007  0.0000000000000000  0.0000000000000000
  0.0000000000000000  4.7403504184050007  0.0000000000000000
  0.0000000000000000  2.5321445815950003  0.0000000000000000
  2.5321445815950003  0.0000000000000000  0.0000000000000000
  1.6389585631800001  0.0000000000000000  2.0956480000000002
  0.0000000000000000  1.6389585631800001  2.0956480000000002
  0.0000000000000000  5.6335364368200000  2.0956480000000002
  5.6335364368200000  0.0000000000000000  2.0956480000000002
  5.4543712500000003  5.4543712500000003  1.0478240000000001
  1.8181237500000000  5.4543712500000003  1.0478240000000001
  1.8181237500000000  5.4543712500000003  3.1434720000000000
  5.4543712500000003  5.4543712500000003  3.1434720000000000
  1.1041029184050002  3.6362475000000001  2.0956480000000002
  3.6362475000000001  1.1041029184050002  2.0956480000000002
  3.6362475000000001  6.1683920815950000  2.0956480000000002
  6.1683920815950000  3.6362475000000001  2.0956480000000002
  5.2752060631799997  3.6362475000000001  0.0000000000000000
  3.6362475000000001  5.2752060631799997  0.0000000000000000
  3.6362475000000001  1.9972889368200000  0.0000000000000000
  1.9972889368200000  3.6362475000000001  0.0000000000000000
  0.0000000000000000  0.0000000000000000  0.0000000000000000
  3.6362475000000001  3.6362475000000001  2.0956480000000002
