Pr Hg
 1.0000000000000000
     3.8456869999999999    0.0000000000000000    0.0000000000000000
     0.0000000000000000    3.8456869999999999    0.0000000000000000
     0.0000000000000000    0.0000000000000000    3.8456869999999999
 Pr  Hg 
   1   1
Cartesian
  1.9228434999999999  1.9228434999999999  1.9228434999999999
  0.0000000000000000  0.0000000000000000  0.0000000000000000
