Cd Ge P 
 1.0000000000000000
     5.2083279999999998    0.0000000000000000   -2.4487619999999999
    -1.1513180000000001    5.0794810000000004   -2.4487619999999999
     0.0100660000000000    0.0126030000000000    6.7846419999999998
 Cd  Ge  P  
   2   2   4
Cartesian
  0.4436264999999999  3.8159122500000002  0.9435590000000000
  0.0000000000000000  0.0000000000000000  0.0000000000000000
  2.0285050000000000  2.5397405000000002 -2.4487619999999999
  3.6234495000000000  1.2761717500000000  0.9435590000000000
  3.3755670977439998  4.4476966249999998 -2.5060326325759994
  3.0797502012640003  0.8168459139120001  3.1687696325759998
  1.7007284022559999  1.9079561250000001 -0.2235513674239999
 -0.0218937012640001  3.0116693360880000  3.3350503674240000
