Ti Zn Tc
 1.0000000000000000
     0.0000000000000000    3.1110120000000001    3.1110120000000001
     3.1110120000000001    0.0000000000000000    3.1110120000000001
     3.1110120000000001    3.1110120000000001    0.0000000000000000
 Ti  Zn  Tc 
   2   1   1
Cartesian
  3.1110182220240001  3.1110182220240001  3.1110182220240001
  0.0000000000000000  0.0000000000000000  0.0000000000000000
  4.6665242220240000  4.6665242220240000  4.6665242220240000
  1.5555060000000001  1.5555060000000001  1.5555060000000001
