Ni Ge
 1.0000000000000000
     3.4509189999999998    0.0000000000000000    0.0000000000000000
     0.0000000000000000    5.3296539999999997    0.0000000000000000
     0.0000000000000000    0.0000000000000000    5.7707290000000002
 Ni  Ge 
   4   4
Cartesian
  0.8627297500000000  2.6943692721219996  1.7846902749139999
  2.5881892500000001  2.6352847278779996  3.9860387250859999
  0.8627297500000000  0.0295422721220000  1.1006742250860000
  2.5881892500000001  5.3001117278779999  4.6700547749140000
  0.8627297500000000  3.6756278590239999  5.2687736793930000
  2.5881892500000001  1.6540261409760000  0.5019553206070001
  0.8627297500000000  1.0108008590239999  3.3873198206070003
  2.5881892500000001  4.3188531409759996  2.3834091793930003
