Lu Te
 1.0000000000000000
     8.9626529999999995    0.0000000000000000    0.0000000000000000
    -4.4813260000000001    7.7618830000000001    0.0000000000000000
     0.0000000000000000    0.0000000000000000    3.6961490000000001
 Lu  Te 
   8   1
Cartesian
  3.2411959353070001  5.6138827842290002  0.0000000000000000
 -1.2401531945880000  2.1480079776539998  0.0000000000000000
  5.4771848001359995  0.0000000000000000  1.8480745000000001
  1.7427253317229998  3.0185031561040003  1.8480745000000001
 -2.7385965758380002  4.7433876057790005  1.8480745000000001
 -0.0000086293199999  5.1745834920779998  0.0000000000000000
  4.4813356293200002  2.5872995079220003  0.0000000000000000
 -2.0010417407190002  7.7618752381169998  0.0000000000000000
 -4.4813215186740001  7.7618752381169998  1.8480745000000001
