Mg Sc Pd
 1.0000000000000000
     0.0000000000000000    3.2347880000000000    3.2347880000000000
     3.2347880000000000    0.0000000000000000    3.2347880000000000
     3.2347880000000000    3.2347880000000000    0.0000000000000000
 Mg  Sc  Pd 
   1   1   2
Cartesian
  1.6173940000000000  1.6173940000000000  1.6173940000000000
  4.8521820000000000  4.8521820000000000  4.8521820000000000
  0.0000000000000000  0.0000000000000000  0.0000000000000000
  3.2347880000000000  3.2347880000000000  3.2347880000000000
