Er Cu Pb
 1.0000000000000000
     4.5480109999999998    0.0000000000000000    0.0000000000000000
    -2.2740040000000001    3.9386930000000002    0.0000000000000000
     0.0000000000000000    0.0000000000000000    7.3023319999999998
 Er  Cu  Pb 
   2   2   2
Cartesian
  0.0000000000000000  0.0000000000000000  0.0189787608680000
  0.0000000000000000  0.0000000000000000  3.6701447608680002
  2.2740082740050003  1.3128963537689999  2.4535981566639999
 -0.0000012740050002  2.6257966462310001  6.1047641566640003
 -0.0000012740050002  2.6257966462310001  1.7043569864679999
  2.2740082740050003  1.3128963537689999  5.3555229864680003
