Na Cd Pb
 1.0000000000000000
     4.5069239999999997    0.0000000000000000    2.6020740000000000
     1.5023080000000000    4.2491690000000002    2.6020740000000000
     0.0000000000000000    0.0000000000000000    5.2041480000000000
 Na  Cd  Pb 
   2   1   1
Cartesian
  1.5023080000000000  1.0622922500000000  2.6020740000000000
  3.0046160000000000  2.1245845000000001  5.2041480000000000
  4.5069239999999997  3.1868767500000001  7.8062220000000000
  0.0000000000000000  0.0000000000000000  0.0000000000000000
