Ta Re Mo
 1.0000000000000000
     0.0000000000000000    3.2058059999999999    3.2058059999999999
     3.2058059999999999    0.0000000000000000    3.2058059999999999
     3.2058059999999999    3.2058059999999999    0.0000000000000000
 Ta  Re  Mo 
   2   1   1
Cartesian
  0.0000000000000000  0.0000000000000000  0.0000000000000000
  3.2058059999999999  3.2058059999999999  3.2058059999999999
  4.8087090000000003  4.8087090000000003  4.8087090000000003
  1.6029094116119997  1.6029094116119997  1.6029094116119997
