Ca In Pt
 1.0000000000000000
     4.4333470000000004    0.0000000000000000    0.0000000000000000
     0.0000000000000000    7.2923010000000001    0.0000000000000000
     0.0000000000000000    0.0000000000000000    8.3459219999999998
 Ca  In  Pt 
   4   4   4
Cartesian
  1.1083367500000001  0.2141238342630000  5.6575169135159999
  1.1083367500000001  3.8602743342630004  6.8613660864839998
  3.3250102500000001  7.0781771657370003  2.6884050864839999
  3.3250102500000001  3.4320266657370002  1.4845559135160000
  3.3250102500000001  2.5584090059369999  4.7171568440099998
  1.1083367500000001  1.0877414940629999  0.5441958440100000
  3.3250102500000001  6.2045595059369996  7.8017261559900000
  1.1083367500000001  4.7338919940630007  3.6287651559899996
  3.3250102500000001  1.6837995932009999  7.3261337908199993
  3.3250102500000001  5.3299500932010000  5.1927492091800005
  1.1083367500000001  5.6085014067990002  1.0197882091799999
  1.1083367500000001  1.9623509067989999  3.1531727908199998
