As I 
 1.0000000000000000
     6.5980509999999999   -0.0320960000000000    5.1515219999999999
     2.4958269999999998    6.1081440000000002    5.1512039999999999
    -0.0477810000000000   -0.0314870000000000    8.3707960000000003
 As  I  
   2   6
Cartesian
  1.7199163304159997  1.1492402938080000  3.5503593908159998
  7.3261806695840006  4.8953207061919999 15.1231626091840017
  2.9891401167170000  0.3302134069020000  8.8916930969479999
  6.0793241860530003  2.6352711422370003  6.6485606340399999
  2.2660690858049999  4.6081992698360006  7.8572024969620005
  6.0569568832829992  5.7143475930980001  9.7818289030520003
  2.9667728139469998  3.4092898577630004 12.0249613659599994
  6.7800279141950002  1.4363617301640002 10.8163195030380006
