Na Br O 
 1.0000000000000000
     6.6401539999999999    0.0000000000000000    0.0000000000000000
     0.0000000000000000    6.6401539999999999    0.0000000000000000
     0.0000000000000000    0.0000000000000000    6.6401539999999999
 Na  Br  O  
   4   4  12
Cartesian
  0.5222016310220000  0.5222016310220000  0.5222016310220000
  2.7978753689780000  6.1179523689780000  3.8422786310219998
  3.8422786310219998  2.7978753689780000  6.1179523689780000
  6.1179523689780000  3.8422786310219998  2.7978753689780000
  2.6733791216320002  2.6733791216320002  2.6733791216320002
  0.6466978783680001  3.9667748783680001  5.9934561216319997
  5.9934561216319997  0.6466978783680001  3.9667748783680001
  3.9667748783680001  5.9934561216319997  0.6466978783680001
  1.4404154064500001  2.6647934025100000  0.0382871279640000
  4.7604924064500000  0.6552835974900000  6.6018668720359992
  5.1997385935499993  5.9848704025099995  3.2817898720360001
  0.6552835974900000  6.6018668720359992  4.7604924064500000
  3.2817898720360001  5.1997385935499993  5.9848704025099995
  6.6018668720359992  4.7604924064500000  0.6552835974900000
  2.6647934025100000  0.0382871279640000  1.4404154064500001
  0.0382871279640000  1.4404154064500001  2.6647934025100000
  1.8796615935500001  3.9753605974899999  3.3583641279640002
  3.3583641279640002  1.8796615935500001  3.9753605974899999
  3.9753605974899999  3.3583641279640002  1.8796615935500001
  5.9848704025099995  3.2817898720360001  5.1997385935499993
