Nb Zn
 1.0000000000000000
     3.9479120000000001    0.0000000000000000    0.0000000000000000
     0.0000000000000000    3.9479120000000001    0.0000000000000000
     0.0000000000000000    0.0000000000000000    3.9479120000000001
 Nb  Zn 
   1   3
Cartesian
  0.0000000000000000  0.0000000000000000  0.0000000000000000
  1.9739560000000000  0.0000000000000000  1.9739560000000000
  0.0000000000000000  1.9739560000000000  1.9739560000000000
  1.9739560000000000  1.9739560000000000  0.0000000000000000
