Ca H  Ru
 1.0000000000000000
     0.0000000000000000    3.5966860000000000    3.5966860000000000
     3.5966860000000000    0.0000000000000000    3.5966860000000000
     3.5966860000000000    3.5966860000000000    0.0000000000000000
 Ca  H   Ru 
   2   6   1
Cartesian
  5.3950290000000001  5.3950290000000001  5.3950290000000001
  1.7983430000000000  1.7983430000000000  1.7983430000000000
  3.5966860000000000  3.5966860000000000  5.4878306921720004
  3.5966860000000000  1.7055413078280000  3.5966860000000000
  1.7055413078280000  3.5966860000000000  3.5966860000000000
  3.5966860000000000  3.5966860000000000  1.7055413078280000
  3.5966860000000000  5.4878306921720004  3.5966860000000000
  5.4878306921720004  3.5966860000000000  3.5966860000000000
  0.0000000000000000  0.0000000000000000  0.0000000000000000
