Mn Si Ru
 1.0000000000000000
     0.0000000000000000    2.9424009999999998    2.9424009999999998
     2.9424009999999998    0.0000000000000000    2.9424009999999998
     2.9424009999999998    2.9424009999999998    0.0000000000000000
 Mn  Si  Ru 
   1   1   2
Cartesian
  1.4711946151980000  1.4711946151980000  1.4711946151980000
  4.4135956151979991  4.4135956151979991  4.4135956151979991
  0.0000000000000000  0.0000000000000000  0.0000000000000000
  2.9424009999999998  2.9424009999999998  2.9424009999999998
