Cs B  H 
 1.0000000000000000
     0.0000000000000000    3.6659860000000002    3.6659860000000002
     3.6659860000000002    0.0000000000000000    3.6659860000000002
     3.6659860000000002    3.6659860000000002    0.0000000000000000
 Cs  B   H  
   1   1   4
Cartesian
  0.0000000000000000  0.0000000000000000  0.0000000000000000
  3.6659860000000002  3.6659860000000002  3.6659860000000002
  4.3744121325980005  4.3744121325980005  2.9575562014160002
  4.3744121325980005  2.9575562014160002  4.3744121325980005
  2.9575562014160002  4.3744121325980005  4.3744121325980005
  2.9575562014160002  2.9575562014160002  2.9575562014160002
