Sr Li N 
 1.0000000000000000
     3.9211860000000001    0.0000000000000000    0.0000000000000000
     0.0000000000000000    3.9211860000000001    0.0000000000000000
     0.0000000000000000    0.0000000000000000    7.0602999999999998
 Sr  Li  N  
   2   2   2
Cartesian
  0.0000000000000000  0.0000000000000000  5.2952250000000003
  0.0000000000000000  0.0000000000000000  1.7650749999999999
  1.9605930000000000  1.9605930000000000  3.5301499999999999
  1.9605930000000000  1.9605930000000000  0.0000000000000000
  0.0000000000000000  1.9605930000000000  0.0000000000000000
  1.9605930000000000  0.0000000000000000  3.5301499999999999
