Sc Al Au
 1.0000000000000000
     6.6074890000000002    0.0000000000000000    0.0000000000000000
     0.0000000000000000    6.6074890000000002    0.0000000000000000
     0.0000000000000000    0.0000000000000000    6.6074890000000002
 Sc  Al  Au 
   4   4   8
Cartesian
  3.3037445000000001  0.0000000000000000  0.0000000000000000
  3.3037445000000001  3.3037445000000001  3.3037445000000001
  0.0000000000000000  0.0000000000000000  3.3037445000000001
  0.0000000000000000  3.3037445000000001  0.0000000000000000
  0.0000000000000000  0.0000000000000000  0.0000000000000000
  0.0000000000000000  3.3037445000000001  3.3037445000000001
  3.3037445000000001  0.0000000000000000  3.3037445000000001
  3.3037445000000001  3.3037445000000001  0.0000000000000000
  1.6518722500000000  4.9556167499999999  4.9556167499999999
  4.9556167499999999  4.9556167499999999  4.9556167499999999
  1.6518722500000000  1.6518722500000000  1.6518722500000000
  4.9556167499999999  1.6518722500000000  1.6518722500000000
  4.9556167499999999  4.9556167499999999  1.6518722500000000
  1.6518722500000000  4.9556167499999999  1.6518722500000000
  4.9556167499999999  1.6518722500000000  4.9556167499999999
  1.6518722500000000  1.6518722500000000  4.9556167499999999
