Li Ag O 
 1.0000000000000000
     5.0765760000000002   -0.0000000000000000   -2.4916049999999998
    -1.3540019999999999    5.1158390000000002   -2.7587400000000000
     0.0141530000000000   -0.0009720000000000    6.4463299999999997
 Li  Ag  O  
   2   6   4
Cartesian
  0.5921430000000001  2.5579195000000001 -2.0022712499999997
  3.1304310000000006  2.5579195000000001 -3.2480737499999996
 -0.6699244999999999  2.5574335000000001  1.8437949999999999
  2.5453645000000003 -0.0004860000000000  1.9773624999999999
  1.8683635000000001  2.5574335000000001  0.5979925000000001
  2.5382880000000001  0.0000000000000000 -1.2458024999999999
  0.0000000000000000  0.0000000000000000  0.0000000000000000
  0.0070765000000000 -0.0004860000000000  3.2231649999999998
  3.8105443161300001  2.9947777687250001  1.3463851504799997
  1.7624456601900000  1.1426905755550001  3.5909342926800001
 -0.0738173161300000  2.1200892312750006 -0.1504001504800001
  1.9742813398100001  3.9721764244450006 -2.3949492926800002
