Cs Si F 
 1.0000000000000000
     5.4061490000000001    0.0000000000000000    3.1212409999999999
     1.8020499999999999    5.0969660000000001    3.1212409999999999
     0.0000000000000000    0.0000000000000000    6.2424819999999999
 Cs  Si  F  
   2   1   6
Cartesian
  5.4061492500000004  3.8227245000000001  9.3637230000000002
  1.8020497500000001  1.2742415000000000  3.1212409999999999
  0.0000000000000000  0.0000000000000000  0.0000000000000000
  2.4976699397919999  4.1132107862720000  8.1588740341440005
  2.4976699397919999  4.1132107862720000  4.3260899658560001
  4.7105290602080006  0.9837552137280001  8.1588740341440005
  4.7105290602080006  0.9837552137280001  4.3260899658560001
  5.8169589274080007  4.1132107862720000  6.2424819999999999
  1.3912400725920002  0.9837552137280001  6.2424819999999999
