Na Sc S 
 1.0000000000000000
    -1.8794439999999999   -3.2552910000000002    0.0000000000000000
    -3.7588870000000001    0.0000000000000000    0.0000000000000000
    -1.8794439999999999   -1.0850979999999999   -6.5539509999999996
 Na  Sc  S  
   1   1   2
Cartesian
 -3.7588875000000002 -2.1701945000000000 -3.2769754999999998
  0.0000000000000000  0.0000000000000000  0.0000000000000000
 -5.6383312604569999 -3.2552917813710001 -5.1210672468210001
 -1.8794437395429999 -1.0850972186290000 -1.4328837531790000
