Ba Mg H 
 1.0000000000000000
     5.7177840000000000   -0.0000470000000000   -0.0000090000000000
    -2.8589329999999999    4.9518030000000000    0.0000160000000000
    -0.0000080000000000    0.0000100000000000    4.5383100000000001
 Ba  Mg  H  
   2   1   6
Cartesian
  2.8588676203670000  1.6505706865240000  1.2119005591230001
 -0.0000246203670001  3.3011953134759997  3.3264164408770003
  0.0000000000000000  0.0000000000000000  0.0000000000000000
  2.8588387551109999  3.2645389726199996  3.5186773589949998
  4.2565796756180001  0.8435876305009999  3.5186649982370000
  1.4611379246659997  0.8436106089419999  3.5186693983640001
  0.0000042448890000  1.6872270273800001  1.0196396410050002
 -1.3977366756179999  4.1081783694989999  1.0196520017630000
  1.3977050753340001  4.1081553910580002  1.0196476016360001
