Sn Ru
 1.0000000000000000
     7.6797899999999997   -0.0000000000000000   -2.7152159999999999
    -3.8398960000000000    6.6508929999999999   -2.7152159999999999
     0.0000000000000000    0.0000000000000000    8.1456490000000006
 Sn  Ru 
  14   6
Cartesian
 -0.9599745000000001  4.9881697500000000  1.3576085000000004
  4.7998684999999996  1.6627232500000000  1.3576085000000004
  0.9599729999999999  4.9881697500000000 -1.3576077499999997
  2.8799210000000000  1.6627232500000000  4.0728247500000005
  3.8398944999999998  3.3254465000000000 -1.3576077499999997
 -0.0000005000000001  3.3254465000000000  4.0728247500000005
  1.2334123517399997  2.1363333405299998  0.8721548525700001
  2.4668253458999998  0.0000000000000000 -0.8721545313600000
 -1.2334129941600001  2.1363333405299998 -0.8721545313600000
  0.0000000000000000  0.0000000000000000  2.6164639152900002
 -2.6064830058399999  4.5145596594699997 -1.8430614686400000
  0.0000000000000000  0.0000000000000000  5.5291850847100008
  5.2129646540999994  0.0000000000000000 -1.8430614686400000
  2.6064816482599995  4.5145596594699997  1.8430621474300004
 -1.3243033324800000  2.2937599778400002  1.8728477330400004
  2.6486059752000002  0.0000000000000000  1.8728477330400004
  5.0311840247999999  0.0000000000000000  3.5575852669600008
  2.5155913572799999  4.3571330221600002 -3.5575846118399999
  1.3243026427200002  2.2937599778400002 -1.8728473881600001
 -2.5155926675200000  4.3571330221600002  3.5575852669600008
