Hf Ge Pt
 1.0000000000000000
     3.9585050000000002    0.0000000000000000    0.0000000000000000
     0.0000000000000000    6.6233899999999997    0.0000000000000000
     0.0000000000000000    0.0000000000000000    7.6549410000000000
 Hf  Ge  Pt 
   4   4   4
Cartesian
  2.9688787500000000  3.1201266910299998  5.2292203310970002
  0.9896262500000000  0.1915683089700000  1.4017498310970000
  2.9688787500000000  6.4318216910299997  6.2531911689030002
  0.9896262500000000  3.5032633089699998  2.4257206689030002
  0.9896262500000000  1.6564171115399997  6.7264732061099997
  0.9896262500000000  4.9681121115400000  4.7559382938899999
  2.9688787500000000  4.9669728884600000  0.9284677938900000
  2.9688787500000000  1.6552778884599999  2.8990027061100001
  0.9896262500000000  4.2667944613900000  7.1587324144980000
  0.9896262500000000  0.9550994613899999  4.3236790855020004
  2.9688787500000000  5.6682905386100000  3.3312619144980000
  2.9688787500000000  2.3565955386099997  0.4962085855020000
