Al O 
 1.0000000000000000
     4.8054059999999996    0.0000000000000000    0.0000000000000000
    -2.4027040000000000    4.1616039999999996    0.0000000000000000
     0.0000000000000000    0.0000000000000000   13.1119970000000006
 Al  O  
  12  18
Cartesian
  0.0000000000000000  0.0000000000000000  4.6175339755170004
  2.4027050693700001  1.3871999461319999  8.9882083835149995
 -0.0000030693700002  2.7744040538679999  0.2468726795160000
  0.0000000000000000  0.0000000000000000  1.9384645244830001
  2.4027050693700001  1.3871999461319999  6.3091258204839997
 -0.0000030693700002  2.7744040538679999 10.6797871164850005
  0.0000000000000000  0.0000000000000000 11.1735324755169998
  2.4027050693700001  1.3871999461319999  2.4322098835150001
 -0.0000030693700002  2.7744040538679999  6.8028711795160000
  0.0000000000000000  0.0000000000000000  8.4944630244830019
  2.4027050693700001  1.3871999461319999 12.8651243204840018
 -0.0000030693700002  2.7744040538679999  4.1237886164850002
  3.1383241341219996  0.1130707806800000  7.6486605460010004
  0.7356183980859998  1.5002707268119999 12.0193349539990013
 -1.6670825325440000  2.8874706729439996  3.2779992500000001
 -0.7356191190920001  1.5002707268119999  5.4633364539990001
  1.6670811448720000  2.8874706729439996  9.8339977500000000
  1.6670818115379999  0.1130707806800000  1.0926620460010001
  3.1383211190919993  2.6613332731879997  7.6486605460010004
  0.7356201884619996  4.0485332193199994 12.0193349539990013
  0.7356208551279999  1.2741333270559998  3.2779992500000001
  0.9314627467859999  1.3871999461319999  7.6486605460010004
 -1.4712405865480001  2.7744040538679999 12.0193349539990013
  3.3341636774159999  0.0000000000000000  3.2779992500000001
  1.4712392532139995  2.7744040538679999  5.4633364539990001
  1.4712423225839999  0.0000000000000000  9.8339977500000000
  3.8739425865479995  1.3871999461319999  1.0926620460010001
 -0.7356221341220001  4.0485332193199994  5.4633364539990001
 -0.7356214674560000  1.2741333270559998  9.8339977500000000
  1.6670836019139998  2.6613332731879997  1.0926620460010001
