Cu Hg Ge Se
 1.0000000000000000
    -2.9305740000000000    2.9305740000000000    5.6030680000000004
     2.9305740000000000   -2.9305740000000000    5.6030680000000004
     2.9305740000000000    2.9305740000000000   -5.6030680000000004
 Cu  Hg  Ge  Se 
   2   1   1   4
Cartesian
  0.0000000000000000  2.9305740000000000  2.8015340000000002
  2.9305740000000000  0.0000000000000000  2.8015340000000002
  0.0000000000000000  0.0000000000000000  0.0000000000000000
  0.0000000000000000  0.0000000000000000  5.6030680000000004
  1.5841862483280003  1.5841862483280003  1.5407092263680005
  1.3463877516720000 -1.3463877516720000  4.0623587736320008
 -1.3463877516720002  1.3463877516720002  4.0623587736320008
  1.3463877516720000  1.3463877516720000  7.1437772263680008
