Li Pd
 1.0000000000000000
     4.2504619999999997    0.0000000000000000    0.0000000000000000
    -2.1252320000000000    3.6810090000000000    0.0000000000000000
     0.0000000000000000    0.0000000000000000    2.7219899999999999
 Li  Pd 
   2   1
Cartesian
  2.1252327918980001  1.2270017729970000  1.3609950000000000
 -0.0000027918980001  2.4540072270030002  1.3609950000000000
  0.0000000000000000  0.0000000000000000  0.0000000000000000
