La Al N 
 1.0000000000000000
     5.0975159999999997    0.0000000000000000    0.0000000000000000
     0.0000000000000000    5.0975229999999998    0.0000000000000000
     0.0000000000000000    0.0000000000000000    5.0975149999999996
 La  Al  N  
   3   1   1
Cartesian
  2.5487579999999999  2.5487614999999999  0.0000000000000000
  0.0000000000000000  2.5487614999999999  2.5487574999999998
  2.5487579999999999  0.0000000000000000  2.5487574999999998
  0.0000000000000000  0.0000000000000000  0.0000000000000000
  2.5487579999999999  2.5487614999999999  2.5487574999999998
