Mg Al Cu
 1.0000000000000000
     4.0168179999999998    0.0000000000000000    0.0000000000000000
     0.0000000000000000    9.2981979999999993    0.0000000000000000
     0.0000000000000000    0.0000000000000000    7.1274150000000001
 Mg  Al  Cu 
   4   8   4
Cartesian
  0.0000000000000000  0.6013795520459999  5.3455612500000003
  0.0000000000000000  8.6968184479539996  1.7818537500000000
  2.0084089999999999  5.2504785520459993  5.3455612500000003
  2.0084089999999999  4.0477194479540000  1.7818537500000000
  2.0084089999999999  7.9564959231939989  6.7352503718700003
  2.0084089999999999  7.9564959231939989  3.9558721281300002
  2.0084089999999999  1.3417020768060000  0.3921646281300000
  2.0084089999999999  1.3417020768060000  3.1715428718699998
  0.0000000000000000  3.3073969231939997  6.7352503718700003
  0.0000000000000000  3.3073969231939997  3.9558721281300002
  0.0000000000000000  5.9908010768060000  0.3921646281300000
  0.0000000000000000  5.9908010768060000  3.1715428718699998
  0.0000000000000000  7.2516181292099997  5.3455612500000003
  0.0000000000000000  2.0465798707899996  1.7818537500000000
  2.0084089999999999  2.6025191292100001  5.3455612500000003
  2.0084089999999999  6.6956788707899992  1.7818537500000000
