Er Ga Rh
 1.0000000000000000
     0.0000000000000000    3.1817650000000000    3.1817650000000000
     3.1817650000000000    0.0000000000000000    3.1817650000000000
     3.1817650000000000    3.1817650000000000    0.0000000000000000
 Er  Ga  Rh 
   1   1   2
Cartesian
  1.5908825000000000  1.5908825000000000  1.5908825000000000
  4.7726474999999997  4.7726474999999997  4.7726474999999997
  0.0000000000000000  0.0000000000000000  0.0000000000000000
  3.1817713635300002  3.1817713635300002  3.1817713635300002
