Pm Zn Si
 1.0000000000000000
     0.0000000000000000    3.6112299999999999    3.6112299999999999
     3.6112299999999999    0.0000000000000000    3.6112299999999999
     3.6112299999999999    3.6112299999999999    0.0000000000000000
 Pm  Zn  Si 
   2   1   1
Cartesian
  0.0000000000000000  0.0000000000000000  0.0000000000000000
  3.6112372224600002  3.6112372224600002  3.6112372224600002
  5.4168522224600002  5.4168522224600002  5.4168522224600002
  1.8056150000000000  1.8056150000000000  1.8056150000000000
