Co Se
 1.0000000000000000
     6.0998219999999996   -0.0079360000000000    3.5293890000000001
     2.0203210000000000    5.7557910000000003    3.5296010000000000
     0.0001470000000000    0.0003610000000000    7.0587600000000004
 Co  Se 
   6   8
Cartesian
  1.0132377603159999  0.7172107228540001  1.7643304656200001
  7.1070379821829999  5.0310168157849997 12.3534795342549995
  4.0601673409899997  2.8741194899400000  7.0589349999289999
  4.0602570787770000  2.8743114795130000 10.5882091189890009
  7.1100152834429986  2.8701630884570002  8.8235906770919996
  5.0703667309330003  5.7518997677029997  8.8236472611260002
  2.1206077282890003  1.5012163316330001  3.6988820715270001
  5.9993148926880000  4.2468484426540005  7.2288801680250012
  3.2295106340580002  4.2409935080499999  8.8235978348609994
  5.0731225327309994  1.6363651638409999  8.8235161497070003
  4.8908201989289992  1.5071475772050003  5.2941027510450001
  3.0471040975269998  4.1120006338990001  5.2941879739279996
  2.1209651642299998  1.5012696847360001  6.8889721802740009
  5.9996434955519993  4.2470630578180000 10.4188008725939998
