Mn Al Ir
 1.0000000000000000
     0.0000000000000000    3.0150229999999998    3.0150229999999998
     3.0150229999999998    0.0000000000000000    3.0150229999999998
     3.0150229999999998    3.0150229999999998    0.0000000000000000
 Mn  Al  Ir 
   1   1   2
Cartesian
  4.5225284699539996  4.5225284699539996  4.5225284699539996
  1.5075114999999999  1.5075114999999999  1.5075114999999999
  0.0000000000000000  0.0000000000000000  0.0000000000000000
  3.0150229999999998  3.0150229999999998  3.0150229999999998
