Sn As
 1.0000000000000000
     5.8191430000000004    0.0000000000000000    0.0000000000000000
     0.0000000000000000    5.8191430000000004    0.0000000000000000
     0.0000000000000000    0.0000000000000000    5.8193120000000000
 Sn  As 
   3   4
Cartesian
  0.0000000000000000  0.0000000000000000  0.0000000000000000
  2.9095715000000002  0.0000000000000000  2.9096560000000000
  0.0000000000000000  2.9095715000000002  2.9096560000000000
  1.6543765357570002  4.1647664642430007  4.5640049312320006
  4.1647664642430007  1.6543765357570002  4.5640049312320006
  1.6543765357570002  1.6543765357570002  1.2553070687679999
  4.1647664642430007  4.1647664642430007  1.2553070687679999
