Nd Se
 1.0000000000000000
     3.6582690000000002    0.0000000000000000    2.1121020000000001
     1.2194229999999999    3.4490500000000002    2.1121020000000001
    -0.0000000000000000   -0.0000000000000000    4.2242059999999997
 Nd  Se 
   1   1
Cartesian
  0.0000000000000000  0.0000000000000000  0.0000000000000000
  2.4388459999999998  1.7245250000000001  4.2242049999999995
