Be Co
 1.0000000000000000
     2.5954799999999998    0.0000000000000000    0.0000000000000000
     0.0000000000000000    2.5954799999999998    0.0000000000000000
     0.0000000000000000    0.0000000000000000    2.5954799999999998
 Be  Co 
   1   1
Cartesian
  0.0000000000000000  0.0000000000000000  0.0000000000000000
  1.2977399999999999  1.2977399999999999  1.2977399999999999
