Li Sc Tl
 1.0000000000000000
     0.0000000000000000    3.5235930000000000    3.5235930000000000
     3.5235930000000000    0.0000000000000000    3.5235930000000000
     3.5235930000000000    3.5235930000000000    0.0000000000000000
 Li  Sc  Tl 
   1   1   2
Cartesian
  1.7617965000000000  1.7617965000000000  1.7617965000000000
  5.2853965471860000  5.2853965471860000  5.2853965471860000
  0.0000000000000000  0.0000000000000000  0.0000000000000000
  3.5235930000000000  3.5235930000000000  3.5235930000000000
