Mg C  N 
 1.0000000000000000
     3.0939000000000001    0.0050020000000000    4.0259260000000001
     1.3718239999999999    2.7731479999999999    4.0259260000000001
     0.0080410000000000    0.0050020000000000    5.0774249999999999
 Mg  C   N  
   1   1   2
Cartesian
  0.0000000000000000  0.0000000000000000  0.0000000000000000
  2.2368825000000001  1.3915760000000001  6.5646385000000000
  1.8494678722950002  1.1505633862560001  5.4276824996310005
  2.6242971277050002  1.6325886137440000  7.7015945003690005
