Sm B 
 1.0000000000000000
     4.1121869999999996    0.0000000000000000    0.0000000000000000
     0.0000000000000000    4.1121869999999996    0.0000000000000000
     0.0000000000000000    0.0000000000000000    4.1121869999999996
 Sm  B  
   1   6
Cartesian
  0.0000000000000000  0.0000000000000000  0.0000000000000000
  0.8201510240280000  2.0560934999999998  2.0560934999999998
  2.0560934999999998  2.0560934999999998  3.2920359759719999
  2.0560934999999998  2.0560934999999998  0.8201510240280000
  2.0560934999999998  0.8201510240280000  2.0560934999999998
  2.0560934999999998  3.2920359759719999  2.0560934999999998
  3.2920359759719999  2.0560934999999998  2.0560934999999998
