Cu B  Ir
 1.0000000000000000
     0.0000000000000000    4.3391710000000003    4.9732779999999996
     3.2634379999999998    0.0000000000000000    4.9732779999999996
     3.2634379999999998    4.3391710000000003    0.0000000000000000
 Cu  B   Ir 
   4   4   4
Cartesian
  3.8348333594200001  5.7723427720769998  8.5968431637459997
  2.2031143594199998  3.6027572720770005  3.8363518362539999
  2.2031143594199998  5.0755847279230002  6.1102041637460003
  3.8348333594199997  7.2451702279230004  6.3229908362539993
  5.0549283976039998  2.6821327176910006  5.1563393899019996
  3.4232061341660001  3.8266237823089999  7.6429734166239989
  5.0549283976039998  5.9962136214799999  4.7902215833759998
  3.4232061341660001  4.8517138785200000  2.3035776100979999
  4.8976176322519995  4.1985948771129999  3.6102666183740002
  3.2658953688139998  2.3101616228870001  6.0969006450959995
  3.2658953688139998  6.3681760379420007  3.8496503816259993
  4.8976176322519995  4.4797514620580010  6.3362943549039992
