As Pd
 1.0000000000000000
     3.3398390000000000    0.0000000000000000   -0.6434200000000000
     0.0000000000000000    6.5682510000000001    0.0000000000000000
    -0.0738790000000000    0.0000000000000000    8.6063639999999992
 As  Pd 
   4   8
Cartesian
  0.6401206234960000  1.5191707737900000  3.3227268231999996
  2.6258393765040000  4.8032962737900000  4.6402171767999993
  1.8569499838310000  4.5861564639810002  0.6491102879719999
  1.4090100161690002  1.3020309639809999  7.3138337120279990
  2.2365714088369999  6.3236296280069997  2.6196318111799997
  1.0293885911630001  3.0395041280069997  5.3433121888199997
  1.3298179002770001  5.4231355524090006  6.9027399307639996
  1.9361420997229997  2.1390100524089997  1.0602040692360000
  0.5319187277180000  4.0228501217190002  2.7610683835599996
  2.7340412722819996  0.7387246217190000  5.2018756164399997
  3.1360583375839997  3.1783438176450001  7.2886474045759995
  0.1299015885370000  6.4624693176449997  0.6743052017880000
