Ba Cd Ge
 1.0000000000000000
     4.7001429999999997   -0.0000000000000000    0.0000000000000000
    -2.3500730000000001    4.0704440000000002    0.0000000000000000
     0.0000000000000000    0.0000000000000000    9.6742480000000004
 Ba  Cd  Ge 
   2   2   2
Cartesian
  0.0000000000000000  0.0000000000000000  4.8371240000000002
  0.0000000000000000  0.0000000000000000  0.0000000000000000
 -0.0000033500720001  2.7136306901480003  2.4185620000000001
  2.3500733500719999  1.3568133098520001  7.2556860000000007
  2.3500733500719999  1.3568133098520001  2.4185620000000001
 -0.0000033500720001  2.7136306901480003  7.2556860000000007
