Cr Si
 1.0000000000000000
     2.8547530000000001    0.0000000000000000   -1.0878360000000000
    -0.4145300000000000    2.8244989999999999   -1.0878350000000001
     0.0092170000000000    0.0106680000000000    4.3139070000000004
 Cr  Si 
   1   2
Cartesian
  0.0000000000000000  0.0000000000000000  0.0000000000000000
  1.6199235493980002  1.8750221126900000 -0.0386267181980001
  0.8295164506020002  0.9601448873100000  2.1768627181980005
