Th S 
 1.0000000000000000
     7.6466930000000000    0.0000000000000000    0.0000000000000000
     0.0000000000000000    7.6838579999999999    0.0000000000000000
     0.0000000000000000    0.0000000000000000   10.2261810000000004
 Th  S  
   8  20
Cartesian
  5.8714826332780001  0.1550756221560000  8.7330869907329998
  2.0481361332779997  7.5287823778439993  6.6061845092670000
  5.5985568667219994  3.9970046221560001  6.6061845092670000
  1.7752103667220001  3.6868533778440002  8.7330869907329998
  1.7752103667220001  7.5287823778439993  1.4930940092670000
  5.5985568667219994  0.1550756221560000  3.6199964907330000
  2.0481361332779997  3.6868533778440002  3.6199964907330000
  5.8714826332780001  3.9970046221560001  1.4930940092670000
  0.0000000000000000  5.7628934999999997  7.6846580098890005
  3.8233465000000000  1.9209645000000000  7.6546134901110001
  0.0000000000000000  1.9209645000000000  2.5415229901109999
  3.8233465000000000  5.7628934999999997  2.5715675098890003
  4.8793012764490005  2.9891821230179998  4.0065665848950003
  1.0559547764490000  4.6946758769820001  1.1065239151049999
  6.5907382235509999  6.8311111230179993  1.1065239151049999
  2.7673917235509999  0.8527545608399999  4.0065665848950003
  2.7673917235509999  4.6946758769820001  6.2196144151050001
  6.5907382235509999  2.9891821230179998  9.1196570848949996
  1.0559547764490000  0.8527545608399999  9.1196570848949996
  4.8793012764490005  6.8311111230179993  6.2196144151050001
  0.7460113690800000  6.5232035652419995  4.0731594755670004
  4.5693578690800001  1.1606544347579999  1.0399310244330000
  3.0773351309200003  2.6812745652420000  1.0399310244330000
  6.9006816309200003  5.0025834347579998  4.0731594755670004
  6.9006816309200003  1.1606544347579999  6.1530215244330009
  3.0773351309200003  6.5232035652419995  9.1862499755669997
  4.5693578690800001  5.0025834347579998  9.1862499755669997
  0.7460113690800000  2.6812745652420000  6.1530215244330009
