Li B  F 
 1.0000000000000000
     4.7333319999999999    0.0000000000000000    0.0000000000000000
    -2.3666659999999999    4.0991860000000004    0.0000000000000000
     0.0000000000000000    0.0000000000000000   10.8396620000000006
 Li  B   F  
   3   3  12
Cartesian
 -1.0674444659780000  1.8488681591380003  7.2264449465540004
  2.1348889319560000  0.0000000000000000  3.6132170534460002
  1.2992215340219999  2.2503178408620004  0.0000000000000000
  1.3161857959100001  2.2797008061100006  5.4198310000000003
 -1.0504802040900001  1.8194851938900003  1.8066139465540001
  2.1009604081800002  0.0000000000000000  9.0330480534460005
  0.5485553121440001  3.7678733907360002 10.1288620040119994
 -1.1706902702279998  2.6903203669160001  2.9024170574580004
  0.6221207580880000  1.7401864407200003  6.5156341109040001
  2.9152307788079996  0.3313126092640000  7.9372449425420006
  1.1959851964359998  1.4088656330840001  4.3240278890960004
  2.9887962247519995  2.3589995592800004  0.7107999959879999
  0.3012860484640000  1.6643842932080002  1.4588017119600001
  0.7746263484620001  3.5279111414820004  5.0720187654060007
 -1.0759052969280001  3.0060724661240004  8.6852358188520000
  2.6679473151319995  2.4348017067920007  5.7676432345939999
  3.1412876151300000  0.5712748585180000  2.1544261811480001
  1.2907559697399997  1.0931135338760001  9.3808602880400009
