Na Ho Tl
 1.0000000000000000
     0.0000000000000000    3.7290169999999998    3.7290169999999998
     3.7290169999999998    0.0000000000000000    3.7290169999999998
     3.7290169999999998    3.7290169999999998    0.0000000000000000
 Na  Ho  Tl 
   1   1   2
Cartesian
  5.5935255000000002  5.5935255000000002  5.5935255000000002
  1.8645084999999999  1.8645084999999999  1.8645084999999999
  0.0000000000000000  0.0000000000000000  0.0000000000000000
  3.7290095419660001  3.7290095419660001  3.7290095419660001
