Sr Co As
 1.0000000000000000
     3.7968810000000000    0.0000000000000000   -1.1983960000000000
    -0.3782450000000000    3.7779940000000001   -1.1983960000000000
    -0.0744160000000000   -0.0822380000000000    6.3782649999999999
 Sr  Co  As 
   1   2   2
Cartesian
  0.0000000000000000  0.0000000000000000  0.0000000000000000
  0.6283285000000000  2.7923765000000000  1.9907364999999999
  2.7158915000000001  0.9033795000000000  1.9907364999999999
  1.1488586401999998  1.2696239211340001  3.6399417635170002
  2.1953613597999997  2.4261320788659999  0.3415312364830002
