Ta Sn
 1.0000000000000000
     5.3262840000000002    0.0000000000000000    0.0000000000000000
     0.0000000000000000    5.3262840000000002    0.0000000000000000
     0.0000000000000000    0.0000000000000000    5.3262840000000002
 Ta  Sn 
   6   2
Cartesian
  1.3315710000000001  0.0000000000000000  2.6631420000000001
  3.9947130000000000  0.0000000000000000  2.6631420000000001
  0.0000000000000000  2.6631420000000001  1.3315710000000001
  0.0000000000000000  2.6631420000000001  3.9947130000000000
  2.6631420000000001  3.9947130000000000  0.0000000000000000
  2.6631420000000001  1.3315710000000001  0.0000000000000000
  0.0000000000000000  0.0000000000000000  0.0000000000000000
  2.6631420000000001  2.6631420000000001  2.6631420000000001
