Na Zn N 
 1.0000000000000000
     1.7251840000000001   -2.9881069999999998    0.0000000000000000
     1.7251840000000001    2.9881069999999998    0.0000000000000000
     0.0000000000000000    0.0000000000000000    8.6872199999999999
 Na  Zn  N  
   2   2   2
Cartesian
  1.7251840000000001 -0.9960376587380000  6.6117215209200006
  1.7251840000000001  0.9960376587380000  2.2681115209199998
  0.0000000000000000  0.0000000000000000  4.6122535912799991
  0.0000000000000000  0.0000000000000000  0.2686435912800000
  1.7251840000000001  0.9960376587380000  4.8008183885999998
  1.7251840000000001 -0.9960376587380000  0.4572083886000000
