Li Ge Au
 1.0000000000000000
     0.0000000000000000    3.1888139999999998    3.1888139999999998
     3.1888139999999998    0.0000000000000000    3.1888139999999998
     3.1888139999999998    3.1888139999999998    0.0000000000000000
 Li  Ge  Au 
   1   1   2
Cartesian
  4.7832209999999993  4.7832209999999993  4.7832209999999993
  1.5944069999999999  1.5944069999999999  1.5944069999999999
  3.1888139999999998  3.1888139999999998  3.1888139999999998
  0.0000000000000000  0.0000000000000000  0.0000000000000000
