Ba Mg Pb
 1.0000000000000000
     4.9781740000000001    0.0000000000000000    0.0000000000000000
     0.0000000000000000    4.9781740000000001    0.0000000000000000
     0.0000000000000000    0.0000000000000000   12.3170710000000003
 Ba  Mg  Pb 
   2   4   4
Cartesian
  1.2445435000000000  1.2445435000000000  3.0725672633760004
  3.7336305000000003  3.7336305000000003  9.2445037366240008
  3.7336305000000003  3.7336305000000003  4.4898433550620007
  1.2445435000000000  1.2445435000000000  7.8272276449379996
  3.7336305000000003  1.2445435000000000  0.0000000000000000
  1.2445435000000000  3.7336305000000003  0.0000000000000000
  3.7336305000000003  1.2445435000000000  6.1585355000000002
  1.2445435000000000  3.7336305000000003  6.1585355000000002
  1.2445435000000000  1.2445435000000000 10.6709067779209992
  3.7336305000000003  3.7336305000000003  1.6461642220789998
