Ti Re Rh
 1.0000000000000000
     0.0046840000000000    3.0979340000000000    3.0971370000000000
     3.0976080000000001    0.0043980000000000    3.0974640000000000
     3.0973310000000001    3.0970740000000001    0.0053150000000000
 Ti  Re  Rh 
   2   1   1
Cartesian
  3.1023998669190003  3.1024831271900002  6.1938894530510007
  3.0996726823600000  3.0995456697680002  3.1006757030370000
  1.5499336177190000  1.5498608070939999  1.5499852221570001
  4.6497296396010004  4.6495637956199998  4.6499401134089995
