Nd Si
 1.0000000000000000
     7.0273440000000003    0.0003050000000000   -3.4438119999999999
    -1.6875549999999999    6.8216989999999997   -3.4438219999999999
     0.0010550000000000    0.0012520000000000    8.8932570000000002
 Nd  Si 
  10   6
Cartesian
  4.4562806815479998  1.2040995825390000  3.3615891550899999
  1.1864300664320002  0.2176521478330000  5.5811901082440007
 -0.6732444991879999  3.6288395902509998  4.3569959978960009
  2.7443683261759997  2.2081805094780003 -0.1315859322849996
  0.8845633184520001  5.6191564174609994 -1.3559661550899995
  2.5964756738240000  4.6150754905219999  2.1372089322850010
  4.1544139335680006  6.6056038521669995 -3.5755671082439999
  0.0000000000000000  0.0000000000000000  0.0000000000000000
  6.0140884991880004  3.1944164097489995 -2.3513729978959996
  2.6698945000000003  3.4110019999999999 -3.4438170000000001
  0.1511479263860000  2.6340669323449997  7.1713769999800006
  4.1227162913519999  0.7781202242709999 -2.5072140116180002
  1.2181277086480000  6.0451357757290003  4.5128370116180001
  5.1896960736140008  4.1891890676549997 -5.1657539999799997
  1.3354027768910004  1.7059632305240000  2.7245464887250002
  4.0054412231090009  5.1172927694759993 -0.7189234887249993
