Sc Be
 1.0000000000000000
     4.5295220000000000    0.0000000000000000    0.0000000000000000
    -2.2647620000000002    3.9226820000000000    0.0000000000000000
     0.0000000000000000    0.0000000000000000    3.5144850000000001
 Sc  Be 
   1   5
Cartesian
  0.0000000000000000  0.0000000000000000  0.0000000000000000
 -0.0000029314280002  2.6151226408940000  0.0000000000000000
  2.2647629314279998  1.3075593591060000  0.0000000000000000
  2.2647610000000000  0.0000000000000000  1.7572425000000000
  1.1323799999999999  1.9613410000000000  1.7572425000000000
 -1.1323810000000001  1.9613410000000000  1.7572425000000000
