Hg S 
 1.0000000000000000
     3.6370790000000000    0.0000000000000000    2.0998679999999998
     1.2123590000000000    3.4290720000000001    2.0998679999999998
     0.0000000000000000    0.0000000000000000    4.1997350000000004
 Hg  S  
   1   1
Cartesian
  0.0000000000000000  0.0000000000000000  0.0000000000000000
  1.2123595000000000  0.8572680000000000  2.0998677500000000
