Mg Pt
 1.0000000000000000
     4.6241149999999998    0.0000000000000000    0.0000000000000000
    -2.3120579999999999    4.0046020000000002    0.0000000000000000
     0.0000000000000000    0.0000000000000000    8.3587959999999999
 Mg  Pt 
   6   2
Cartesian
  2.3120596453909998  1.3348659984660001  4.8217213198240003
 -0.0000026453910001  2.6697360015340004  0.6423233198239999
  2.3120596453909998  1.3348659984660001  7.7164726801759995
  0.0000000000000000  0.0000000000000000  2.0896990000000000
  0.0000000000000000  0.0000000000000000  6.2690970000000004
 -0.0000026453910001  2.6697360015340004  3.5370746801759996
  2.3120596453909998  1.3348659984660001  2.0896990000000000
 -0.0000026453910001  2.6697360015340004  6.2690970000000004
