Nd S  O 
 1.0000000000000000
     3.9686740000000000    0.0000000000000000    0.0000000000000000
    -1.9843370000000000    3.4369730000000001    0.0000000000000000
     0.0000000000000000    0.0000000000000000    6.8276610000000000
 Nd  S   O  
   2   1   2
Cartesian
  1.9843389843370003  1.1456565210090000  4.9103855145899997
 -0.0000019843370000  2.2913164789909999  1.9172754854100000
  0.0000000000000000  0.0000000000000000  0.0000000000000000
 -0.0000019843370000  2.2913164789909999  4.2950767052700005
  1.9843389843370003  1.1456565210090000  2.5325842947299999
