Th Rh
 1.0000000000000000
     4.1088889999999996    0.0000000000000000    0.0000000000000000
     0.0000000000000000    4.1088889999999996    0.0000000000000000
     0.0000000000000000    0.0000000000000000    4.1088889999999996
 Th  Rh 
   1   3
Cartesian
  0.0000000000000000  0.0000000000000000  0.0000000000000000
  0.0000000000000000  2.0544444999999998  2.0544444999999998
  2.0544444999999998  2.0544444999999998  0.0000000000000000
  2.0544444999999998  0.0000000000000000  2.0544444999999998
