Tb Co Ge
 1.0000000000000000
     3.6868789999999998    0.0000000000000000   -1.3572020000000000
    -0.4996090000000000    3.6528700000000001   -1.3572020000000000
     0.0244080000000000    0.0279730000000000    5.7526619999999999
 Tb  Co  Ge 
   1   2   2
Cartesian
  0.0000000000000000  0.0000000000000000  0.0000000000000000
  0.5592170000000000  2.7536390000000002  1.5191290000000000
  2.6524610000000002  0.9272040000000000  1.5191290000000000
  2.0100610430599999  2.3036928884850001 -0.2259630798979999
  1.2016169569399999  1.3771501115150000  3.2642210798980003
