U  Si C 
 1.0000000000000000
    -1.8287770000000001    1.8287770000000001    8.3667990000000003
     1.8287770000000001   -1.8287770000000001    8.3667990000000003
     1.8287770000000001    1.8287770000000001   -8.3667990000000003
 U   Si  C  
   3   2   2
Cartesian
 -0.0000000000000000  0.0000000000000000 13.8582973228560000
 -0.0000000000000000  0.0000000000000000  2.8753006771440002
  0.0000000000000000  0.0000000000000000  0.0000000000000000
  0.0000000000000001 -0.0000000000000001  9.7599881686860002
  0.0000000000000001 -0.0000000000000001  6.9736098313139996
 -0.0000000000000000  0.0000000000000000 11.6434884923700004
  0.0000000000000000 -0.0000000000000000  5.0901095076300003
