Ti Zn
 1.0000000000000000
     3.0210260000000000    0.0000000000000000    0.0000000000000000
     0.0000000000000000    3.0210249999999998    0.0000000000000000
    -1.5105109999999999   -1.5105109999999999    5.2921709999999997
 Ti  Zn 
   2   1
Cartesian
  1.5105136549600002  1.5105129912199999  1.7330801590799998
  0.0000013450400001  0.0000010087800000  3.5590908409199997
  0.0000000000000000  0.0000000000000000  0.0000000000000000
