Zr Sb Pd
 1.0000000000000000
     4.3330330000000004    0.0000000000000000    0.0000000000000000
     0.0000000000000000    6.8456120000000000    0.0000000000000000
     0.0000000000000000    0.0000000000000000    7.9852819999999998
 Zr  Sb  Pd 
   4   4   4
Cartesian
  3.2497747500000003  3.3153709652720003  2.4322610002260001
  1.0832582500000001  3.5302410347279998  5.5530209997739997
  3.2497747500000003  6.7381769652720003  1.5603799997740000
  1.0832582500000001  0.1074350347280000  6.4249020002260000
  3.2497747500000003  5.0013014430200000  7.1544772901559996
  1.0832582500000001  1.8443105569800000  0.8308047098439999
  3.2497747500000003  1.5784954430200000  4.8234457098440000
  1.0832582500000001  5.2671165569799996  3.1618362901559998
  3.2497747500000003  2.2802185923040001  7.3756696015559999
  1.0832582500000001  4.5653934076959999  0.6096123984439999
  3.2497747500000003  5.7030245923040006  4.6022533984439997
  1.0832582500000001  1.1425874076960001  3.3830286015559996
