Sr Au
 1.0000000000000000
     5.6618469999999999    0.0000000000000000    0.0000000000000000
    -2.8309240000000000    4.9033040000000003    0.0000000000000000
     0.0000000000000000    0.0000000000000000    4.6213660000000001
 Sr  Au 
   1   5
Cartesian
  0.0000000000000000  0.0000000000000000  0.0000000000000000
  2.8309261642570003  1.6344330322320000  0.0000000000000000
  2.8309234999999999  0.0000000000000000  2.3106830000000000
  1.4154614999999999  2.4516520000000002  2.3106830000000000
 -1.4154620000000000  2.4516520000000002  2.3106830000000000
 -0.0000031642570000  3.2688709677680001  0.0000000000000000
