Ce Al Ni
 1.0000000000000000
     6.8657610000000000    0.0000000000000000    0.0000000000000000
    -3.4328810000000001    5.9459229999999996    0.0000000000000000
     0.0000000000000000    0.0000000000000000    4.0196779999999999
 Ce  Al  Ni 
   3   3   3
Cartesian
 -1.9751389792790000  3.4210403113569994  2.0098389999999999
  3.9502773831989999  0.0000000000000000  2.0098389999999999
  1.4577415960800002  2.5248826886429998  2.0098389999999999
  1.5802098202379999  0.0000000000000000  0.0000000000000000
  2.6427752049599995  4.5774212541659995  0.0000000000000000
 -0.7901050251980000  1.3685017458339999  0.0000000000000000
 -0.0000037662140003  3.9639506486409997  0.0000000000000000
  3.4328837662140002  1.9819723513589997  0.0000000000000000
  0.0000000000000000  0.0000000000000000  2.0098389999999999
