Ho Bi I  O 
 1.0000000000000000
     3.9373689999999999    0.0000000000000000    0.0000000000000000
     0.0000000000000000    3.9373689999999999    0.0000000000000000
     0.0000000000000000    0.0000000000000000    9.6870370000000001
 Ho  Bi  I   O  
   1   2   1   4
Cartesian
  0.0000000000000000  0.0000000000000000  0.0000000000000000
  1.9686844999999999  1.9686844999999999  2.4843568830940002
  1.9686844999999999  1.9686844999999999  7.2026801169060004
  0.0000000000000000  0.0000000000000000  4.8435185000000001
  0.0000000000000000  1.9686844999999999  1.3709482243880000
  1.9686844999999999  0.0000000000000000  8.3160887756120001
  0.0000000000000000  1.9686844999999999  8.3160887756120001
  1.9686844999999999  0.0000000000000000  1.3709482243880000
