Al Ru
 1.0000000000000000
     3.0070560000000000    0.0000000000000000    0.0000000000000000
     0.0000000000000000    3.0070560000000000    0.0000000000000000
     0.0000000000000000    0.0000000000000000    3.0070560000000000
 Al  Ru 
   1   1
Cartesian
  0.0000000000000000  0.0000000000000000  0.0000000000000000
  1.5035280000000000  1.5035280000000000  1.5035280000000000
