Ti Sn Ru
 1.0000000000000000
     0.0000860000000000    3.1303090000000000    3.1303709999999998
     3.1303800000000002    0.0000700000000000    3.1303850000000000
     3.1303809999999999    3.1303220000000000    0.0000720000000000
 Ti  Sn  Ru 
   1   1   2
Cartesian
  4.6956321205620002  4.6955476623210002  4.6956648249479995
  1.5652054892430001  1.5651846406159999  1.5651913482909998
  0.0000093913980000  0.0000093911370000  0.0000187822680000
  3.1304391509569998  3.1303254577069999  3.1303858269049996
