Mn Co Sb
 1.0000000000000000
     6.0221439999999999    0.0000000000000000    0.0000000000000000
     0.0000000000000000    6.0221439999999999    0.0000000000000000
     0.0000000000000000    0.0000000000000000    6.0221439999999999
 Mn  Co  Sb 
   4   8   4
Cartesian
  0.0000000000000000  0.0000000000000000  0.0000000000000000
  0.0000000000000000  3.0110720000000000  3.0110720000000000
  3.0110720000000000  0.0000000000000000  3.0110720000000000
  3.0110720000000000  3.0110720000000000  0.0000000000000000
  1.5055360000000000  1.5055360000000000  1.5055360000000000
  1.5055360000000000  1.5055360000000000  4.5166079999999997
  1.5055360000000000  4.5166079999999997  4.5166079999999997
  1.5055360000000000  4.5166079999999997  1.5055360000000000
  4.5166079999999997  1.5055360000000000  4.5166079999999997
  4.5166079999999997  1.5055360000000000  1.5055360000000000
  4.5166079999999997  4.5166079999999997  1.5055360000000000
  4.5166079999999997  4.5166079999999997  4.5166079999999997
  0.0000000000000000  0.0000000000000000  3.0110720000000000
  0.0000000000000000  3.0110720000000000  0.0000000000000000
  3.0110720000000000  0.0000000000000000  0.0000000000000000
  3.0110720000000000  3.0110720000000000  3.0110720000000000
