Cs Li In Br
 1.0000000000000000
    -5.5463959999999997   -5.5463959999999997    0.0000000000000000
    -5.5463959999999997    0.0000000000000000   -5.5463959999999997
     0.0000000000000000   -5.5463959999999997   -5.5463959999999997
 Cs  Li  In  Br 
   2   1   1   6
Cartesian
 -8.3195939999999986 -8.3195939999999986 -8.3195939999999986
 -2.7731979999999998 -2.7731979999999998 -2.7731979999999998
  0.0000000000000000  0.0000000000000000  0.0000000000000000
 -5.5463959999999997 -5.5463959999999997 -5.5463959999999997
 -2.8183900346080000 -5.5463959999999997 -5.5463959999999997
 -5.5463959999999997 -8.2744019653919985 -5.5463959999999997
 -5.5463959999999997 -2.8183900346080000 -5.5463959999999997
 -5.5463959999999997 -5.5463959999999997 -2.8183900346080000
 -5.5463959999999997 -5.5463959999999997 -8.2744019653919985
 -8.2744019653919985 -5.5463959999999997 -5.5463959999999997
