Tl B  O 
 1.0000000000000000
     9.2834570000000003    0.0004730000000000    0.0000000000000000
    -4.6421380000000001    8.0394729999999992    0.0000000000000000
     0.0000000000000000    0.0000000000000000    3.7620559999999998
 Tl  B   O  
   6   2   6
Cartesian
  3.4994588727910005  5.2061474858589998  2.8215420000000000
 -2.7589265475550002  5.6336939168099995  0.9405140000000000
  1.6162474203459998  7.6119265690489994  0.9405140000000000
  3.0250715796540000  0.4280194309510000  2.8215420000000000
  7.4002455475549995  2.4062520831899996  2.8215420000000000
  1.1418601272089999  2.8337985141409998  0.9405140000000000
 -0.0002776418650000  5.3598090129999996  2.8215420000000000
  4.6415966418650010  2.6801369869999996  0.9405140000000000
  0.1189397568629999  6.7416240817069992  2.8215420000000000
  3.5045183756380003  3.4742897966269997  0.9405140000000000
  5.8978923068199993  3.2677992460799996  0.9405140000000000
 -1.2565733068200000  4.7721467539199995  2.8215420000000000
  4.5223792431369993  1.2983219182929999  0.9405140000000000
  1.1368006243620001  4.5656562033729990  2.8215420000000000
