O 
 1.0000000000000000
     3.1101070000000002    4.3774280000000001    0.0000000000000000
    -3.1101070000000002    4.3774280000000001    0.0000000000000000
     0.0000000000000000    1.9083120000000000    3.9533450000000001
 O  
   8
Cartesian
  1.5943341514100000  4.4132954274480003  0.6143142328950000
  1.5943341514100002  6.2498725725520012  3.3390307671050001
 -1.5943341514100002  6.2498725725520003  3.3390307671050001
 -1.5943341514100000  4.4132954274480003  0.6143142328950000
  0.0000000000000002  7.2763423715519995  0.7049604804000000
 -0.0000000000000000  3.3868256284479998  3.2483845196000001
 -0.0000000000000002  9.1123853219760012  3.4289693658550000
  0.0000000000000000  1.5507826780239999  0.5243756341450001
