Li Pm In
 1.0000000000000000
     0.0000040000000000    3.4727519999999998    3.4727470000000000
     3.4727519999999998    0.0000060000000000    3.4727440000000001
     3.4727519999999998    3.4727500000000000    0.0000060000000000
 Li  Pm  In 
   2   1   1
Cartesian
  3.4727525272439999  6.9454950544979992  3.4727495272469997
  3.4727540000000001  3.4727540000000001  3.4727485000000002
  5.2091275272519999  5.2091310000020004  5.2091262227410002
  1.7363804727519998  1.7363839454940000  1.7363707772679999
