Ba As O 
 1.0000000000000000
     5.0049299999999999   -0.0000000000000000   -1.4187890000000001
    -0.4021970000000000    4.9887449999999998   -1.4187890000000001
    -0.0253600000000000   -0.0274870000000000    9.4476449999999996
 Ba  As  O  
   4   2   1
Cartesian
  3.0997668708549999  3.3597313195189993  1.3976345009499997
  1.4776061291449998  1.6015266804809998  5.2124324990500002
 -0.2010985000000000  2.4943724999999999 -0.7093945000000000
  2.5024649999999999  0.0000000000000000 -0.7093945000000000
  3.9600381009660000  4.2921498445219992  4.4323522139839993
  0.6173348990340000  0.6691081554779998  2.1777147860159998
  2.3013664999999999  2.4943724999999999 -1.4187890000000001
