Sr Ge Pd
 1.0000000000000000
    -2.2009840000000001    2.2009840000000001    5.1407520000000000
     2.2009840000000001   -2.2009840000000001    5.1407520000000000
     2.2009840000000001    2.2009840000000001   -5.1407520000000000
 Sr  Ge  Pd 
   1   2   2
Cartesian
  0.0000000000000000  0.0000000000000000  0.0000000000000000
 -0.0000000000000001  0.0000000000000001  6.4743761653440002
 -0.0000000000000000  0.0000000000000000  3.8071175531520001
  2.2009928039359998 -0.0000000000000000  2.5703862815039997
 -0.0000000000000000  2.2009928039359998  2.5703862815039997
