Tc Pt
 1.0000000000000000
    -1.9387880000000000    1.9387880000000000    3.9682870000000001
     1.9387880000000000   -1.9387880000000000    3.9682870000000001
     1.9387880000000000    1.9387880000000000   -3.9682870000000001
 Tc  Pt 
   1   3
Cartesian
  0.0000000000000000  0.0000000000000000  0.0000000000000000
  0.0000000000000000  1.9387918775760000  1.9841435000000003
  1.9387918775760000  0.0000000000000000  1.9841435000000003
 -0.0000000000000000  0.0000000000000000  3.9682790634260003
