Ca Ni P 
 1.0000000000000000
     3.6285729999999998    0.0000000000000000   -1.4000969999999999
    -0.5402330000000000    3.5881300000000000   -1.4000969999999999
     0.0020020000000000    0.0023260000000000    5.4072449999999996
 Ca  Ni  P  
   1   2   2
Cartesian
  0.0000000000000000  0.0000000000000000  0.0000000000000000
  0.5029695000000001  2.6922605000000002  1.3035254999999999
  2.5873724999999999  0.8981955000000000  1.3035254999999999
  1.9288204874740003  2.2409639697420003 -0.4032093419070001
  1.1615215125259999  1.3494920302580000  3.0102603419069998
