Sr C 
 1.0000000000000000
     4.0276730000000001    0.0143750000000000    1.0688009999999999
     1.5764020000000001    3.7063880000000000    1.0688009999999999
     0.0233130000000000    0.0154790000000000    7.7886389999999999
 Sr  C  
   2   4
Cartesian
  3.5951380057989999  0.6784911268029999  3.0159607499999996
  2.0322499942009999  3.0577508731970000  6.9102802499999996
  1.1931106559540001  1.5737824963979998  4.0341729609119996
  3.7022584814630002  3.2397029399509996  1.9977485390879999
  1.9251295185369999  0.4965390600490000  7.9284924609119996
  4.4342773440459995  2.1624595036019998  5.8920680390879996
