Ca Cd Sb
 1.0000000000000000
     4.7274409999999998    0.0000000000000000    0.0000000000000000
    -2.3637199999999998    4.0940830000000004    0.0000000000000000
     0.0000000000000000    0.0000000000000000    7.6534719999999998
 Ca  Cd  Sb 
   1   2   2
Cartesian
  0.0000000000000000  0.0000000000000000  0.0000000000000000
 -0.0000020303870001  2.7293900313610004  4.8268993744320001
  2.3637230303870003  1.3646929686390001  2.8265726255680002
 -0.0000020303870001  2.7293900313610004  1.8024844976640000
  2.3637230303870003  1.3646929686390001  5.8509875023359994
