Rb Ge N 
 1.0000000000000000
     3.0436109999999998   -5.0802490000000002    0.0000000000000000
     3.0436109999999998    5.0802490000000002    0.0000000000000000
     0.0000000000000000    0.0000000000000000    5.3865280000000002
 Rb  Ge  N  
   2   4   6
Cartesian
  2.1189985015319999 -0.0000000000000001  2.7976010473600001
  3.9682234984679998 -0.0000000000000001  0.1043370473600000
  2.1935669710319998 -3.3127287679199999  2.7308350328000000
  2.1935669710319998  3.3127287679200004  2.7308350328000000
  3.8936550289679999  3.3127287679199999  0.0375710328000000
  3.8936550289679994 -3.3127287679199999  0.0375710328000000
  2.3330587067730000 -2.6321938526270001  0.9394858945920002
  2.3330587067730000  2.6321938526270006  0.9394858945920002
  3.7541632932269997  2.6321938526270001  3.6327498945920000
  3.7541632932269997 -2.6321938526270001  3.6327498945920000
  1.1184844319459999 -0.0000000000000000  0.1607932473280000
  4.9687375680540002 -0.0000000000000002  2.8540572473279999
