Co As
 1.0000000000000000
     6.6937870000000004    0.0000000000000000   -2.3666109999999998
    -3.3468930000000001    5.7969900000000001   -2.3666109999999998
     0.0000000000000000    0.0000000000000000    7.0998340000000004
 Co  As 
   4  12
Cartesian
  3.3468935000000002  0.0000000000000000 -1.1833054999999999
  0.0000000000000000  0.0000000000000000  3.5499170000000002
 -1.6734465000000001  2.8984950000000000 -1.1833054999999999
  1.6734470000000001  2.8984950000000000  1.1833060000000004
  1.6993286821169999  4.6918692173700007 -2.4032057550769998
  4.5414535111720005  1.9793938294800000 -1.4642812003379995
  2.7088520177070001  2.9433231236699999  3.2689319917650006
  0.6380419822929997  2.8536668763300002 -0.9023199917649996
 -0.1332731284439999  1.9793938294800000  2.3300071199300003
  4.9129385129930006  0.8742788438400001  2.4032112976630002
 -1.5660445129930003  4.9227111561600001 -0.0365992976630001
  0.5565285695589999  4.9227111561600001  1.4642867827450006
  3.4801671284440006  3.8175961705200003  0.0366048800700003
  1.6475653178829996  1.1051207826300000  4.7698177550770007
 -1.1945595111720002  3.8175961705200003  3.8308932003380005
  2.7903654304410002  0.8742788438400001  0.9023252172550000
