Ba Pb O 
 1.0000000000000000
     4.1465829999999997    0.0000000000000000   -1.2796820000000000
    -0.3949240000000000    4.1277340000000002   -1.2796820000000000
    -0.0015270000000000   -0.0016800000000000    7.3530270000000000
 Ba  Pb  O  
   2   1   4
Cartesian
  1.3338211323630000  1.4675265062520002  4.3220182954469992
  2.4163108676369998  2.6585274937480001  0.4716447045529998
  0.0000000000000000  0.0000000000000000  0.0000000000000000
 -0.1974620000000000  2.0638670000000001 -0.6398410000000000
  2.0732914999999998  0.0000000000000000 -0.6398410000000000
  3.1440238076819997  3.4591880939940003  2.8296694875630002
  0.6061081923179999  0.6668659060060000  1.9639935124370003
