In Pd
 1.0000000000000000
     4.5612209999999997    0.0000000000000000    0.0000000000000000
    -2.2806080000000000    3.9501330000000001    0.0000000000000000
     0.0000000000000000    0.0000000000000000    5.5636850000000004
 In  Pd 
   3   2
Cartesian
  0.0000000000000000  0.0000000000000000  0.0000000000000000
 -0.0000006139430002  2.6334233167110002  3.5879258738550002
  2.2806136139430002  1.3167096832890000  1.9757591261450003
 -0.0000006139430002  2.6334233167110002  0.8346584600150001
  2.2806136139430002  1.3167096832890000  4.7290265399850000
