Mg Hg
 1.0000000000000000
     4.6808050000000003    0.0000000000000000    0.0000000000000000
     0.0000000000000000    6.2379460000000000    0.0000000000000000
     0.0000000000000000    0.0000000000000000    8.9089709999999993
 Mg  Hg 
   8   4
Cartesian
  1.1702012500000001  5.9469021534780007  6.3178769653889990
  3.5106037500000005  0.2910438465220000  2.5910940346109999
  1.1702012500000001  2.8279291534779998  7.0455795346109999
  3.5106037500000005  3.4100168465219998  1.8633914653890000
  3.5106037500000005  1.1053390794159998  8.3863351252559983
  1.1702012500000001  5.1326069205840001  0.5226358747440000
  3.5106037500000005  4.2243120794160003  4.9771213747439997
  1.1702012500000001  2.0136339205839997  3.9318496252559996
  1.1702012500000001  4.9000063901360003  3.4074408652829997
  3.5106037500000005  1.3379396098640000  5.5015301347170000
  1.1702012500000001  1.7810333901360000  1.0470446347169999
  3.5106037500000005  4.4569126098640002  7.8619263652829989
