Ge O 
 1.0000000000000000
     5.0831059999999999    0.0000000000000000    0.0000000000000000
    -2.5415530000000000    4.4020989999999998    0.0000000000000000
     0.0000000000000000    0.0000000000000000    5.7595580000000002
 Ge  O  
   3   6
Cartesian
  1.3848820634880001  2.3986861367040002  0.0000000000000000
 -1.1566709365120000  2.0034128632960000  3.8397072531860004
  2.3133418730240001  0.0000000000000000  1.9198507468140000
  0.5062544836230001  1.7495306076689998  4.3683310055420002
  0.7732878326740000  3.9657629471200000  0.5286237523560000
 -1.2795423162970001  3.0889044452109999  2.4484744991700000
  1.2620106837029998  1.3131945547889998  1.3912269944580000
  3.3148408326739998  0.4363360528800000  3.3110835008300001
  3.0478074836229996  2.6525683923310002  5.2309342476439999
