Ba Hf O 
 1.0000000000000000
    -0.0002640000000000   -4.1700419999999996    0.0025250000000000
    -4.1690899999999997    0.0001780000000000   -0.0025230000000000
     0.0024840000000000   -0.0029370000000000   -4.1703749999999999
 Ba  Hf  O  
   1   1   3
Cartesian
 -4.1667297740859999 -4.1224330792629988 -4.1554943129700002
 -2.0833829141779998 -2.0363829474830002 -2.0763547026509999
  0.0010770498560000 -2.0365750058079994 -2.0793261256590001
 -2.0836792159780000 -4.1213651475729991 -2.0792210000710001
 -2.0822449867240000 -2.0379975883450001 -4.1618174221009996
