Rb Na S 
 1.0000000000000000
     4.6900170000000001    0.0000000000000000    0.0000000000000000
     0.0000000000000000    4.6900170000000001    0.0000000000000000
     0.0000000000000000    0.0000000000000000    7.5756490000000003
 Rb  Na  S  
   2   2   2
Cartesian
  3.5175127499999999  3.5175127499999999  2.6577952412659998
  1.1725042500000000  1.1725042500000000  4.9178537587340001
  3.5175127499999999  1.1725042500000000  0.0000000000000000
  1.1725042500000000  3.5175127499999999  0.0000000000000000
  1.1725042500000000  1.1725042500000000  1.5470914631310002
  3.5175127499999999  3.5175127499999999  6.0285575368690001
