Pa Ti Tc
 1.0000000000000000
     0.0000000000000000    3.2670880000000002    3.2670880000000002
     3.2670880000000002    0.0000000000000000    3.2670880000000002
     3.2670880000000002    3.2670880000000002    0.0000000000000000
 Pa  Ti  Tc 
   1   1   2
Cartesian
  1.6335440000000001  1.6335440000000001  1.6335440000000001
  4.9006319999999999  4.9006319999999999  4.9006319999999999
  3.2670880000000002  3.2670880000000002  3.2670880000000002
  0.0000000000000000  0.0000000000000000  0.0000000000000000
