Gd S  F 
 1.0000000000000000
     3.8334210000000000    0.0000000000000000    0.0000000000000000
     0.0000000000000000    3.8334210000000000    0.0000000000000000
     0.0000000000000000    0.0000000000000000    6.8587429999999996
 Gd  S   F  
   2   2   2
Cartesian
  2.8750657500000001  2.8750657500000001  5.2902307808159996
  0.9583552500000000  0.9583552500000000  1.5685122191840000
  0.9583552500000000  0.9583552500000000  4.4352198784359995
  2.8750657500000001  2.8750657500000001  2.4235231215639996
  0.9583552500000000  2.8750657500000001  0.0000000000000000
  2.8750657500000001  0.9583552500000000  0.0000000000000000
