Sr P  Ru
 1.0000000000000000
     3.8154100000000000    0.0000000000000000   -1.2993100000000000
    -0.4424700000000000    3.7896670000000001   -1.2993100000000000
     0.0388300000000000    0.0436280000000000    6.3656329999999999
 Sr  P   Ru 
   1   2   2
Cartesian
  0.0000000000000000  0.0000000000000000  0.0000000000000000
  2.2066686924300001  2.4793029474160000  0.2282535460089998
  1.2051013075700001  1.3539920525840001  3.5387594539909997
  2.7703549999999999  0.9692307500000000  1.8835065000000000
  0.6414150000000000  2.8640642500000002  1.8835065000000000
