La Co B 
 1.0000000000000000
     3.4001340000000000    0.0004810000000000   -1.1347940000000001
    -0.3781420000000000    3.3790410000000000   -1.1347940000000001
     0.0179700000000000    0.0200960000000000    5.7166459999999999
 La  Co  B  
   1   2   2
Cartesian
 -0.3781420000000000  3.3790410000000000 -1.1347940000000001
  0.5756009138000000  2.5442800719999998  1.7235289999999999
  2.4643610862000003  0.8553379280000000  1.7235289999999999
  2.0274374934739998  2.2673023597899999  0.4117331647700000
  1.0125245065260002  1.1323156402100001  3.0353248352300000
