Ba Mn P 
 1.0000000000000000
     3.6301269999999999   -0.0000000000000000   -1.0726650000000000
    -0.3169620000000000    3.6162630000000000   -1.0726650000000000
     0.1301190000000000    0.1420240000000000    7.1192450000000003
 Ba  Mn  P  
   1   2   2
Cartesian
  0.0000000000000000  0.0000000000000000  0.0000000000000000
  0.7348697500000000  2.7832092500000001  2.4869574999999999
  2.7084142499999997  0.9750777500000000  2.4869574999999999
  2.1922644571620000  2.3928196054360003  0.7402106677699999
  1.2510195428380000  1.3654673945640001  4.2337043322300003
