Mn Si Ni
 1.0000000000000000
     3.5356010000000002   -0.0000000000000000   -0.0000000000000000
    -0.0000000000000000    5.9313919999999998    0.0000640000000000
    -0.0000000000000000    0.0000720000000000    6.8490830000000003
 Mn  Si  Ni 
   4   4   4
Cartesian
  2.6517007500000003  2.7933069401520001  4.6011276643810000
  0.8839002500000001  0.1726336755120000  1.1771058142210000
  2.6517007500000003  5.7589548883999999  5.6724863775180001
  0.8839002500000001  3.1383646543919999  2.2476220910449998
  0.8839002500000001  1.5578775925520001  5.9671913345670005
  0.8839002500000001  4.5235917227039995  4.3064919345260009
  2.6517007500000003  4.3735804785040004  0.8821885341910000
  2.6517007500000003  1.4079137945919999  2.5424221971000001
  0.8839002500000001  3.8055716680879996  6.4371311718689999
  0.8839002500000001  0.8398839181119999  3.8365092062359998
  2.6517007500000003  5.0914317864319996  3.0116241278799998
  2.6517007500000003  2.1256847434879997  0.4129952447600000
