Sm Tl Ag
 1.0000000000000000
     0.0000020000000000    3.7776820000000000    3.7776839999999998
     3.7776790000000000    0.0000020000000000    3.7776839999999998
     3.7776800000000001    3.7776820000000000    0.0000020000000000
 Sm  Tl  Ag 
   2   1   1
Cartesian
  0.0000000000000000  0.0000000000000000  0.0000000000000000
  3.7776804999999998  3.7776829999999997  3.7776850000000000
  5.6665283053610001  5.6665320553659999  5.6665350553699998
  1.8888402499999999  1.8888414999999998  1.8888425000000000
