Sm Dy Mg
 1.0000000000000000
     0.0000000000000000    3.8167870000000002    3.8167870000000002
     3.8167870000000002    0.0000000000000000    3.8167870000000002
     3.8167870000000002    3.8167870000000002    0.0000000000000000
 Sm  Dy  Mg 
   1   1   2
Cartesian
  5.7251805000000004  5.7251805000000004  5.7251805000000004
  1.9083935000000001  1.9083935000000001  1.9083935000000001
  3.8167870000000002  3.8167870000000002  3.8167870000000002
  0.0000000000000000  0.0000000000000000  0.0000000000000000
