Na Os N 
 1.0000000000000000
     5.7547740000000003    0.0000000000000000    0.0000000000000000
     0.0000000000000000    7.3047050000000002    0.0000000000000000
     0.0000000000000000    0.0000000000000000    7.7428660000000002
 Na  Os  N  
  10   2   8
Cartesian
  4.3862369498340001  1.7346921245800000  2.4038888926899999
  4.3862369498340001  1.7346921245800000  5.3389771073099999
  4.3862369498340001  5.5700128754199998  2.4038888926899999
  4.3862369498340001  5.5700128754199998  5.3389771073099999
  1.3685370501659999  1.9176603754199999  1.4675441073100002
  1.3685370501659999  1.9176603754199999  6.2753218926900001
  1.3685370501659999  5.3870446245800006  1.4675441073100002
  1.3685370501659999  5.3870446245800006  6.2753218926900001
  1.9185495752160002  3.6523525000000001  3.8714330000000001
  3.8362244247840001  0.0000000000000000  0.0000000000000000
  1.6490304897000003  0.0000000000000000  3.8714330000000001
  4.1057435103000000  3.6523525000000001  0.0000000000000000
  0.6105354832080001  5.7802641994349999  3.8714330000000001
  0.6105354832080001  1.5244408005649999  3.8714330000000001
  5.1442385167920008  5.1767933005650004  0.0000000000000000
  5.1442385167920008  2.1279116994349998  0.0000000000000000
  3.0763122728580004  3.6523525000000001  1.5340475833839999
  3.0763122728580004  3.6523525000000001  6.2088184166160003
  2.6784617271419999  0.0000000000000000  2.3373854166159997
  2.6784617271419999  0.0000000000000000  5.4054805833839996
