La Tl
 1.0000000000000000
     4.8619450000000004    0.0000000000000000    0.0000000000000000
     0.0000000000000000    4.8619450000000004    0.0000000000000000
     0.0000000000000000    0.0000000000000000    4.8619450000000004
 La  Tl 
   1   3
Cartesian
  0.0000000000000000  0.0000000000000000  0.0000000000000000
  0.0000000000000000  2.4309725000000002  2.4309725000000002
  2.4309725000000002  2.4309725000000002  0.0000000000000000
  2.4309725000000002  0.0000000000000000  2.4309725000000002
