Rb S  O 
 1.0000000000000000
     5.9631319999999999    0.0000000000000000    0.0000000000000000
     0.0000000000000000    7.7913040000000002    0.0000000000000000
     0.0000000000000000    0.0000000000000000   10.4138579999999994
 Rb  S   O  
   8   4  16
Cartesian
  4.4723489999999995  0.0849330049040000  7.3022076434579990
  1.4907830000000000  7.7063709950960000  3.1116503565419995
  4.4723489999999995  3.9805850049040004  8.3185793565419992
  1.4907830000000000  3.8107189950960003  2.0952786434579997
  1.4907830000000000  5.2351953141119996  6.1452384335160000
  4.4723489999999995  2.5561086858879998  4.2686195664839994
  1.4907830000000000  1.3395433141120001  9.4755485664839991
  4.4723489999999995  6.4517606858880008  0.9383094335159999
  1.4907830000000000  1.8385295874879999  6.0600530750760004
  4.4723489999999995  5.9527744125120003  4.3538049249239998
  1.4907830000000000  5.7341815874880000  9.5607339249239995
  4.4723489999999995  2.0571224125119998  0.8531240750759999
  3.2629244571559997  5.4384704354720004  3.6669380928180000
  0.2813584571560000  2.3528335645279999  6.7469199071819999
  5.6817735428439997  1.5428184354720000  1.5399909071819999
  2.7002075428440002  6.2484855645280000  8.8738670928179992
  2.7002075428440002  2.3528335645279999  6.7469199071819999
  5.6817735428439997  5.4384704354720004  3.6669380928180000
  0.2813584571560000  6.2484855645280000  8.8738670928179992
  3.2629244571559997  1.5428184354720000  1.5399909071819999
  1.4907830000000000  2.3327242089039997  4.6591913107739993
  4.4723489999999995  5.4585797910959997  5.7546666892260001
  1.4907830000000000  6.2283762089040007  0.5477376892260000
  4.4723489999999995  1.5629277910960000  9.8661203107739990
  4.4723489999999995  3.5316422771200005  0.8829077089559999
  1.4907830000000000  4.2596617228799998  9.5309502910439985
  4.4723489999999995  7.4272942771200006  4.3240212910439997
  1.4907830000000000  0.3640097228800000  6.0898367089559997
