Li Pt
 1.0000000000000000
     7.4522380000000004    0.0000000000000000    0.0000000000000000
     0.0000000000000000    7.4522380000000004    0.0000000000000000
     0.0000000000000000    0.0000000000000000    7.4522380000000004
 Li  Pt 
   8  16
Cartesian
  4.6576487499999999  0.9315297500000000  4.6576487499999999
  6.5207082500000002  6.5207082500000002  6.5207082500000002
  4.6576487499999999  4.6576487499999999  0.9315297500000000
  6.5207082500000002  2.7945892500000000  2.7945892500000000
  0.9315297500000000  0.9315297500000000  0.9315297500000000
  2.7945892500000000  6.5207082500000002  2.7945892500000000
  0.9315297500000000  4.6576487499999999  4.6576487499999999
  2.7945892500000000  2.7945892500000000  6.5207082500000002
  5.5891785000000000  0.0000000000000000  1.8630595000000001
  0.0000000000000000  5.5891785000000000  1.8630595000000001
  0.0000000000000000  0.0000000000000000  3.7261190000000002
  5.5891785000000000  5.5891785000000000  3.7261190000000002
  5.5891785000000000  3.7261190000000002  5.5891785000000000
  0.0000000000000000  1.8630595000000001  5.5891785000000000
  0.0000000000000000  3.7261190000000002  0.0000000000000000
  5.5891785000000000  1.8630595000000001  0.0000000000000000
  1.8630595000000001  0.0000000000000000  5.5891785000000000
  3.7261190000000002  5.5891785000000000  5.5891785000000000
  3.7261190000000002  0.0000000000000000  0.0000000000000000
  1.8630595000000001  5.5891785000000000  0.0000000000000000
  1.8630595000000001  3.7261190000000002  1.8630595000000001
  3.7261190000000002  1.8630595000000001  1.8630595000000001
  3.7261190000000002  3.7261190000000002  3.7261190000000002
  1.8630595000000001  1.8630595000000001  3.7261190000000002
