Cu Rh O 
 1.0000000000000000
     2.9689760000000001   -0.0082050000000000    5.1689280000000002
     1.3725510000000001    2.6326779999999999    5.1689280000000002
    -0.0135720000000000   -0.0082050000000000    5.9609100000000002
 Cu  Rh  O  
   1   1   2
Cartesian
  0.0000000000000000  0.0000000000000000  0.0000000000000000
  2.1639775000000001  1.3081340000000001  8.1493830000000003
  3.8641756701550003  2.3359113373879996 14.5522065342060003
  0.4637793298450000  0.2803566626120000  1.7465594657940000
