Si Pd
 1.0000000000000000
     6.4778960000000003   -0.0006010000000000    0.0000000000000000
    -3.2394690000000002    5.6097229999999998    0.0000000000000000
     0.0000000000000000    0.0000000000000000    3.5052850000000002
 Si  Pd 
   3   6
Cartesian
  3.2389038533939996  1.8699146060149998  0.0000000000000000
 -0.0000590963109999  3.7399309707229995  0.0000000000000000
  0.0004177570830000  0.0007235767380000  1.7526425000000001
  2.3816331301830003  4.1251109833379997  0.0000000000000000
  1.7142294127989999 -0.0000412432550000  0.0000000000000000
 -0.8571505614060000  1.4845458626529999  0.0000000000000000
  1.2735114177500002  2.2057872265000000  1.7526425000000001
  0.6912698070489997  5.6082981368549998  1.7526425000000001
  4.5112923142940007  3.4028068382429995  1.7526425000000001
