Nb Pd
 1.0000000000000000
     3.9443589999999999    0.0000000000000000    0.0000000000000000
     0.0000000000000000    3.9443589999999999    0.0000000000000000
     0.0000000000000000    0.0000000000000000    8.0967430000000000
 Nb  Pd 
   2   6
Cartesian
  0.0000000000000000  0.0000000000000000  0.0000000000000000
  1.9721795000000000  1.9721795000000000  4.0483715000000000
  1.9721795000000000  1.9721795000000000  0.0000000000000000
  1.9721795000000000  0.0000000000000000  6.0725572500000000
  0.0000000000000000  1.9721795000000000  6.0725572500000000
  0.0000000000000000  0.0000000000000000  4.0483715000000000
  0.0000000000000000  1.9721795000000000  2.0241857500000000
  1.9721795000000000  0.0000000000000000  2.0241857500000000
