Sb O 
 1.0000000000000000
     5.5507559999999998    0.0000000000000000    0.0000000000000000
     0.0000000000000000   11.9323110000000003    0.0000000000000000
     0.0000000000000000    0.0000000000000000    4.9035560000000000
 Sb  O  
   8  16
Cartesian
  2.6701745215320001  5.9848057020930003  2.2689489145400001
  2.8805814784679997  0.0186502020930000  2.6346070854599999
  5.4455525215320000  5.9848057020930003  0.1828290854600000
  0.1052034784680000  0.0186502020930000  4.7207269145400002
  4.8115396204560001  3.0177888426989998  2.4573974751759997
  0.7392163795439999  8.9839443426990009  2.4461585248240003
  2.0361616204559998  3.0177888426989998  4.8979365248239999
  3.5145943795440000  8.9839443426990009  0.0056194751760000
  4.6842940899120000  1.1388794233950001  3.2688918611720004
  0.8664619100879999  7.1050349233950003  1.6346641388280001
  1.9089160899119999  1.1388794233950001  4.0864421388279997
  3.6418399100879997  7.1050349233950003  0.8171138611720000
  3.2202821949120000  2.3055372667979999  1.4411158799519999
  2.3304738050879998  8.2716927667980009  3.4624401200479999
  0.4449041949120000  2.3055372667979999  1.0106621200480002
  5.1058518050880002  8.2716927667980009  3.8928938799520001
  3.7840003220039997 10.8286438263660010  4.1142600120160004
  1.7667556779959999  4.8624883263659999  0.7892959879840000
  1.0086223220040000 10.8286438263660010  3.2410739879840000
  4.5421336779959995  4.8624883263659999  1.6624820120160000
  4.7572809805559997  9.6981050883600002  1.4124349809079999
  0.7934750194439999  3.7319495883600000  3.4911210190919997
  1.9819029805560000  9.6981050883600002  1.0393430190920001
  3.5688530194440000  3.7319495883600000  3.8642129809080004
