Al Bi O 
 1.0000000000000000
     5.6920849999999996    0.0000000000000000    0.0000000000000000
     0.0000000000000000    7.7044139999999999    0.0000000000000000
     0.0000000000000000    0.0000000000000000    8.1348749999999992
 Al  Bi  O  
   8   4  18
Cartesian
  2.8460424999999998  1.1434737170520000  6.8213204639999994
  2.8460424999999998  6.5609402829479997  1.3135545359999998
  2.8460424999999998  4.9956807170520001  5.3809920359999994
  2.8460424999999998  2.7087332829480002  2.7538829639999998
  1.4827881425000000  0.0000000000000000  4.0674374999999996
  4.2092968575000000  3.8522069999999999  0.0000000000000000
  4.2092968575000000  0.0000000000000000  4.0674374999999996
  1.4827881425000000  3.8522069999999999  0.0000000000000000
  0.0000000000000000  2.5546681161900002  5.4232689813749992
  0.0000000000000000  5.1497458838099996  2.7116060186249995
  0.0000000000000000  6.4068751161900002  6.7790435186249995
  0.0000000000000000  1.2975388838100002  1.3558314813749999
  0.0000000000000000  2.7458069231160001  7.5924659396249989
  0.0000000000000000  4.9586070768840003  0.5424090603749999
  0.0000000000000000  6.5980139231159995  4.6098465603749998
  0.0000000000000000  1.1064000768840001  3.5250284396249998
  2.8460424999999998  2.7878499103139998  7.4362682047499993
  2.8460424999999998  4.9165640896859992  0.6986067952499999
  2.8460424999999998  6.6400569103140006  4.7660442952499995
  2.8460424999999998  1.0643570896860000  3.3688307047499997
  1.4292882355850001  6.7403683805939991  2.3849257083750000
  1.4292882355850001  0.9640456194059999  5.7499492916249997
  4.2627967644149996  2.8881613805940001  1.6825117916249999
  4.2627967644149996  4.8162526194060007  6.4523632083749991
  2.8460424999999998  0.0000000000000000  0.0000000000000000
  2.8460424999999998  3.8522069999999999  4.0674374999999996
  1.4292882355850001  2.8881613805940001  1.6825117916249999
  1.4292882355850001  4.8162526194060007  6.4523632083749991
  4.2627967644149996  6.7403683805939991  2.3849257083750000
  4.2627967644149996  0.9640456194059999  5.7499492916249997
