Dy Ni Sn
 1.0000000000000000
     4.4461440000000003    0.0000000000000000    0.0000000000000000
     0.0000000000000000    7.1002980000000004   -0.0000150000000000
     0.0000000000000000   -0.0000160000000000    7.6311039999999997
 Dy  Ni  Sn 
   4   4   4
Cartesian
  3.3346080000000002  0.0956865833240000  5.3575689831099993
  1.1115360000000001  7.0045173133820011  2.2735276481589999
  3.3346080000000002  3.6459334537360002  6.0890791123400003
  1.1115360000000001  3.4544266495740001  1.5419946252869998
  3.3346080000000002  5.6752739352500008  0.6469377453970000
  1.1115360000000001  1.4249512629100003  6.9838917971869998
  3.3346080000000002  2.1252403533719999  3.1685214642780002
  1.1115360000000001  4.9750416461000002  4.4628193621539998
  3.3346080000000002  4.8945909116540012  3.1549475108710001
  1.1115360000000001  2.2057194891380001  4.4763322666690000
  3.3346080000000002  1.3444684425159998  0.6605531530340000
  1.1115360000000001  5.7558419590280003  6.9703679626180000
