Na Al Ge
 1.0000000000000000
     4.1475340000000003    0.0000000000000000    0.0000000000000000
     0.0000000000000000    4.1475340000000003    0.0000000000000000
     0.0000000000000000    0.0000000000000000    7.3284190000000002
 Na  Al  Ge 
   2   2   2
Cartesian
  1.0368835000000001  1.0368835000000001  4.6874400028750003
  3.1106505000000002  3.1106505000000002  2.6409789971249999
  3.1106505000000002  1.0368835000000001  0.0000000000000000
  1.0368835000000001  3.1106505000000002  0.0000000000000000
  1.0368835000000001  1.0368835000000001  1.5657900035399999
  3.1106505000000002  3.1106505000000002  5.7626289964600002
