Ba Zr F 
 1.0000000000000000
     5.6171980000000001    0.0000000000000000    0.0000000000000000
     0.0000000000000000    9.6716949999999997    0.0000000000000000
     0.0000000000000000    0.0000000000000000   11.9634959999999992
 Ba  Zr  F  
   8   4  32
Cartesian
  1.4042995000000000  4.2827232629499994 10.0399213686479989
  4.2128984999999997  5.3889717370499994  1.9235746313520001
  1.4042995000000000  9.1185707629500001  7.9053226313520000
  4.2128984999999997  0.5531242370499999  4.0581733686479993
  1.4042995000000000  8.3230931925900009  0.6955935479280000
  4.2128984999999997  1.3486018074100001 11.2679024520720006
  1.4042995000000000  3.4872456925899997  5.2861544520720001
  4.2128984999999997  6.1844493074099995  6.6773415479279992
  1.4042995000000000  2.3504346622899996  1.6922843631839999
  4.2128984999999997  7.3212603377100001 10.2712116368160000
  1.4042995000000000  7.1862821622899995  4.2894636368159995
  4.2128984999999997  2.4854128377099998  7.6740323631839988
  1.4042995000000000  1.2895464377400001  3.6759755619359997
  4.2128984999999997  8.3821485622599994  8.2875204380639982
  1.4042995000000000  6.1253939377400002  2.3057724380639999
  4.2128984999999997  3.5463010622600000  9.6577235619360007
  1.4042995000000000  1.4408891210999999 11.6575654802879995
  4.2128984999999997  8.2308058789000000  0.3059305197120000
  1.4042995000000000  6.2767366210999995  6.2876785197120002
  4.2128984999999997  3.3949583788999997  5.6758174802879999
  5.5665308740399997  6.3716256207450002  9.0158700380399992
  2.7579318740400001  3.3000693792549995  2.9476259619599996
  2.8592661259600001  1.5357781207449999  8.9293739619599997
  0.0506671259600000  8.1359168792549994  3.0341220380399996
  0.0598624790860000  3.9497751625749999  7.6147652039999993
  2.8684614790860001  5.7219198374250002  4.3487307959999999
  2.7487365209140000  8.7856226625749994 10.3304787959999995
  5.5573355209140001  0.8860723374250000  1.6330172039999999
  5.5573355209140001  5.7219198374250002  4.3487307959999999
  2.7487365209140000  3.9497751625749999  7.6147652039999993
  2.8684614790860001  0.8860723374250000  1.6330172039999999
  0.0598624790860000  8.7856226625749994 10.3304787959999995
  2.7249420701860001  3.4642947603549996  0.4654757023680000
  5.5335410701859997  6.2074002396449997 11.4980202976319994
  0.0836569298140000  8.3001422603549990  5.5162722976319998
  2.8922559298140005  1.3715527396449998  6.4472237023680004
  2.8922559298140005  6.2074002396449997 11.4980202976319994
  0.0836569298140000  3.4642947603549996  0.4654757023680000
  5.5335410701859997  1.3715527396449998  6.4472237023680004
  2.7249420701860001  8.3001422603549990  5.5162722976319998
  5.5665308740399997  1.5357781207449999  8.9293739619599997
  2.7579318740400001  8.1359168792549994  3.0341220380399996
  2.8592661259600001  6.3716256207450002  9.0158700380399992
  0.0506671259600000  3.3000693792549995  2.9476259619599996
