Si Rh
 1.0000000000000000
     3.1062020000000001    0.0000000000000000    0.0000000000000000
     0.0000000000000000    5.5958940000000004    0.0000000000000000
     0.0000000000000000    0.0000000000000000    6.4444390000000000
 Si  Rh 
   4   4
Cartesian
  0.7765505000000000  3.8310553543860002  6.0832604162450004
  2.3296515000000002  1.7648386456140002  0.3611785837550000
  0.7765505000000000  1.0331083543860000  3.5833980837550001
  2.3296515000000002  4.5627856456140004  2.8610409162449999
  0.7765505000000000  2.8120150775160004  1.9157706037250002
  2.3296515000000002  2.7838789224839999  4.5286683962750001
  0.7765505000000000  0.0140680775160000  1.3064488962749998
  2.3296515000000002  5.5818259224840006  5.1379901037249995
