Li Zr Os
 1.0000000000000000
     0.0000000000000000    3.2934549999999998    3.2934549999999998
     3.2934549999999998    0.0000000000000000    3.2934549999999998
     3.2934549999999998    3.2934549999999998    0.0000000000000000
 Li  Zr  Os 
   1   2   1
Cartesian
  1.6467274999999999  1.6467274999999999  1.6467274999999999
  0.0000000000000000  0.0000000000000000  0.0000000000000000
  3.2934484130900001  3.2934484130900001  3.2934484130900001
  4.9401759130899991  4.9401759130899991  4.9401759130899991
