Ac O 
 1.0000000000000000
     4.0954870000000003   -0.0000000000000000    0.0000000000000000
    -2.0477439999999998    3.5467970000000002    0.0000000000000000
     0.0000000000000000    0.0000000000000000    6.2998820000000002
 Ac  O  
   2   3
Cartesian
  2.0477453810770001  1.1822644844010000  4.7552013326560001
 -0.0000023810769999  2.3645325155990000  1.5446806673440001
  2.0477453810770001  1.1822644844010000  2.2383228750719999
 -0.0000023810769999  2.3645325155990000  4.0615591249280003
  0.0000000000000000  0.0000000000000000  0.0000000000000000
