Ba Mg Fe H 
 1.0000000000000000
     2.2782760000000000   -3.9460890000000002    0.0000000000000000
     2.2782760000000000    3.9460890000000002    0.0000000000000000
     0.0000000000000000    0.0000000000000000    6.9698659999999997
 Ba  Mg  Fe  H  
   1   2   1   8
Cartesian
  0.0000000000000000  0.0000000000000000  3.4849329999999998
  2.2782760000000000 -1.3153656307260000  6.1895337423719994
  2.2782760000000000  1.3153656307260002  0.7803322576280000
  0.0000000000000000  0.0000000000000000  0.0000000000000000
  1.0896173928639998 -0.6290934005579999  0.9508291197200001
  3.4669346071359999 -0.6290934005579998  0.9508291197200001
  2.2782760000000000 -2.6879100910619997  0.9508291197200001
  3.4669346071359999  0.6290934005579998  6.0190368802799998
  1.0896173928640001  0.6290934005579999  6.0190368802799998
  2.2782760000000000  2.6879100910619997  6.0190368802799998
  2.2782760000000000 -1.3153656307260000  4.2460214576019997
  2.2782760000000000  1.3153656307260002  2.7238445423980000
