Cs Hf F 
 1.0000000000000000
     6.3607440000000004    0.0000000000000000    0.0000000000000000
    -3.1803720000000002    5.5085660000000001    0.0000000000000000
     0.0000000000000000    0.0000000000000000    4.9703200000000001
 Cs  Hf  F  
   2   1   6
Cartesian
 -0.0000031803720003  3.6723791695220003  3.4567631239200001
  3.1803751803720006  1.8361868304780000  1.5135568760800000
  0.0000000000000000  0.0000000000000000  0.0000000000000000
  4.9193294414160000  0.8322010998840000  3.8692350697600002
  3.1803688196279998  3.8441693087979996  3.8692350697600002
  1.4414081978400000  0.8322010998840000  3.8692350697600002
 -1.7389574414159998  4.6763649001159999  1.1010849302400001
  0.0000031803720001  1.6643966912020001  1.1010849302400001
  1.7389638021600002  4.6763649001159999  1.1010849302400001
