Ho N 
 1.0000000000000000
     2.9731950000000000    0.0000000000000000    1.7165740000000000
     0.9910660000000000    2.8031549999999998    1.7165740000000000
     0.0000000000000000    0.0000000000000000    3.4331489999999998
 Ho  N  
   1   1
Cartesian
  0.0000000000000000  0.0000000000000000  0.0000000000000000
  1.9821305000000000  1.4015774999999999  3.4331484999999997
