Sm Al O 
 1.0000000000000000
     5.2831970000000004    0.0000000000000000    0.0000000000000000
     0.0000000000000000    5.2813460000000001    0.0000000000000000
     0.0000000000000000    0.0000000000000000    7.4695320000000001
 Sm  Al  O  
   4   4  12
Cartesian
  0.1478555512420000  5.2452110306680000  1.8673830000000000
  2.7894540512420001  2.6768079693320002  1.8673830000000000
  2.4937429487580003  2.6045380306679999  5.6021489999999998
  5.1353414487580009  0.0361349693320000  5.6021489999999998
  2.6415985000000002  0.0000000000000000  3.7347660000000000
  0.0000000000000000  2.6406730000000000  0.0000000000000000
  0.0000000000000000  2.6406730000000000  3.7347660000000000
  2.6415985000000002  0.0000000000000000  0.0000000000000000
  3.8189800842380004  1.4602868876540001  3.9990679202879997
  1.1773815842380000  1.1803861123460000  7.2052300797119999
  4.1058154157620006  4.1009598876540005  3.4704640797119999
  1.4642169157620002  3.8210591123459996  0.2643019202880000
  1.4642169157620002  3.8210591123459996  3.4704640797119999
  4.1058154157620006  4.1009598876540005  0.2643019202880000
  1.1773815842380000  1.1803861123460000  3.9990679202879997
  3.8189800842380004  1.4602868876540001  7.2052300797119999
  2.6926236166260007  4.9311452280860006  5.6021489999999998
  0.0510251166260000  2.9908737719139999  5.6021489999999998
  5.2321718833739999  2.2904722280860002  1.8673830000000000
  2.5905733833740001  0.3502007719140001  1.8673830000000000
