Pm Ir Ru
 1.0000000000000000
     0.0000000000000000    3.4891019999999999    3.4891019999999999
     3.4891019999999999    0.0000000000000000    3.4891019999999999
     3.4891019999999999    3.4891019999999999    0.0000000000000000
 Pm  Ir  Ru 
   2   1   1
Cartesian
  0.0000000000000000  0.0000000000000000  0.0000000000000000
  3.4890950217960000  3.4890950217960000  3.4890950217960000
  1.7445510000000000  1.7445510000000000  1.7445510000000000
  5.2336530000000003  5.2336530000000003  5.2336530000000003
