Mg Tl
 1.0000000000000000
     3.6378029999999999    0.0000000000000000    0.0000000000000000
     0.0000000000000000    3.6378029999999999    0.0000000000000000
     0.0000000000000000    0.0000000000000000    3.6378029999999999
 Mg  Tl 
   1   1
Cartesian
  0.0000000000000000  0.0000000000000000  0.0000000000000000
  1.8189014999999999  1.8189014999999999  1.8189014999999999
