Hf Zn
 1.0000000000000000
     7.3564900000000000    0.0000000000000000    0.0000000000000000
     0.0000000000000000    7.3564900000000000    0.0000000000000000
     0.0000000000000000    0.0000000000000000    7.3564900000000000
 Hf  Zn 
   8  16
Cartesian
  6.4369287499999999  6.4369287499999999  6.4369287499999999
  4.5978062499999997  0.9195612500000000  4.5978062499999997
  6.4369287499999999  2.7586837499999999  2.7586837499999999
  4.5978062499999997  4.5978062499999997  0.9195612500000000
  2.7586837499999999  6.4369287499999999  2.7586837499999999
  0.9195612500000000  0.9195612500000000  0.9195612500000000
  2.7586837499999999  2.7586837499999999  6.4369287499999999
  0.9195612500000000  4.5978062499999997  4.5978062499999997
  0.0000000000000000  1.8391225000000000  5.5173674999999998
  5.5173674999999998  1.8391225000000000  0.0000000000000000
  5.5173674999999998  0.0000000000000000  1.8391225000000000
  0.0000000000000000  0.0000000000000000  3.6782450000000000
  0.0000000000000000  5.5173674999999998  1.8391225000000000
  5.5173674999999998  5.5173674999999998  3.6782450000000000
  5.5173674999999998  3.6782450000000000  5.5173674999999998
  0.0000000000000000  3.6782450000000000  0.0000000000000000
  3.6782450000000000  1.8391225000000000  1.8391225000000000
  1.8391225000000000  1.8391225000000000  3.6782450000000000
  1.8391225000000000  0.0000000000000000  5.5173674999999998
  3.6782450000000000  0.0000000000000000  0.0000000000000000
  3.6782450000000000  5.5173674999999998  5.5173674999999998
  1.8391225000000000  5.5173674999999998  0.0000000000000000
  1.8391225000000000  3.6782450000000000  1.8391225000000000
  3.6782450000000000  3.6782450000000000  3.6782450000000000
