Cr Fe P 
 1.0000000000000000
     3.5413060000000001    0.0000000000000000   -0.0000000000000000
     0.0000000000000000    5.7822129999999996   -0.0000420000000000
    -0.0000000000000000   -0.0000490000000000    6.5811849999999996
 Cr  Fe  P  
   4   4   4
Cartesian
  2.6559794999999999  5.6770689984839988  5.4684957214090000
  0.8853265000000000  0.1050950015160000  1.1126472785910000
  2.6559794999999999  2.7860282526850000  4.4031610743739993
  0.8853265000000000  2.9961357473150003  2.1779819256259998
  0.8853265000000000  3.7317308124899999  6.1585339365170002
  2.6559794999999999  2.0504331875099999  0.4226090634829999
  0.8853265000000000  0.8406309557289999  3.7130853083759998
  2.6559794999999999  4.9415330442709990  2.8680576916240001
  0.8853265000000000  1.5535682626659997  5.7731489831739990
  2.6559794999999999  4.2285957373339995  0.8079940168259999
  0.8853265000000000  4.4445137626109990  4.0987758026589995
  2.6559794999999999  1.3376502373889998  2.4823671973410000
