Zr Fe Sb
 1.0000000000000000
     7.7795719999999999    0.0000030000000000    0.0000000000000000
    -3.8897830000000000    6.7373190000000003    0.0000000000000000
     0.0000000000000000    0.0000000000000000    3.6909459999999998
 Zr  Fe  Sb 
   6   1   2
Cartesian
  4.6421250694039999  0.0000017901210000  1.8454729999999999
 -0.9300315560000000  1.6112433135720001  0.0000000000000000
  2.9597560090819997  5.1260644944990004  0.0000000000000000
  1.5687052263040000  2.7172428104280000  1.8454729999999999
  5.4585073655639995  4.0200534501599998  1.8454729999999999
 -2.0296951143720001  6.7373197172969999  0.0000000000000000
  0.0001400323080000  0.0000269493360000  1.8454729999999999
  0.0000214488529996  4.4913740754480003  0.0000000000000000
  3.8896391882119996  2.2459546618230002  0.0000000000000000
