Al Os
 1.0000000000000000
     3.0193010000000000    0.0000000000000000    0.0000000000000000
     0.0000000000000000    3.0193010000000000    0.0000000000000000
     0.0000000000000000    0.0000000000000000    3.0193010000000000
 Al  Os 
   1   1
Cartesian
  0.0000000000000000  0.0000000000000000  0.0000000000000000
  1.5096505000000000  1.5096505000000000  1.5096505000000000
