Ca Si O 
 1.0000000000000000
     7.0843639999999999    0.0019250000000000    0.0164250000000000
    -0.0082980000000000    7.3252639999999998    0.0057300000000000
    -0.7474340000000000   -1.8450770000000001    7.6793269999999998
 Ca  Si  O  
   6   6  18
Cartesian
  3.3650797805420001  4.5677612347609999  3.8929348694850003
  2.9635522194580002  0.9143507652389999  3.8085471305150000
  5.2494547445819997  6.4360402917049999  1.5877407160510000
  1.0791772554179999 -0.9539282917050000  6.1137412839489995
  5.2357018203579999  2.7335988721789999  1.5510613955169998
  1.0929301796419999  2.7485131278209995  6.1504206044830001
  0.1008598607400000  4.5668698742769998  3.0535048655949999
  6.2277721392599998  0.9152421257230001  4.6479771344050000
  1.7631356213459999  6.6472883069429995  1.4300000065770000
  4.5654963786540002 -1.1651763069430001  6.2714819934229995
  1.7650137825120003  2.5003469576639996  1.4250057024380001
  4.5636182174880009  2.9817650423359994  6.2764762975620005
  0.4508478903159999  3.2523431037899995  2.0956061433860000
  5.8777841096839998  2.2297688962099995  5.6058758566139995
  0.4557614276120001  5.8800209104549994  2.0878232109249999
  5.8728705723879999 -0.3979089104550001  5.6136587890750000
  1.4430450565319997  0.9078127375689998  1.6906218687910000
  4.8855869434680006  4.5742992624309995  6.0108601312090002
  5.5762330511580007  4.5798980495049992  3.1101217150770002
  0.7523989488420001  0.9022139504949995  4.5913602849230006
  1.1288031380840000  4.5431913761269991  7.5382055012189992
  5.1998288619160009  0.9389206238730000  0.1632764987810000
  1.1428011015299999  0.9219368458610000  7.5427402864510000
  5.1858308984699999  4.5601751541390003  0.1587417135490000
  3.2725670310819996  2.6442345358939998  5.3618040569519998
  3.0560649689179997  2.8378774641060001  2.3396779430479997
  3.2673013008459995 -0.8242298817830001  5.3719147767109998
  3.0613306991539999  6.3063418817830001  2.3295672232889997
  5.3410310542439996  0.9068696656220000  3.3085208386739997
  0.9876009457560000  4.5752423343780002  4.3929611613260002
