Sb S  Br
 1.0000000000000000
     3.9672499999999999    0.0000000000000000    0.0000000000000000
     0.0000000000000000    8.4695339999999995    0.0000000000000000
     0.0000000000000000    0.0000000000000000   10.0623000000000005
 Sb  S   Br 
   4   4   4
Cartesian
  1.0455885737499999  5.1907910588519997  3.7033389543000004
  3.0292135737499999  3.2787429411479998  6.3589610457000010
  3.0292135737499999  7.5135099411479995  8.7344889542999997
  1.0455885737499999  0.9560240588520000  1.3278110457000001
  1.0388323469999998  2.8755761836799998  4.6044581684999999
  3.0224573470000000  5.5939578163199997  5.4578418315000006
  3.0224573470000000  1.3591908163199999  9.6356081685000010
  1.0388323469999998  7.1103431836799995  0.4266918315000000
  1.0346310292500001  0.1521297697080000  6.8901398004000010
  3.0182560292500002  8.3174042302919986  3.1721601996000000
  3.0182560292500002  4.0826372302919998  1.8589898004000001
  1.0346310292500001  4.3868967697079997  8.2033101996000006
