Ti Ga Ni
 1.0000000000000000
     6.7611670000000004    0.0000000000000000    0.0000000000000000
    -3.3805830000000001    5.8553410000000001    0.0000000000000000
     0.0000000000000000    0.0000000000000000    3.0953860000000000
 Ti  Ga  Ni 
   3   3   3
Cartesian
 -2.0552186736840001  3.5597428502680004  1.5476930000000000
  1.3253647183680002  2.2955981497320002  1.5476930000000000
  4.1104379553160006  0.0000000000000000  1.5476930000000000
 -0.9253974098370000  1.6028351899990001  0.0000000000000000
  2.4551863164240002  4.2525058100010007  0.0000000000000000
  1.8507950934130002  0.0000000000000000  0.0000000000000000
  0.0000000000000000  0.0000000000000000  1.5476930000000000
 -0.0000030472500001  3.9035626184470003  0.0000000000000000
  3.3805870472500006  1.9517783815530001  0.0000000000000000
