Sm Br
 1.0000000000000000
     4.0517450000000004    0.0012990000000000    0.0000040000000000
    -2.0236450000000001    6.5869210000000002    0.0000020000000000
     0.0000090000000000    0.0000220000000000    9.1768789999999996
 Sm  Br 
   2   6
Cartesian
  2.0273745968320003  3.1960813693770000  2.2942512213269999
  0.0007303514949999  3.3921606295000002  6.8827071937010000
  0.0000822516590001  4.6233307258909999  3.9776843008679998
  2.0281017434550002  1.9650232867510002  5.1991639917579997
  2.0258420275560001  5.4325191182410002  6.8826553695149997
  0.0022142863940000  1.1556833394490000  2.2942296304089997
  0.0002490782990000  4.6231909572390002  0.6106873958560000
  2.0278457160640002  1.9649785748730002  8.5661700734489994
