Ca Mg
 1.0000000000000000
     6.2363609999999996    0.0000000000000000    0.0000000000000000
    -3.1181809999999999    5.4008469999999997    0.0000000000000000
     0.0000000000000000    0.0000000000000000   10.0961250000000007
 Ca  Mg 
   4   8
Cartesian
 -0.0000034515140001  3.6005664669490001  4.4259796620000005
  3.1181834515139997  1.8002805330509999  9.4740421619999999
  3.1181834515139997  1.8002805330509999  5.6701453380000002
 -0.0000034515140001  3.6005664669490001  0.6220828380000000
 -0.0000001686080000  1.8212520219520001  7.5720937500000005
  4.6591103824640001  0.9106260109760000  2.5240312500000002
  1.5772504489280001  0.9106260109760000  2.5240312500000002
  1.5409295510720000  4.4902209890239995  7.5720937500000005
  0.0000000000000000  0.0000000000000000  0.0000000000000000
  0.0000000000000000  0.0000000000000000  5.0480625000000003
  3.1181801686079997  3.5795949780480001  2.5240312500000002
 -1.5409303824639999  4.4902209890239995  7.5720937500000005
