La Pb
 1.0000000000000000
     4.9483160000000002    0.0000000000000000    0.0000000000000000
     0.0000000000000000    4.9483160000000002    0.0000000000000000
     0.0000000000000000    0.0000000000000000    4.9483160000000002
 La  Pb 
   1   3
Cartesian
  0.0000000000000000  0.0000000000000000  0.0000000000000000
  0.0000000000000000  2.4741580000000001  2.4741580000000001
  2.4741580000000001  2.4741580000000001  0.0000000000000000
  2.4741580000000001  0.0000000000000000  2.4741580000000001
