Ni Mo P 
 1.0000000000000000
     3.3309709999999999    0.0000000000000000    0.0000000000000000
    -1.6654850000000001    2.8847060000000000    0.0000000000000000
     0.0000000000000000    0.0000000000000000   11.1254799999999996
 Ni  Mo  P  
   2   2   4
Cartesian
  0.0000000000000000  0.0000000000000000  0.0000000000000000
  0.0000000000000000  0.0000000000000000  5.5627399999999998
  0.0000000000000000  0.0000000000000000  8.3441100000000006
  0.0000000000000000  0.0000000000000000  2.7813699999999999
 -0.0000013321520002  1.9231382949019999  4.3172425140000001
  1.6654873321519998  0.9615677050979999  9.8799825139999999
 -0.0000013321520002  1.9231382949019999  1.2454974859999999
  1.6654873321519998  0.9615677050979999  6.8082374859999994
