Pm Zn Pb
 1.0000000000000000
     0.0000000000000000    3.7832430000000001    3.7832430000000001
     3.7832430000000001    0.0000000000000000    3.7832430000000001
     3.7832430000000001    3.7832430000000001    0.0000000000000000
 Pm  Zn  Pb 
   2   1   1
Cartesian
  5.6748645000000000  5.6748645000000000  5.6748645000000000
  1.8916215000000001  1.8916215000000001  1.8916215000000001
  3.7832430000000001  3.7832430000000001  3.7832430000000001
  0.0000000000000000  0.0000000000000000  0.0000000000000000
