Nd Ga
 1.0000000000000000
     6.0084410000000004    0.0000000000000000    0.0000000000000000
     0.0000000000000000    6.0084410000000004    0.0000000000000000
     0.0000000000000000    0.0000000000000000    7.6161810000000001
 Nd  Ga 
   2  12
Cartesian
  4.5063307500000001  1.5021102500000001  0.0000000000000000
  1.5021102500000001  4.5063307500000001  0.0000000000000000
  4.5063307500000001  4.5063307500000001  1.2193048810139999
  1.5021102500000001  1.5021102500000001  1.2193048810139999
  1.5021102500000001  1.5021102500000001  6.3968761189860004
  4.5063307500000001  4.5063307500000001  6.3968761189860004
  0.2444293883210000  5.7640116116790008  2.6232945350970001
  3.2486498883210002  0.2444293883210000  2.6232945350970001
  5.7640116116790008  2.7597911116790002  2.6232945350970001
  2.7597911116790002  3.2486498883210002  2.6232945350970001
  5.7640116116790008  0.2444293883210000  4.9928864649030000
  2.7597911116790002  5.7640116116790008  4.9928864649030000
  0.2444293883210000  3.2486498883210002  4.9928864649030000
  3.2486498883210002  2.7597911116790002  4.9928864649030000
