Ba Li As
 1.0000000000000000
     4.5322789999999999    0.0000000000000000    0.0000000000000000
    -2.2661389999999999    3.9250680000000000    0.0000000000000000
     0.0000000000000000    0.0000000000000000    4.6052359999999997
 Ba  Li  As 
   1   1   1
Cartesian
  0.0000000000000000  0.0000000000000000  0.0000000000000000
 -0.0000019328059999  2.6167133083560001  2.3026179999999998
  2.2661419328060002  1.3083546916439999  2.3026179999999998
