Ba Zn P 
 1.0000000000000000
     3.8552979999999999   -0.0000000000000000   -1.1207499999999999
    -0.3258070000000000    3.8415070000000000   -1.1207499999999999
     0.0114630000000000    0.0124770000000000    7.2307769999999998
 Ba  Zn  P  
   1   2   2
Cartesian
  0.0000000000000000  0.0000000000000000  0.0000000000000000
  0.7252007499999999  2.8873687499999998  2.4946384999999998
  2.8157532500000002  0.9666152500000000  2.4946384999999998
  2.2698814467779997  2.4705449343719996  0.6168878093070003
  1.2710725532220000  1.3834390656280000  4.3723891906930001
