Ca Pm Zn
 1.0000000000000000
    -0.0003860000000000    3.6412490000000002    3.6412490000000002
     3.6412490000000002   -0.0003860000000000    3.6412490000000002
     3.6412490000000002    3.6412490000000002   -0.0003860000000000
 Ca  Pm  Zn 
   1   1   2
Cartesian
  1.8205279999999999  1.8205279999999999  1.8205280000000001
  5.4615912821120007  5.4615912821120007  5.4615912821120007
  7.2819008187520007  7.2819008187520007  7.2819008187520007
  3.6412817454720003  3.6412817454720003  3.6412817454720003
