Li Ca Si
 1.0000000000000000
     0.0000000000000000    3.2701159999999998    3.2701159999999998
     3.2701159999999998    0.0000000000000000    3.2701159999999998
     3.2701159999999998    3.2701159999999998    0.0000000000000000
 Li  Ca  Si 
   2   1   1
Cartesian
  0.0000000000000000  0.0000000000000000  0.0000000000000000
  3.2701159999999998  3.2701159999999998  3.2701159999999998
  1.6350579999999999  1.6350579999999999  1.6350579999999999
  4.9051805402320001  4.9051805402320001  4.9051805402320001
