Ba Ag Sn Se
 1.0000000000000000
    -3.5995260000000000    3.8103600000000002    4.2910170000000001
     3.5995260000000000   -3.8103600000000002    4.2910170000000001
     3.5995260000000000    3.8103600000000002   -4.2910170000000001
 Ba  Ag  Sn  Se 
   1   2   1   4
Cartesian
  0.0000000000000000  0.0000000000000000  0.0000000000000000
  3.5995260000000000  0.0000000000000000  2.6571607850460000
  0.0000000000000000  3.8103600000000002  1.6338562149540001
  0.0000000000000000  0.0000000000000000  4.2910170000000001
  1.4796571528199998  1.4888981700000004  2.7984983029919999
  1.4796571528200002 -1.4888981700000001  5.7835356970079994
  2.1198724467060002  2.3214580196400001 -1.4925229880250002
  2.1198652476540008  5.2992619803599998  1.4925229880249993
