Hf Sc Os
 1.0000000000000000
     0.0000000000000000    3.2203249999999999    3.2203249999999999
     3.2203249999999999    0.0000000000000000    3.2203249999999999
     3.2203249999999999    3.2203249999999999    0.0000000000000000
 Hf  Sc  Os 
   1   1   2
Cartesian
  1.6101624999999999  1.6101624999999999  1.6101624999999999
  4.8304939406500003  4.8304939406500003  4.8304939406500003
  0.0000000000000000  0.0000000000000000  0.0000000000000000
  3.2203249999999999  3.2203249999999999  3.2203249999999999
