Ca Al Au
 1.0000000000000000
     4.5615850000000000    0.0000000000000000    0.0000000000000000
     0.0000000000000000    7.3336620000000003    0.0000000000000000
     0.0000000000000000    0.0000000000000000    7.8158170000000000
 Ca  Al  Au 
   4   4   4
Cartesian
  1.1403962500000000  0.1108336338060000  5.3380779579280002
  1.1403962500000000  3.7776646338060007  6.3856475420719994
  3.4211887499999998  7.2228283661940003  2.4777390420720002
  3.4211887499999998  3.5559973661940001  1.4301694579280000
  3.4211887499999998  6.1936882440719998  7.2841694960260002
  1.1403962500000000  1.1399737559280001  0.5316475039740000
  1.1403962500000000  4.8068047559280007  3.3762609960259997
  3.4211887499999998  2.5268572440720001  4.4395560039740003
  1.1403962500000000  5.8070282487840004  0.8829450306730000
  3.4211887499999998  1.5266337512160000  6.9328719693270004
  3.4211887499999998  5.1934647512160002  4.7908535306730000
  1.1403962500000000  2.1401972487839998  3.0249634693270000
