Rb Nb O 
 1.0000000000000000
     5.9103349999999999    0.0533140000000000   -2.5022190000000002
    -3.3304920000000000    5.3014510000000001   -1.4136629999999999
     0.0334930000000000   -0.0533140000000000    6.4181030000000003
 Rb  Nb  O  
   3   1   8
Cartesian
 -1.6484995000000000  2.6240684999999999  2.5022200000000003
  0.4656717499999999  3.9894167500000002 -0.7068309999999998
  2.1476642500000001  1.3120342500000000  3.2090520000000002
  0.0000000000000000  0.0000000000000000  0.0000000000000000
 -1.5124694796430003  5.0038607653750002  4.0709120368140006
 -0.1534599035650000  0.2442762346250000  2.0081013551620002
 -1.0765844833550000  1.7136987173350000 -0.1410448799620000
  2.0588508665629996  3.5877522826649999  1.5686924879860005
  0.9211546772109996  4.0902249697410005  2.4009207128060006
 -0.7274266729100000  1.1579119769450001  4.9032695561210007
 -2.7030513316050002  4.3026958495000001  0.3037751972790001
  1.8256603273040002  0.9987552038140000 -0.1013044662060001
