Na I 
 1.0000000000000000
     6.5303779999999998    0.0000000000000000    0.0000000000000000
     0.0000000000000000    6.5303779999999998    0.0000000000000000
     0.0000000000000000    0.0000000000000000    6.5303779999999998
 Na  I  
   4   4
Cartesian
  0.0000000000000000  0.0000000000000000  0.0000000000000000
  0.0000000000000000  3.2651889999999999  3.2651889999999999
  3.2651889999999999  0.0000000000000000  3.2651889999999999
  3.2651889999999999  3.2651889999999999  0.0000000000000000
  3.2651889999999999  3.2651889999999999  3.2651889999999999
  3.2651889999999999  0.0000000000000000  0.0000000000000000
  0.0000000000000000  3.2651889999999999  0.0000000000000000
  0.0000000000000000  0.0000000000000000  3.2651889999999999
