Os Cl
 1.0000000000000000
     3.6036850000000000    0.0000000000000000    0.0000000000000000
     0.0000000000000000    5.9042579999999996   -0.3269230000000000
     0.0000000000000000   -0.0383030000000000    5.9131770000000001
 Os  Cl 
   1   4
Cartesian
  0.0000000000000000  0.0000000000000000  0.0000000000000000
  0.0000000000000000  4.2254350970599992  4.0239575163280001
  1.8018425000000000  4.8254098206940004  0.8059421946000001
  1.8018425000000000  1.0405451793060001  4.7803118054000002
  0.0000000000000000  1.6405199029400002  1.5622964836720001
