Li Sn Rh
 1.0000000000000000
    -3.3217580000000000    3.3217580000000000    5.6948109999999996
     3.3217580000000000   -3.3217580000000000    5.6948109999999996
     3.3217580000000000    3.3217580000000000   -5.6948109999999996
 Li  Sn  Rh 
   2   8   2
Cartesian
  0.0000000000000000  0.0000000000000000  5.6948109999999996
  0.0000000000000000  0.0000000000000000  0.0000000000000000
  1.0606705469800000  2.2610874530200000 -1.5467106675999998
  4.3824285469800000  1.0606705469800002 -1.5467106676000000
 -1.0606705469800000  2.2610874530200000  4.1481003323999994
  4.3824285469800000  1.0606705469800000  1.5467106676000000
 -1.0606705469800000  2.2610874530200000  7.2415216675999989
  2.2610874530200000  1.0606705469800000  7.2415216675999998
  1.0606705469800000  2.2610874530200000  1.5467106676000002
  2.2610874530200000  1.0606705469800000  4.1481003323999994
 -0.0000000000000002  0.0000000000000002  8.5422164999999985
  0.0000000000000000  0.0000000000000000  2.8474054999999998
