Nd Co Ge
 1.0000000000000000
    -2.1457350000000002    2.1457350000000002    4.9088370000000001
     2.1457350000000002   -2.1457350000000002    4.9088370000000001
     2.1457350000000002    2.1457350000000002   -4.9088370000000001
 Nd  Co  Ge 
   1   1   3
Cartesian
 -0.0000000000000000  0.0000000000000000  6.5273296472700002
  0.0000000000000001 -0.0000000000000001  9.8011901253540010
  2.1457350000000002 -0.0000000000000002  3.9850724179919998
  0.0000000000000000 -0.0000000000000000  2.2522529569920002
  0.0000000000000000  2.1457350000000002  3.9850724179920007
