Li Sc Pt
 1.0000000000000000
     0.0000380000000000    3.2941419999999999    3.2941500000000001
     3.2944960000000001    0.0000390000000000    3.2941479999999999
     3.2945009999999999    3.2941449999999999    0.0000360000000000
 Li  Sc  Pt 
   1   2   1
Cartesian
  1.6472620444580000  1.6470782058969999  1.6470834999979997
  3.2945274110080001  3.2941809999219998  6.5882914117040006
  3.2945109110030000  3.2941597058159999  3.2941637058160005
  4.9417729554229997  4.9412346175709994  4.9412439116639995
