Ta Co
 1.0000000000000000
     3.6479469999999998    0.0000000000000000    0.0000000000000000
     0.0000000000000000    3.6479469999999998    0.0000000000000000
     0.0000000000000000    0.0000000000000000    3.6479469999999998
 Ta  Co 
   1   3
Cartesian
  0.0000000000000000  0.0000000000000000  0.0000000000000000
  0.0000000000000000  1.8239734999999999  1.8239734999999999
  1.8239734999999999  1.8239734999999999  0.0000000000000000
  1.8239734999999999  0.0000000000000000  1.8239734999999999
