Mg Cd
 1.0000000000000000
     6.3236210000000002    0.0000000000000000    0.0000000000000000
    -3.1618100000000000    5.4764169999999996    0.0000000000000000
     0.0000000000000000    0.0000000000000000    5.0820520000000000
 Mg  Cd 
   2   6
Cartesian
  3.1618138284770003  1.8254705078609998  1.2705130000000000
 -0.0000028284769999  3.6509464921390000  3.8115389999999998
 -0.0000029945210000  1.8322941234429999  1.2705130000000000
  3.1618139945209998  3.6441228765570002  3.8115389999999998
  4.7368127334410000  0.9161443235129999  3.8115389999999998
  1.5749962425310005  4.5602726764869992  1.2705130000000000
 -1.5750017334409998  4.5602726764869992  1.2705130000000000
  1.5868147574690004  0.9161443235129999  3.8115389999999998
