Nb Pd
 1.0000000000000000
     4.9177320000000000    0.0000000000000000    0.0000000000000000
     0.0000000000000000    5.5735650000000003    0.0000000000000000
     0.0000000000000000    0.0000000000000000   13.7978520000000007
 Nb  Pd 
   6  18
Cartesian
  3.2682755098800000  4.1801737499999998  1.1808753655680000
  1.6494564901200000  1.3933912500000001 12.6169628365800008
  4.8545391438000003  1.3933912500000001  3.4494630000000002
  1.6494564901200000  1.3933912500000001  8.0798151634200011
  3.2682755098800000  4.1801737499999998  5.7180506344320001
  0.0631928562000000  4.1801737499999998 10.3483890000000009
  0.7995887990759999  0.0070728539850000  1.1400613193520002
  4.1181432009240000  5.5664921460150003  8.0389873193519996
  0.7995887990759999  0.0070728539850000  5.7588646806480002
  2.5173132448200000  5.5628860494600003 10.3483890000000009
  2.4004187551800000  0.0106789505400000  3.4494630000000002
  0.7995887990759999  2.7797096460150001  1.1400613193520002
  4.1181432009240000  5.5664921460150003 12.6577906806480005
  1.6710600867960002  4.1801737499999998 12.6338928009840004
  0.7995887990759999  2.7797096460150001  5.7588646806480002
  3.2466719132040001  1.3933912500000001  5.7349668009840000
  2.4004187551800000  2.7761035494600002  3.4494630000000002
  4.1181432009240000  2.7938553539850002 12.6577906806480005
  4.8034389905879999  4.1801737499999998  3.4494630000000002
  1.6710600867960002  4.1801737499999998  8.0628851990160015
  4.1181432009240000  2.7938553539850002  8.0389873193519996
  3.2466719132040001  1.3933912500000001  1.1639591990160001
  0.1142930094120000  1.3933912500000001 10.3483890000000009
  2.5173132448200000  2.7974614505400002 10.3483890000000009
