Dy C 
 1.0000000000000000
     3.4831889999999999    0.0239530000000000    5.4385110000000001
     1.6102360000000000    3.0887389999999999    5.4385110000000001
     0.0391930000000000    0.0239530000000000    6.4582090000000001
 Dy  C  
   2   1
Cartesian
  1.3359794044560001  0.8164436003400001  4.5122219474520007
  3.7966385955440001  2.3202013996599997 12.8230090525480005
  0.0000000000000000  0.0000000000000000  0.0000000000000000
