Nd Si
 1.0000000000000000
     3.9373450000000001    0.0000000000000000    0.0000000000000000
     0.0000000000000000    5.9356150000000003    0.0000000000000000
     0.0000000000000000    0.0000000000000000    8.2775280000000002
 Nd  Si 
   4   4
Cartesian
  0.9843362500000000  2.2933435675500000  5.6226102243360003
  2.9530087500000000  3.6422714324500003  2.6549177756640003
  2.9530087500000000  5.2611510675500002  6.7936817756640000
  0.9843362500000000  0.6744639324500000  1.4838462243360000
  0.9843362500000000  5.2195542776300003  4.4284278148320002
  2.9530087500000000  0.7160607223700000  3.8491001851680000
  2.9530087500000000  2.2517467776300002  7.9878641851680001
  0.9843362500000000  3.6838682223700001  0.2896638148320000
