Pa Pd
 1.0000000000000000
     5.6868449999999999   -0.0000000000000000    0.0000000000000000
    -2.8434230000000000    4.9249530000000004    0.0000000000000000
     0.0000000000000000    0.0000000000000000    5.0541080000000003
 Pa  Pd 
   2   6
Cartesian
  2.8434223333339999  1.6416444333960003  1.2635320541080000
 -0.0000003333340001  3.2833085666040005  3.7905911082159998
  4.2824245199019995  0.8108491868730001  3.7905911082159998
  1.4044203154570001  0.8108491868730001  3.7905911082159998
  2.8434193212169996  3.3032694011130004  3.7905911082159998
 -1.4389968330570000  4.1141038131270005  1.2635320541080000
  1.4390187450779997  4.1141038131270005  1.2635320541080000
  0.0000112090520000  1.6216688240280002  1.2635320541080000
