Na Ti O 
 1.0000000000000000
     2.6577329999999999   -4.6032440000000001    0.0000050000000000
     2.6577210000000000    4.6032770000000003   -0.0000020000000000
     0.0000060000000000   -0.0000070000000000    9.5435639999999999
 Na  Ti  O  
   4   5  12
Cartesian
  2.6575643083979998 -1.5344038334649999  8.5938770693619997
  2.6578956916020000  1.5344298334650002  0.9496899306380000
  5.3153256309749999  0.0000078133930002  2.9578207033360000
  0.0001343690250000  0.0000181866070000  6.5857462966640004
  2.6577225164580001  1.5344456380790001  4.5044480185530000
  2.6577210000000000  4.6032770000000003 -0.0000020000000000
  2.6577164051610001  1.5344204495640001  7.4659018198420002
  2.6577374835419998 -1.5344196380789996  5.0391189814470003
  2.6577409371240002 -1.5343990528479998  2.0776747237239999
  1.1802561114270000 -1.8914612467869998  3.6054078864400001
  3.0872446267380003 -0.0763699826600001  3.6054075826700003
  3.7056797733179998 -2.6353923073599996  3.6054098774140000
  2.2816872846030001 -3.0749324746469999  1.1573230013269999
  4.1799050791859997 -1.0898060286209994  1.1573225633240001
  1.6097802266760000  2.6354183073669999  5.9381475790220000
  3.8038605232379994  0.4385056465970003  8.3862273507539999
  1.1355602362680000  1.0898320286540000  8.3862444366790001
  4.1352012308400008  1.8914918500310003  5.9381591135549998
  1.5116021344770001 -0.4384750433130002  1.1573301056800001
  2.2282153732619996  0.0763959826600001  5.9381594173299996
  3.0337727153970002  3.0749584746470005  8.3862439986730006
