Na Sb Se
 1.0000000000000000
     6.1163020000000001    0.0000000000000000   -2.1624400000000001
    -3.0581499999999999    5.2968739999999999   -2.1624400000000001
    -0.0000000000000000   -0.0000000000000000    6.4873180000000001
 Na  Sb  Se 
   3   1   4
Cartesian
 -1.5290750000000000  2.6484369999999999  2.1624390000000000
  3.0581510000000001  0.0000000000000000  2.1624390000000000
  1.5290760000000001  2.6484369999999999 -2.1624400000000001
  0.0000000000000000  0.0000000000000000  0.0000000000000000
  1.1748686027519999  2.0349318658239999  0.8307567810879999
 -1.8832821656000001  3.2619421341760000 -1.3316824505600002
  3.7665655628480001  0.0000000000000000 -1.3316824505600002
  0.0000000000000000  0.0000000000000000  3.9950461200320002
