Rb Zr Cl
 1.0000000000000000
     6.2540540000000000    0.0000000000000000    3.6107800000000001
     2.0846849999999999    5.8963789999999996    3.6107800000000001
     0.0000000000000000    0.0000000000000000    7.2215600000000002
 Rb  Zr  Cl 
   2   1   6
Cartesian
  6.2540542500000003  4.4222842499999997 10.8323400000000003
  2.0846847500000001  1.4740947499999999  3.6107800000000001
  0.0000000000000000  0.0000000000000000  0.0000000000000000
  3.0940100168889999  4.4689776753009998  9.0841375336399999
  3.0940100168889999  4.4689776753009998  5.3589824663599996
  5.2447289831110000  1.4274013246989998  9.0841375336399999
  5.2447289831110000  1.4274013246989998  5.3589824663599996
  6.3200887241409998  4.4689776753009998  7.2215600000000002
  2.0186502758589997  1.4274013246989998  7.2215600000000002
