Sr Pb O 
 1.0000000000000000
     5.8857249999999999    0.0000000000000000    0.0000000000000000
     0.0000000000000000    6.0272620000000003    0.0000000000000000
     0.0000000000000000    0.0000000000000000    8.3694260000000007
 Sr  Pb  O  
   4   4  12
Cartesian
  2.8669189903249999  0.2983313872140000  6.2770695000000005
  5.8097814903250002  2.7152996127860001  2.0923565000000002
  3.0188060096750000  5.7289306127860007  2.0923565000000002
  0.0759435096750000  3.3119623872140003  6.2770695000000005
  0.0000000000000000  0.0000000000000000  4.1847130000000003
  2.9428624999999999  3.0136310000000002  0.0000000000000000
  2.9428624999999999  3.0136310000000002  4.1847130000000003
  0.0000000000000000  0.0000000000000000  0.0000000000000000
  3.5148195983249995  2.7961975233500000  6.2770695000000005
  1.7566887978500001  4.7957597736360000  7.9398149939940001
  0.5719570983250000  0.2174334766500000  2.0923565000000002
  1.1861737021499998  1.7821287736360001  7.9398149939940001
  1.7566887978500001  4.7957597736360000  4.6143240060060009
  5.3137679016749999  5.8098285233500002  6.2770695000000005
  4.6995512978500003  4.2451332263640005  0.4296110060060001
  4.1290362021500000  1.2315022263640001  0.4296110060060001
  2.3709054016750000  3.2310644766499999  2.0923565000000002
  4.6995512978500003  4.2451332263640005  3.7551019939940002
  4.1290362021500000  1.2315022263640001  3.7551019939940002
  1.1861737021499998  1.7821287736360001  4.6143240060060009
