Rb Cu Br Cl
 1.0000000000000000
     3.6570619999999998   -8.2822859999999991    0.0000000000000000
     3.6570619999999998    8.2822859999999991    0.0000000000000000
     0.0000000000000000    0.0000000000000000    7.3160569999999998
 Rb  Cu  Br  Cl 
   4   2   4   4
Cartesian
  3.6570620000000003 -6.0764150759039994  3.6580284999999999
  3.6570619999999994  2.2058709240959993  0.0000000000000000
  3.6570620000000003  6.0764150759039994  3.6580284999999999
  3.6570619999999994 -2.2058709240959993  0.0000000000000000
  0.0000000000000000  0.0000000000000000  0.0000000000000000
  3.6570619999999998  0.0000000000000000  3.6580284999999999
  3.6570619999999998 -5.7220988808239994  0.0000000000000000
  3.6570619999999998  5.7220988808239994  0.0000000000000000
  3.6570619999999998  2.5601871191759997  3.6580284999999999
  3.6570619999999998 -2.5601871191759997  3.6580284999999999
  5.7152638077239999 -0.0000000000000004  1.5991437390599998
  1.5988601922759997 -0.0000000000000000  5.7169132609400002
  2.0582018077240001  0.0000000000000000  2.0588847609399998
  5.2559221922759995  0.0000000000000004  5.2571722390600000
