Be Ge As
 1.0000000000000000
     5.4013059999999999    0.0000000000000000    0.0000000000000000
     0.0000000000000000    5.4013059999999999    0.0000000000000000
    -2.7006519999999998   -2.7006519999999998    5.4264729999999997
 Be  Ge  As 
   2   2   4
Cartesian
  0.0000000000000000  0.0000000000000000  0.0000000000000000
  0.0000005000000001  2.7006535000000005  2.7132364999999998
  2.7006535000000005  0.0000005000000001  2.7132364999999998
  2.7006530000000000  2.7006530000000000  0.0000000000000000
 -1.3503257499999999  1.5037783534600004  4.0698547499999993
  4.2044308534599999  4.0509797499999998  1.3566182499999999
  1.3503272499999999 -1.5037768534599998  4.0698547499999993
  1.1968702452339999  1.3503267500000002  1.3566182499999999
