Pb O 
 1.0000000000000000
     3.9995140000000000    0.0000000000000000    0.0000000000000000
     0.0000000000000000    3.9995140000000000    0.0000000000000000
     0.0000000000000000    0.0000000000000000    5.2598159999999998
 Pb  O  
   2   2
Cartesian
  1.9997570000000000  0.0000000000000000  1.1885869205999999
  0.0000000000000000  1.9997570000000000  4.0712290793999992
  1.9997570000000000  1.9997570000000000  0.0000000000000000
  0.0000000000000000  0.0000000000000000  0.0000000000000000
