Fe Sn
 1.0000000000000000
     5.4820240000000000    0.0000000000000000    0.0000000000000000
    -2.7410120000000000    4.7475719999999999    0.0000000000000000
     0.0000000000000000    0.0000000000000000    4.3086440000000001
 Fe  Sn 
   6   2
Cartesian
 -0.0000054820240000  1.4337287634239999  3.2314829999999999
  4.2403866791800002  0.7168596341400000  1.0771610000000000
  2.7410174820240001  3.3138432365759996  1.0771610000000000
 -1.4993746791800000  4.0307123658600004  3.2314829999999999
  1.4993637151320001  4.0307123658600004  3.2314829999999999
  1.2416482848679999  0.7168596341400000  1.0771610000000000
  2.7410147410120000  1.5825224174760000  3.2314829999999999
 -0.0000027410120001  3.1650495825239999  1.0771610000000000
