Er Cu Te
 1.0000000000000000
     6.9165700000000001    0.0000000000000000    0.0000000000000000
     0.0000000000000000    7.5715139999999996    0.0000000000000000
     0.0000000000000000    0.0000000000000000   12.7188199999999991
 Er  Cu  Te 
   4  12  12
Cartesian
  1.6927682583699999  5.6740395910019998 10.6547335774799983
  5.1510532583700002  1.8974744089980000  4.2953235774799996
  5.1510532583700002  1.8974744089980000  8.4234964225199995
  1.6927682583699999  5.6740395910019998  2.0640864225200000
  2.5186966317799997  0.8941049452319999 10.5097263106599996
  4.2954666328000002  4.7040605039759997  0.0000000000000000
  5.9769816317800002  6.6774090547679998  8.5685036893400000
  4.2986551715700001  4.6866763078319993  8.5701952923999993
  6.0184464689299997  6.6512419023840001  0.0000000000000000
  0.8371816328000000  2.8674534960239999  6.3594099999999996
  4.2986551715700001  4.6866763078319993  4.1486247075999998
  2.5601614689300001  0.9202720976159999  6.3594099999999996
  5.9769816317800002  6.6774090547679998  4.1503163106600001
  2.5186966317799997  0.8941049452319999  2.2090936893399999
  0.8403701715700000  2.8848376921679999 10.5080347076000002
  0.8403701715700000  2.8848376921679999  2.2107852923999998
  0.0555469736700000  4.2956076097319995  4.2862296211799995
  3.5138319736700003  3.2759063902679997  2.0731803788200001
  6.7795458317300001  0.4989249150299999  2.0763092085400001
  0.0555469736700000  4.2956076097319995  8.4325903788199987
  6.8970168566099996  4.1805433114739996  0.0000000000000000
  3.5138319736700003  3.2759063902679997 10.6456396211799991
  3.3212608317300001  7.0725890849699997  4.2831007914599999
  3.3212608317300001  7.0725890849699997  8.4357192085400001
  6.8640386508500004  0.4058710079700000  6.3594099999999996
  3.4057536508499999  7.1656429920299995  0.0000000000000000
  6.7795458317300001  0.4989249150299999 10.6425107914599995
  3.4387318566100000  3.3909706885260000  6.3594099999999996
