Sc Sb Pt
 1.0000000000000000
     3.8936069999999998    0.0000000000000000    2.2479749999999998
     1.2978689999999999    3.6709290000000001    2.2479749999999998
     0.0000000000000000    0.0000000000000000    4.4959509999999998
 Sc  Sb  Pt 
   1   1   1
Cartesian
  2.5957379999999999  1.8354645000000001  4.4959504999999993
  0.0000000000000000  0.0000000000000000  0.0000000000000000
  1.2978689999999999  0.9177322500000000  2.2479752499999996
