Co P 
 1.0000000000000000
     6.2732419999999998    0.0000000000000000   -2.2179250000000001
    -3.1366209999999999    5.4327870000000003   -2.2179250000000001
     0.0000000000000000    0.0000000000000000    6.6537790000000001
 Co  P  
   4  12
Cartesian
  3.1366209999999999  0.0000000000000000 -1.1089625000000001
  0.0000000000000000  0.0000000000000000  3.3268895000000001
 -1.5683104999999999  2.7163935000000001 -1.1089625000000001
  1.5683104999999999  2.7163935000000001  1.1089644999999999
  0.4979887696860003  4.6438811341560005  1.3183483175849997
 -1.4089387869899999  4.6438811341560005 -0.0300670171850000
  4.5455597869900002  0.7889058658440001  2.2479960171849993
 -0.1806254569059999  1.8906642038700001  2.1878674353670000
  2.6386322303140002  0.7889058658440001  0.8995806824149998
 -1.1340955084859998  3.5421227961300001  3.5362650267290006
  1.5470473462409997  1.1017637708130001  4.4659173925269995
  3.3172464569060001  3.5421227961300001  0.0300615646330003
  1.5895736537589999  4.3310232291870001 -2.2479883925270001
  4.2707165084860002  1.8906642038700001 -1.3183360267290001
  2.5005236710630001  2.7532114974990005  3.1175121453769998
  0.6360973289369998  2.6795755025010002 -0.8995831453770000
