Hf Al
 1.0000000000000000
    10.8845820000000000    0.0000000000000000    0.0000000000000000
     0.0000000000000000    3.2563960000000001    0.0000000000000000
     0.0000000000000000    0.0000000000000000    4.2964650000000004
 Hf  Al 
   4   4
Cartesian
  9.1056168025020003  0.0000000000000000  1.0741162500000001
  1.7789651974980001  0.0000000000000000  3.2223487500000001
  3.6633258025019999  1.6281980000000000  1.0741162500000001
  7.2212561974979996  1.6281980000000000  3.2223487500000001
  0.7641629638920000  1.6281980000000000  1.0741162500000001
 10.1204190361080002  1.6281980000000000  3.2223487500000001
  6.2064539638919998  0.0000000000000000  1.0741162500000001
  4.6781280361080002  0.0000000000000000  3.2223487500000001
