Hf Ge
 1.0000000000000000
     7.1004060000000004    0.0000000000000000    0.0000000000000000
     0.0000000000000000    7.1004060000000004    0.0000000000000000
     0.0000000000000000    0.0000000000000000    3.7011189999999998
 Hf  Ge 
   6   4
Cartesian
  0.0000000000000000  0.0000000000000000  0.0000000000000000
  3.5501958995940006  3.5501958995940006  0.0000000000000000
  1.2073459358340000  4.7575418354280004  1.8505594999999999
  5.8930600641659998  2.3428641645720001  1.8505594999999999
  4.7575418354280004  5.8930600641659998  1.8505594999999999
  2.3428641645720001  1.2073459358340000  1.8505594999999999
  4.4771184008640006  0.9269154008640000  0.0000000000000000
  2.6232875991360003  6.1734976995420006  0.0000000000000000
  0.9269154008640000  2.6232875991360003  0.0000000000000000
  6.1734976995420006  4.4771184008640006  0.0000000000000000
