Hg
 1.0000000000000000
     3.9357120000000001    0.0000000000000000    0.0000000000000000
     0.0000000000000000    3.9357120000000001    0.0000000000000000
     0.0000000000000000    0.0000000000000000    3.8640219999999998
 Hg 
   2
Cartesian
  0.0000000000000000  0.0000000000000000  0.0000000000000000
  1.9678560000000000  1.9678560000000000  1.9320109999999999
