Bi Pd Se
 1.0000000000000000
     4.2670269999999997    5.9424010000000003   -0.0098080000000000
    -4.2670269999999997    5.9424010000000003   -0.0098080000000000
     0.0000000000000000    5.8641670000000001    6.1483070000000000
 Bi  Pd  Se 
   4   6   4
Cartesian
  0.0000000000000001  7.2815727429699999  4.5209982434000002
  0.0000000000000002 10.4673962570299999  1.6076927566000001
  0.0000000000000000  4.2590980159529996  1.9279387898789999
  0.0000000000000000 13.4898709840470001  4.2007522101210002
 -2.1335134999999998  5.9032840000000002  3.0692495000000002
  2.1335134999999998  5.9032840000000002  3.0692495000000002
  0.0000000000000000  1.4694657958880000  1.1515565509240000
  0.0000000000000004 16.2795032041120002  4.9771344490759999
  1.8332428100099998  8.8744845000000012  3.0643454999999999
 -1.8332428100099998  8.8744845000000012  3.0643454999999999
  1.8027890383109997  7.3739513067240008  1.1093031234390001
 -1.8027890383109999  7.3739513067240008  1.1093031234390001
 -1.8027890383109999 10.3750176932759999  5.0193878765609998
  1.8027890383110001 10.3750176932759999  5.0193878765609998
