Mg Pb
 1.0000000000000000
     4.1813609999999999    0.0000000000000000    2.4141100000000000
     1.3937870000000001    3.9422250000000001    2.4141100000000000
     0.0000000000000000    0.0000000000000000    4.8282200000000000
 Mg  Pb 
   2   1
Cartesian
  4.1813609999999999  2.9566687500000000  7.2423299999999999
  1.3937870000000001  0.9855562500000000  2.4141100000000000
  0.0000000000000000  0.0000000000000000  0.0000000000000000
