Pr Zn Ni
 1.0000000000000000
     7.1797579999999996    0.0000000000000000    0.0000000000000000
    -3.5898789999999998    6.2178519999999997    0.0000000000000000
     0.0000000000000000    0.0000000000000000    3.8661420000000000
 Pr  Zn  Ni 
   3   3   3
Cartesian
  4.1991173650900002  0.0000000000000000  1.9330710000000000
  1.4903203174549999  2.5813101685399999  1.9330710000000000
 -2.0995586825450001  3.6365418314599998  1.9330710000000000
  1.6390669538199998  0.0000000000000000  0.0000000000000000
  2.7703455230900000  4.7983785669199994  0.0000000000000000
 -0.8195334769099999  1.4194734330799998  0.0000000000000000
  0.0000000000000000  0.0000000000000000  1.9330710000000000
 -0.0000035898789999  4.1452367392839999  0.0000000000000000
  3.5898825898789997  2.0726152607159998  0.0000000000000000
