Ca Be P  O 
 1.0000000000000000
     8.8741749999999993    0.0000000000000000    0.0000000000000000
     0.0000000000000000    7.8714519999999997    0.0000000000000000
     0.0000000000000000    0.0662190000000000    8.4236310000000003
 Ca  Be  P   O  
   4   8   8  32
Cartesian
  5.1923152891999989  1.9283538235319999  0.9499497151320000
  0.7552277891999999  5.9762076764679994  3.2618657848680002
  3.6818597107999995  6.0093171764679996  7.4736812848680003
  8.1189472108000000  1.9614633235320000  5.1617652151320002
  7.1464707434249997  4.5520860682760000  7.9456741770599999
  8.1709853729999988  0.5619541463450000  1.9419754671089999
  3.7338978730000001  7.3426073536549996  2.2698400328910000
  0.7031896270000000  7.3757168536549997  6.4816555328909997
  5.1402771269999992  0.5950636463450000  6.1537909671090008
  2.7093832434249996  3.4186944317240000  4.6897723229400006
  1.7277042565749998  3.3855849317239999  0.4779568229400000
  6.1647917565749992  4.5189765682759999  3.7338586770600002
  6.1930826264749994  7.4198646817130003  3.7046034065970002
  1.7559951264749998  0.4846968182870000  0.5072120934030000
  2.6810923735249994  0.5178063182870000  4.7190275934030002
  7.1181798735249995  7.4529741817130004  7.9164189065970003
  8.1383372831749998  3.4726534582370001  1.9892488842810001
  3.7012497831749993  4.4319080417629992  2.2225666157190003
  0.7358377168250000  4.4650175417629994  6.4343821157190000
  5.1729252168249991  3.5057629582370002  6.2010643842810005
  8.1658827223749988  2.0542925396259997  2.6345916788219998
  5.1453797776249992  2.0874020396259998  6.8464071788220000
  0.7082922776249999  5.8833784603739989  5.7890393211780005
  3.7287952223749996  5.8502689603739988  1.5772238211779999
  5.8236862179250002  6.0178523304439997  4.1756612757480003
  1.3865987179249999  1.8867091695559999  0.0361542242520000
  3.0504887820750000  1.9198186695559998  4.2479697242520000
  7.4875762820749987  6.0509618304439998  8.3874767757480004
  7.1656300872499994  0.5316892411299999  0.6674042841300000
  2.7285425872499998  7.3728722588699993  3.5444112158699999
  1.7085449127499999  7.4059817588699994  7.7562267158700005
  6.1456324127499995  0.5647987411299999  4.8792197841300000
  8.2198909514249987  3.9473396532999998  6.8494228387199998
  3.7828034514250000  4.0234408466999998  5.7860236612800007
  0.6542840485750000  3.9903313466999997  1.5742081612800001
  5.0913715485750002  3.9142301532999997  2.6376073387200001
  8.0998056153249998  0.0863889184720000  6.8159304818640001
  3.6627181153249997  7.8843915815279999  5.8195160181360004
  0.7743693846749999  7.8512820815279998  1.6077005181360000
  5.2114568846750000  0.0532794184720000  2.6041149818639999
  5.6202990010999994  4.4817338058740006  7.3292160132180006
  1.1832115011000000  3.4890466941259999  5.3062304867819998
  3.2538759988999995  3.4559371941260002  1.0944149867820001
  7.6909634988999995  4.4486243058740005  3.1174005132180000
  5.6545533165999995  7.4889454688359995  7.3705423469040001
  1.2174658166000001  0.4818350311640000  5.2649041530960003
  3.2196216833999998  0.4487255311640000  1.0530886530960000
  7.6567091833999994  7.4558359688359994  3.1587268469040000
  6.1589259268999994  3.4789966403289996  5.0140736928090002
  1.7218384269000000  4.4917838596709991  7.6213728071910003
  2.7152490730999999  4.4586743596709990  3.4095573071910001
  7.1523365730999995  3.4458871403289995  0.8022581928090000
