Ta Be
 1.0000000000000000
     6.5284339999999998    0.0000000000000000    0.0000000000000000
     0.0000000000000000    6.5284339999999998    0.0000000000000000
     0.0000000000000000    0.0000000000000000    6.5284339999999998
 Ta  Be 
   8  16
Cartesian
  0.8160542500000000  4.0802712500000000  4.0802712500000000
  5.7123797500000002  5.7123797500000002  5.7123797500000002
  0.8160542500000000  0.8160542500000000  0.8160542500000000
  5.7123797500000002  2.4481627499999998  2.4481627499999998
  4.0802712500000000  4.0802712500000000  0.8160542500000000
  2.4481627499999998  5.7123797500000002  2.4481627499999998
  4.0802712500000000  0.8160542500000000  4.0802712500000000
  2.4481627499999998  2.4481627499999998  5.7123797500000002
  3.2642169999999999  4.8963254999999997  4.8963254999999997
  4.8963254999999997  4.8963254999999997  3.2642169999999999
  0.0000000000000000  3.2642169999999999  0.0000000000000000
  4.8963254999999997  3.2642169999999999  4.8963254999999997
  3.2642169999999999  1.6321085000000000  1.6321085000000000
  4.8963254999999997  1.6321085000000000  0.0000000000000000
  0.0000000000000000  0.0000000000000000  3.2642169999999999
  4.8963254999999997  0.0000000000000000  1.6321085000000000
  0.0000000000000000  4.8963254999999997  1.6321085000000000
  1.6321085000000000  4.8963254999999997  0.0000000000000000
  3.2642169999999999  3.2642169999999999  3.2642169999999999
  1.6321085000000000  3.2642169999999999  1.6321085000000000
  0.0000000000000000  1.6321085000000000  4.8963254999999997
  1.6321085000000000  1.6321085000000000  3.2642169999999999
  3.2642169999999999  0.0000000000000000  0.0000000000000000
  1.6321085000000000  0.0000000000000000  4.8963254999999997
