Sm Hg
 1.0000000000000000
     6.9991040000000000    0.0000060000000000   -0.0000000000000000
    -3.4995470000000002    6.0613950000000001   -0.0000000000000000
    -0.0000010000000000   -0.0000000000000000    5.4752689999999999
 Sm  Hg 
   6   2
Cartesian
  0.0000085070709998  2.1311511684180000  1.3688336758069999
  1.6539096439629992  4.9958117108130002  1.3688282005379999
 -1.6539159001560002  4.9958209979669999  1.3688336758069999
  3.4996244830520000  3.9302255860560003  4.1064407994620007
  1.8456638537610000  1.0655468594160000  4.1064462747309998
  5.1534579019770010  1.0656163704090000  4.1064407994620007
 -0.0000569090460002  4.0409582660070003  4.1065448295730000
  3.4995114220719992  2.0204851636920003  1.3687296456960001
