Tm Mg Ge
 1.0000000000000000
     7.1529340000000001    0.0000000000000000    0.0000000000000000
     0.0000000000000000    7.1529340000000001    0.0000000000000000
     0.0000000000000000    0.0000000000000000    4.1629120000000004
 Tm  Mg  Ge 
   4   2   4
Cartesian
  2.3096108592600002  1.2668561407399999  2.0814601629120002
  5.8860778592600003  2.3096108592600002  2.0814601629120002
  1.2668561407399999  4.8433231407399999  2.0814601629120002
  4.8433231407399999  5.8860778592600003  2.0814601629120002
  0.0000000000000000  0.0000000000000000  0.0000000000000000
  3.5764741529340003  3.5764741529340003  0.0000000000000000
  4.4640531212579999  0.8875932741920001  0.0000000000000000
  0.8875932741920001  2.6888808787420002  0.0000000000000000
  6.2653407258080005  4.4640531212579999  0.0000000000000000
  2.6888808787420002  6.2653407258080005  0.0000000000000000
