Na Er Tl
 1.0000000000000000
     0.0000000000000000    3.7211280000000002    3.7211280000000002
     3.7211280000000002    0.0000000000000000    3.7211280000000002
     3.7211280000000002    3.7211280000000002    0.0000000000000000
 Na  Er  Tl 
   1   1   2
Cartesian
  5.5816845577440004  5.5816845577440004  5.5816845577440004
  1.8605640000000001  1.8605640000000001  1.8605640000000001
  0.0000000000000000  0.0000000000000000  0.0000000000000000
  3.7211205577440003  3.7211205577440003  3.7211205577440003
