Hf Ge
 1.0000000000000000
     3.7528030000000001    0.0000000000000000    0.0000000000000000
     0.0000000000000000    3.6693180000000001   -0.9330790000000000
     0.0000000000000000    0.0107090000000000    7.7234220000000002
 Hf  Ge 
   2   4
Cartesian
  0.9382007500000000  3.2883291990290000  5.2500048439720004
  2.8146022500000001  0.3916978009710000  1.5403381560280001
  0.9382007500000000  2.0545456586990003  0.3981538677480000
  2.8146022500000001  1.6254813413009999  6.3921891322520006
  2.8146022500000001  2.7567856988640003  3.1597101714850000
  0.9382007500000000  0.9232413011360001  3.6306328285150005
