Li Co Ge
 1.0000000000000000
     3.3931760000000000    0.0000000000000000    1.9590510000000001
     1.1310590000000000    3.1991170000000002    1.9590510000000001
     0.0000000000000000    0.0000000000000000    3.9181020000000002
 Li  Co  Ge 
   1   2   1
Cartesian
  2.2621175000000000  1.5995585000000001  3.9181020000000002
  3.3931762499999998  2.3993377499999999  5.8771529999999998
  1.1310587500000000  0.7997792500000001  1.9590510000000001
  0.0000000000000000  0.0000000000000000  0.0000000000000000
