Ti Cu
 1.0000000000000000
     3.0885739999999999    0.0000000000000000    0.0000000000000000
     0.0000000000000000    3.0885739999999999    0.0000000000000000
     0.0000000000000000    0.0000000000000000    3.0821179999999999
 Ti  Cu 
   1   1
Cartesian
  1.5442870000000000  1.5442870000000000  1.5410590000000000
  0.0000000000000000  0.0000000000000000  0.0000000000000000
