Ba Na Hg
 1.0000000000000000
     0.0000000000000000    3.9825260000000000    3.9825260000000000
     3.9825260000000000    0.0000000000000000    3.9825260000000000
     3.9825260000000000    3.9825260000000000    0.0000000000000000
 Ba  Na  Hg 
   1   1   2
Cartesian
  1.9912550349480000  1.9912550349480000  1.9912550349480000
  5.9737890000000000  5.9737890000000000  5.9737890000000000
  0.0000000000000000  0.0000000000000000  0.0000000000000000
  3.9825260000000000  3.9825260000000000  3.9825260000000000
