Mo Rh
 1.0000000000000000
     5.5226519999999999    0.0000000000000000    0.0000000000000000
    -2.7613259999999999    4.7827560000000000    0.0000000000000000
     0.0000000000000000    0.0000000000000000    4.3840320000000004
 Mo  Rh 
   2   6
Cartesian
 -0.0000027613260002  3.1885055942520002  3.2880240000000001
  2.7613287613259998  1.5942504057480000  1.0960080000000001
  1.3834326099780001  0.7987250347560001  3.2880240000000001
 -1.3778933900220001  3.9840309652440000  1.0960080000000001
  0.0000000000000000  1.5974500695120002  1.0960080000000001
  2.7613259999999999  3.1853059304880000  3.2880240000000001
  4.1392193900220002  0.7987250347560001  3.2880240000000001
  1.3778933900219996  3.9840309652440000  1.0960080000000001
