Li Ni P 
 1.0000000000000000
     3.4925799999999998    0.0000000000000000   -1.3222680000000000
    -0.5006020000000000    3.4565169999999998   -1.3222680000000000
    -0.0030790000000000   -0.0035570000000000    5.2655709999999996
 Li  Ni  P  
   1   2   2
Cartesian
  0.0000000000000000  0.0000000000000000  0.0000000000000000
  0.4961539999999999  2.5906092500000000  1.3105174999999998
  2.4927449999999998  0.8623507499999999  1.3105174999999998
  1.1396098596010000  1.3165474370650001  3.0101177240149997
  1.8492891403989999  2.1364125629349999 -0.3890827240150002
