Sn Pd
 1.0000000000000000
     4.3815840000000001    0.0000000000000000    0.0000000000000000
     0.0000000000000000    5.7568650000000003    0.0000000000000000
     0.0000000000000000    0.0000000000000000    8.2487329999999996
 Sn  Pd 
   4   8
Cartesian
  3.2861880000000001  1.7037902516700001  3.2025045973859996
  1.0953960000000000  4.0530747483300003  5.0462284026140001
  3.2861880000000001  4.5822227516700007  0.9218619026139999
  1.0953960000000000  1.1746422483300001  7.3268710973859994
  3.2861880000000001  5.4757572820500000  6.5266120166579995
  1.0953960000000000  0.2811077179500000  1.7221209833419999
  3.2861880000000001  2.5973247820500003  5.8464874833420000
  1.0953960000000000  3.1595402179500005  2.4022455166579997
  3.2861880000000001  4.7674671536400002  3.6278835094630000
  1.0953960000000000  0.9893978463599999  4.6208494905370001
  3.2861880000000001  1.8890346536400000  0.4964829905370000
  1.0953960000000000  3.8678303463600003  7.7522500094629994
