Sm Cd
 1.0000000000000000
     3.7992870000000001    0.0000000000000000    0.0000000000000000
     0.0000000000000000    3.7992870000000001    0.0000000000000000
     0.0000000000000000    0.0000000000000000    3.7992870000000001
 Sm  Cd 
   1   1
Cartesian
  1.8996435000000000  1.8996435000000000  1.8996435000000000
  0.0000000000000000  0.0000000000000000  0.0000000000000000
