Nd Co P 
 1.0000000000000000
     3.6426249999999998    0.0000000000000000   -1.3577079999999999
    -0.5060560000000000    3.6073010000000001   -1.3577079999999999
     0.0137020000000000    0.0157580000000000    5.6020510000000003
 Nd  Co  P  
   1   2   2
Cartesian
  0.0000000000000000  0.0000000000000000  0.0000000000000000
  0.5379652500000001  2.7133547500000001  1.4433175000000003
  2.6123057500000004  0.9097042500000000  1.4433175000000003
  2.0048463031629997  2.3057307993269998 -0.1864587985079997
  1.1454246968369999  1.3173282006729998  3.0730937985080002
