Re Ni
 1.0000000000000000
     5.3880759999999999    0.0000460000000000    0.0000020000000000
    -2.6939980000000001    4.6662299999999997   -0.0000010000000000
     0.0000010000000000   -0.0000010000000000    4.3524599999999998
 Re  Ni 
   6   2
Cartesian
  4.0456254017330000  0.7752617310950000  3.2643421492329998
  1.3424411391640001  0.7748233564920000  3.2643454982979998
  2.6943914409579994  3.1161880024599999  3.2643460001209998
 -1.3515464017350001  3.8910132689069994  1.0881101458469999
  1.3516594131389996  3.8914516436929993  1.0881111492500000
 -0.0003043590450000  1.5500636663449998  1.0881106474219999
  2.6935208585539994  1.5555228492719999  1.0881159998029999
  0.0005716115950000  3.1107474845910001  3.2643406477419998
