La Al Pd
 1.0000000000000000
     5.5138680000000004    0.0000000000000000    0.0000000000000000
    -2.7569349999999999    4.7751489999999999    0.0000000000000000
     0.0000000000000000    0.0000000000000000    4.2353160000000001
 La  Al  Pd 
   1   3   2
Cartesian
  0.0000000000000000  0.0000000000000000  0.0000000000000000
  2.7569340000000002  0.0000000000000000  2.1176580000000000
  1.3784665000000003  2.3875744999999999  2.1176580000000000
 -1.3784675000000000  2.3875744999999999  2.1176580000000000
  2.7569364236010001  1.5917147416169999  0.0000000000000000
 -0.0000034236009999  3.1834342583830000  0.0000000000000000
