Ho Cd
 1.0000000000000000
     4.8297330000000001    0.0000000000000000    0.0000000000000000
     0.0000000000000000    5.9177549999999997   -2.5649609999999998
     0.0000000000000000   -0.0085650000000000    6.4497109999999997
 Ho  Cd 
   2   6
Cartesian
  3.6222997499999998  2.1471220473599999  3.1706420893440002
  1.2074332500000000  3.7620679526400003  0.7141079106560001
  3.6222997499999998  4.8881872790399994 -0.9988600627839999
  1.2074332500000000  1.0210027209599999  4.8836100627840002
  3.6222997499999998  1.8391690077600000 -0.0057330451680000
  1.2074332500000000  4.0700209922399999  3.8904830451679993
  1.2074332500000000  0.7239066996000000  1.6907200491680001
  3.6222997499999998  5.1852833003999992  2.1940299508320003
