Pm Cu Ru
 1.0000000000000000
     0.0001870000000000    3.5033609999999999    3.5035080000000001
     3.5030310000000000    0.0001330000000000    3.5035490000000000
     3.5029420000000000    3.5033460000000001    0.0002040000000000
 Pm  Cu  Ru 
   2   1   1
Cartesian
  7.0059659941250008  3.5034825030949999  3.5037494964100002
  3.5030799996260003  3.5034129932780003  3.5036234929840000
  1.7515399999999999  1.7517100000000001  1.7518152499999999
  5.2546024851120006  5.2551194896959998  5.2554387422900000
