Gd O 
 1.0000000000000000
     8.8230740000000001    0.0000000000000000   -3.1194269999999999
    -4.4115359999999999    7.6410049999999998   -3.1194269999999999
     0.0000000000000000    0.0000000000000000    9.3582839999999994
 Gd  O  
  16  24
Cartesian
  2.2057690000000001  3.8205024999999999  1.5597149999999997
  0.0000000000000000  0.0000000000000000  4.6791419999999997
  4.4115370000000000  0.0000000000000000 -1.5597135000000000
 -2.2057680000000000  3.8205024999999999 -1.5597135000000000
  1.2427037219840000  1.6680772375299999  7.6008361662419990
  0.1398197853720002  4.0626765124699995  4.4814085113240001
  1.3825235073560003  5.7307537499999999 -1.3619784162419999
 -2.3455867853719998  7.3988309875300002 -1.3619785113240002
  7.4405514926440013  1.9102512500000000 -1.7574470837579999
  5.3746022780160008  2.1524252624700000  1.7574493337579995
  3.1688342780160004  5.9729277624699995 -4.4814061662420004
  4.2717182146280006  3.5783284875299999 -1.3619785113239997
  3.0290144926439999  1.9102512500000000  4.4814084162419991
  6.7571247853719996  0.2421740124700000  4.4814085113239992
 -3.0290134926439998  5.7307537499999999  4.8768770837579991
 -0.9630642780159999  5.4885797375300003  1.3619806662420000
  1.2813405148639996  5.8846435907000005  1.0114758294359996
  4.4954895075480001  7.3234295501900002  0.7441789297079995
 -1.1077891077220001  5.8944393591100006  3.6123080138609986
  3.4528528997639998  1.8326568442250000  6.7317294945389996
  5.2422213226040011  5.5670681408899991  3.9903303126239993
  5.2919256415599989  1.9878456557750002  4.1309066384430002
 -2.1617139218140000  7.4095131125200000  1.0114726191209997
  2.4388217069320004  4.0519943874799997  3.8636060543940003
  4.4058819511280012  4.1380779498099995  0.8709019373099995
  2.0664619733479999  7.5549214376700000  3.6123055801680000
  3.5865097262680008  5.5768639092999992 -2.2485352313940004
  6.3003017855200003  3.9065860623299997 -2.3752401782099999
  3.1301974851360002  1.7563614093000000  2.1079541705639997
 -0.0839515075480000  0.3175754498100000  2.3752510702919998
  5.5193271077219999  1.7465656408899999 -0.4928780138610003
  0.9586851002360004  5.8083481557749996 -3.6122994945390001
 -0.8306833226039999  2.0739368591099998 -0.8709003126240000
 -0.8803876415600000  5.6531593442250001 -1.0114766384429998
  6.5732519218140002  0.2314918874800000  2.1079573808789998
  1.9727162930679998  3.5890106125200001 -0.7441760543940001
  0.0056560488720002  3.5029270501899998  2.2485280626900002
  2.3450760266519999  0.0860835623300000 -0.4928755801680000
  0.8250282737320001  2.0641410906999997  5.3679652313939989
 -1.8887637855199999  3.7344189376700001  5.4946701782099998
