Pr In Ag
 1.0000000000000000
     4.3650070000000003   -0.0000000000000000    2.5201380000000002
     1.4550010000000000    4.1153690000000003    2.5201380000000002
     0.0000000000000000    0.0000000000000000    5.0402750000000003
 Pr  In  Ag 
   1   1   2
Cartesian
  2.9100040000000003  2.0576845000000001  5.0402754999999999
  0.0000000000000000  0.0000000000000000  0.0000000000000000
  1.4550020000000001  1.0288422500000001  2.5201377500000000
  4.3650060000000002  3.0865267500000000  7.5604132500000008
