Ti Ga C 
 1.0000000000000000
     3.0704549999999999    0.0000000000000000    0.0000000000000000
    -1.5352269999999999    2.6590929999999999    0.0000000000000000
     0.0000000000000000    0.0000000000000000   13.3367319999999996
 Ti  Ga  C  
   4   2   2
Cartesian
 -0.0000012018940001  1.7727295530309999  1.1464121459879999
  1.5352292018939999  0.8863634469689999  7.8147781459879999
  1.5352292018939999  0.8863634469689999 12.1903198540119995
 -0.0000012018940001  1.7727295530309999  5.5219538540119997
 -0.0000012018940001  1.7727295530309999 10.0025490000000001
  1.5352292018939999  0.8863634469689999  3.3341829999999999
  0.0000000000000000  0.0000000000000000  6.6683659999999998
  0.0000000000000000  0.0000000000000000  0.0000000000000000
