Pm I 
 1.0000000000000000
    11.0689290000000007    0.0002000000000000   -0.0000010000000000
    -5.5342890000000002    9.5860149999999997   -0.0000360000000000
    -0.0000000000000000   -0.0000150000000000    4.0957650000000001
 Pm  I  
   2   6
Cartesian
  0.0000561213000001  6.3907544498649997  3.0717912250570003
  5.5345728101220004  3.1954647221800001  1.0239326791059999
 -0.0000644324130000  4.0381376052849998  1.0238849167740001
  2.0374081254270009  7.5671205194499995  1.0238712959270000
 -2.0374852587749999  7.5670468916399996  1.0239290047750000
  5.5348427952539998  5.5481295000950004  3.0718226041330001
  3.4971654606480005  2.0190603072099997  3.0718321295619999
  7.5720422402280008  2.0190668317050000  3.0718317616810000
