Th Ge
 1.0000000000000000
     3.7306979999999998   -0.0000000000000000    2.1539190000000001
     1.2435650000000000    3.5173359999999998    2.1539190000000001
    -0.0000000000000000   -0.0000000000000000    4.3078399999999997
 Th  Ge 
   1   1
Cartesian
  2.4871314999999998  1.7586679999999999  4.3078389999999995
  0.0000000000000000  0.0000000000000000  0.0000000000000000
