Mn Al Si
 1.0000000000000000
     3.7332500000000000   -6.4662030000000001   -0.0000000000000000
     3.7332790000000000    6.4662189999999997    0.0000000000000000
    -0.0000000000000000    0.0000000000000000    7.7105040000000002
 Mn  Al  Si 
   6  18   2
Cartesian
  6.1611686247710002  0.7536824258489998  1.9276260000000001
  3.7332494871839996  4.9589387496329991  1.9276260000000001
  6.1611129789729997 -0.7536560204729997  5.7828780000000002
  1.3054873062510000 -0.7536534931550000  5.7828780000000002
  3.7333093791930003 -4.9588063577710004  5.7828780000000002
  1.3053152229000000  0.7536784864680000  1.9276260000000001
  3.7332372163419998 -3.8428547311290009  3.3787274317920000
  3.7332372163419998 -3.8428547311290009  0.4765245682080000
  3.7332768503970004  3.8427802041430001  4.3317225946800004
  2.2719594514849999  1.3117339658169997  4.3317148841760007
  5.1945716980889998  1.3117078976179997  4.3317996997200003
  2.2719423688240004 -1.3117048300720004  0.4765014366960000
  5.1331930676109998  2.9636824199399996  1.9276260000000001
  3.7333043574070000 -0.5389183557070002  5.7828780000000002
  5.1332021755700001 -2.9636604201160002  5.7828780000000002
  5.1945695485729999 -1.3116921009730007  0.4765322787120000
  3.7332209091979998  0.5388761597999995  1.9276260000000001
  2.3333396655810001 -2.9636987509870001  5.7828780000000002
  2.2719594514849999  1.3117339658169997  7.2340411158239997
  2.3333006915349999  2.9636570214269997  1.9276260000000001
  2.2719423688240004 -1.3117048300720004  3.3787505633040000
  5.1945716980889998  1.3117078976179997  7.2339563002800000
  3.7332768503970004  3.8427802041430001  7.2340334053199999
  5.1945695485729999 -1.3116921009730007  3.3787197212880002
  3.7332500000870001 -6.4661642027340003  0.0000000000000000
  3.7332500000870001 -6.4661642027340003  3.8552520000000001
