Mg B  N 
 1.0000000000000000
     6.8484850000000002   -2.7405390000000001   -0.0007630000000000
     6.8484850000000002    2.7405390000000001   -0.0007630000000000
     5.7523239999999998    0.0000000000000000    4.6176890000000004
 Mg  B   N  
   2  18   2
Cartesian
 13.5335772876659988 -0.0000000000000001  3.2121062457570000
  5.9157167123340004 -0.0000000000000000  1.4040567542430002
 12.0135586026730010  1.8695929652610002  3.9607359878630004
 12.0135586026730010 -1.8695929652610004  3.9607359878630004
 12.7613585407120009 -0.0000000000000002  0.8100326519150001
  7.4357353973270000 -1.8695929652610002  0.6554270121370001
  9.6486986495099991 -0.0000000000000000  4.0175647647720005
 10.2309212761769999  1.4556290682330000  1.5644878403280000
 10.2309212761770016 -1.4556290682330000  1.5644878403280000
  9.8005953504899992 -0.0000000000000000  0.5985982352280000
  9.2183727238229984 -1.4556290682330000  3.0516751596720000
  9.2183727238229984  1.4556290682330000  3.0516751596720000
  8.1734369816200001 -0.0000000000000000  2.9913745861070002
  8.5278115828270007  0.8859806316930000  1.4982890943830003
  8.5278115828270007 -0.8859806316930000  1.4982890943830003
 11.2758570183800000 -0.0000000000000001  1.6247884138930000
 10.9214824171729994 -0.8859806316930001  3.1178739056170000
 10.9214824171729994  0.8859806316930000  3.1178739056170000
  6.6879354592879992  0.0000000000000000  3.8061303480849999
  7.4357353973270000  1.8695929652609999  0.6554270121370001
 15.5664758444280000  0.0000000000000000  3.6946014510060006
  3.8828181555720005  0.0000000000000000  0.9215615489940001
