Na P  S  O 
 1.0000000000000000
     5.8990390000000001    0.0000000000000000    0.0000000000000000
     0.0000000000000000   11.4264139999999994    0.0000000000000000
     0.0000000000000000    0.0000000000000000   17.7419049999999991
 Na  P   S   O  
  24   8  16  16
Cartesian
  2.0509365862469999  1.9595157368600000 16.7931388882199997
  1.1341079448670002  7.0761268090920000 13.0658662601050004
  1.1341079448670002  1.3629198090919998 13.5469912398949983
  1.8154115551329999  7.0761268090920000  4.1949137601049999
  1.3998183585440001  4.3307594493819996 10.4877368188399984
  5.0004560862470004  3.7536912631399999 16.7931388882199997
  1.3998183585440001 10.0439664493819993 16.1251206811599985
  4.7649310551330002  4.3502871909079994  4.6760387398949996
  1.5497011414560000 10.0439664493819993  7.2541681811599998
  4.0836274448670000  4.3502871909079994 13.5469912398949983
  3.8481024137530002  9.4668982631399992  0.9487661117800000
  4.4992206414560005  7.0956545506179989  7.2541681811599998
  0.8985829137529999  7.6727227368599999  0.9487661117800000
  4.3493378585439997  1.3824475506179998 10.4877368188399984
  4.7649310551330002 10.0634941909079991  4.1949137601049999
  1.5497011414560000  4.3307594493819996  1.6167843188400000
  4.0836274448670000 10.0634941909079991 13.0658662601050004
  4.3493378585439997  7.0956545506179989 16.1251206811599985
  0.8985829137529999  1.9595157368600000  7.9221863882199992
  1.8154115551329999  1.3629198090919998  4.6760387398949996
  4.4992206414560005  1.3824475506179998  1.6167843188400000
  2.0509365862469999  7.6727227368599999  9.8197186117799991
  5.0004560862470004  9.4668982631399992  9.8197186117799991
  3.8481024137530002  3.7536912631399999  7.9221863882199992
  4.8599468763060001  0.6691536566680000 15.7852922327899989
  1.9104273763059998 10.7572603433319998 10.8275652672099998
  1.9104273763059998  5.0440533433320001 15.7852922327899989
  3.9886116236940001  0.6691536566680000  6.9143397327900002
  1.0390921236940001 10.7572603433319998  1.9566127672100000
  3.9886116236940001  6.3823606566679993  1.9566127672100000
  4.8599468763060001  6.3823606566679993 10.8275652672099998
  1.0390921236940001  5.0440533433320001  6.9143397327900002
  1.3336783332760000  1.3383073133359999 10.6819574528750003
  1.8396389083060001  4.2954061244660000  5.1605701654449998
  4.7891584083060001  1.4178008755339999  5.1605701654449998
  4.2831978332759997 10.0881066866640001 15.9309000471249984
  4.2831978332759997  4.3748996866639995 10.6819574528750003
  4.5653606667240005 10.0881066866640001  7.0599475471249988
  4.7891584083060001  7.1310078755339994  3.7103823345550002
  1.3336783332760000  7.0515143133359999 15.9309000471249984
  1.8396389083060001 10.0086131244659988  3.7103823345550002
  4.0594000916940001  1.4178008755339999 14.0315226654449994
  1.1098805916940000 10.0086131244659988 12.5813348345549993
  1.6158411667240000  1.3383073133359999  1.8110049528749999
  1.6158411667240000  7.0515143133359999  7.0599475471249988
  4.0594000916940001  7.1310078755339994 12.5813348345549993
  4.5653606667240005  4.3748996866639995  1.8110049528749999
  1.1098805916940000  4.2954061244660000 14.0315226654449994
  3.4521589160730004 10.7198502638959994 10.9075812587599987
  1.3716976396310001  9.9399860819819992  9.6304479692399987
  1.5778218603690002  4.2267790819819995  8.1114570307599987
  1.5778218603690002  9.9399860819819992  0.7594954692399999
  0.5026394160730000  0.7065637361040000 15.7052762412400000
  1.3716976396310001  4.2267790819819995 16.9824095307599983
  3.4521589160730004  5.0066432638959997 15.7052762412400000
  2.4468800839270002  0.7065637361040000  6.8343237412399995
  5.3963995839269998 10.7198502638959994  2.0366287587600000
  2.4468800839270002  6.4197707361039997  2.0366287587600000
  4.3212171396310000  1.4864279180180000 16.9824095307599983
  0.5026394160730000  6.4197707361039997 10.9075812587599987
  5.3963995839269998  5.0066432638959997  6.8343237412399995
  4.5273413603690003  1.4864279180180000  8.1114570307599987
  4.3212171396310000  7.1996349180179990  9.6304479692399987
  4.5273413603690003  7.1996349180179990  0.7594954692399999
