Sc Mn Al
 1.0000000000000000
     8.6679270000000006    0.0000000000000000    0.0000000000000000
     0.0000000000000000    8.6679270000000006    0.0000000000000000
     0.0000000000000000    0.0000000000000000    5.1535880000000001
 Sc  Mn  Al 
   2   8  16
Cartesian
  0.0000000000000000  0.0000000000000000  0.0000000000000000
  4.3339635000000003  4.3339635000000003  2.5767940000000000
  2.1669817500000002  6.5009452500000009  1.2883970000000000
  6.5009452500000009  6.5009452500000009  1.2883970000000000
  6.5009452500000009  6.5009452500000009  3.8651910000000003
  2.1669817500000002  6.5009452500000009  3.8651910000000003
  6.5009452500000009  2.1669817500000002  3.8651910000000003
  2.1669817500000002  2.1669817500000002  3.8651910000000003
  2.1669817500000002  2.1669817500000002  1.2883970000000000
  6.5009452500000009  2.1669817500000002  1.2883970000000000
  5.7978030117600010  0.0000000000000000  0.0000000000000000
  0.0000000000000000  2.8701239882400005  0.0000000000000000
  0.0000000000000000  5.7978030117600010  0.0000000000000000
  2.8701239882400005  0.0000000000000000  0.0000000000000000
  1.9304773618050002  0.0000000000000000  2.5767940000000000
  0.0000000000000000  6.7374496381950006  2.5767940000000000
  0.0000000000000000  1.9304773618050002  2.5767940000000000
  6.7374496381950006  0.0000000000000000  2.5767940000000000
  1.4638395117600000  4.3339635000000003  2.5767940000000000
  4.3339635000000003  7.2040874882399999  2.5767940000000000
  4.3339635000000003  1.4638395117600000  2.5767940000000000
  7.2040874882399999  4.3339635000000003  2.5767940000000000
  6.2644408618050003  4.3339635000000003  0.0000000000000000
  4.3339635000000003  2.4034861381950003  0.0000000000000000
  4.3339635000000003  6.2644408618050003  0.0000000000000000
  2.4034861381950003  4.3339635000000003  0.0000000000000000
