Ba P  O 
 1.0000000000000000
     5.2479620000000002    0.0023270000000000    5.7096489999999998
     2.2269239999999999    4.7520439999999997    5.7096489999999998
     0.0036590000000000    0.0023270000000000    7.7550749999999997
 Ba  P   O  
   3   2   8
Cartesian
  1.5600843153599999  0.9922852563839999  3.9999276027839996
  5.9184606846399994  3.7644127436160000 15.1744453972159992
  0.0000000000000000  0.0000000000000000  0.0000000000000000
  3.0480006714700001  1.9386683770679998  7.8148225061179994
  4.4305443285300008  2.8180296229319999 11.3595504938819989
  2.1196984081810002  1.3482253834269999  8.9061117799890006
  3.1160968599660004  3.4769013015999999  7.9894152549950004
  4.4700324393880004  1.3482253834270002  7.9894152549950004
  3.0085125606120000  3.4084726165729999 11.1849577450050006
  5.3588465918190007  3.4084726165729999 10.2682612200110004
  4.9736661806100004  3.1634800584840002 12.7520701586340000
  2.5048788193900005  1.5932179415159999  6.4223028413660002
  4.3624481400340001  1.2797966983999998 11.1849577450050006
