Dy Ag
 1.0000000000000000
     3.4783189999999999    0.0000000000000000   -1.2950780000000000
    -0.4821940000000000    3.4447340000000000   -1.2950780000000000
    -0.0129010000000000   -0.0148310000000000    5.2839309999999999
 Dy  Ag 
   1   2
Cartesian
  0.0000000000000000  0.0000000000000000  0.0000000000000000
  2.0026164034940002  2.3024681904489999  0.0600603136210001
  0.9806075965060002  1.1274348095510001  2.6337146863790002
