Nd In Rh
 1.0000000000000000
     7.5809249999999997    0.0000000000000000    0.0000000000000000
    -3.7904629999999999    6.5652730000000004    0.0000000000000000
     0.0000000000000000    0.0000000000000000    4.0551459999999997
 Nd  In  Rh 
   3   3   3
Cartesian
  4.4702061401249997  0.0000000000000000  2.0275729999999998
  1.5553592247699999  2.6939612964550004  2.0275729999999998
 -2.2351033648950001  3.8713117035450000  2.0275729999999998
  1.8943973482499998  0.0000000000000000  0.0000000000000000
  2.8432634508200003  4.9246769300300004  0.0000000000000000
 -0.9471987990699999  1.6405960699700002  0.0000000000000000
  0.0000000000000000  0.0000000000000000  2.0275729999999998
 -0.0000041237960001  4.3768508550909999  0.0000000000000000
  3.7904661237960005  2.1884221449090000  0.0000000000000000
