Zr Ni
 1.0000000000000000
     5.2646309999999996    0.0000000000000000    0.0000000000000000
    -2.6323150000000002    4.5593040000000000    0.0000000000000000
     0.0000000000000000    0.0000000000000000    4.2689729999999999
 Zr  Ni 
   2   6
Cartesian
  2.6323182989819998  1.5197664802319999  3.2017297500000002
 -0.0000022989820003  3.0395375197679999  1.0672432500000000
 -0.0000024764470000  1.4213037510480000  3.2017297500000002
  4.0337498208720000  0.7106495958720001  1.0672432500000000
  2.6323184764470002  3.1380002489519998  1.0672432500000000
 -1.4014338208720001  3.8486544041280002  3.2017297500000002
  1.4014294003729995  3.8486544041280002  3.2017297500000002
  1.2308865996269998  0.7106495958720001  1.0672432500000000
