Lu Al Si
 1.0000000000000000
     3.9449480000000001    0.0000000000000000    0.0000000000000000
    -1.9724729999999999    5.0138610000000003    0.0000000000000000
     0.0000000000000000    0.0000000000000000    5.5855199999999998
 Lu  Al  Si 
   2   2   2
Cartesian
  0.0000025816550002  3.0543488578410001  4.1891400000000001
  1.9724724183450004  1.9595121421590003  1.3963800000000000
  0.0000000000000000  0.0000000000000000  2.7927599999999999
  0.0000000000000000  0.0000000000000000  0.0000000000000000
  1.9724742023080000  1.0143441911880000  4.1891400000000001
  0.0000007976920002  3.9995168088119999  1.3963800000000000
