Hf I 
 1.0000000000000000
     7.6279620000000001    0.0000000000000000    0.0000000000000000
    -3.8139789999999998    6.6060100000000004    0.0000000000000000
     0.0000000000000000    0.0000000000000000    6.4694710000000004
 Hf  I  
   2   6
Cartesian
  0.0000000000000000  0.0000000000000000  0.0000000000000000
  0.0000000000000000  0.0000000000000000  3.2347355000000002
  2.3910075727860001  0.0000000000000000  1.6173677500000001
  5.2369544272140001  0.0000000000000000  4.8521032500000008
 -1.1955031594869998  2.0706736525300000  1.6173677500000001
  1.1955044132990003  2.0706736525300000  4.8521032500000008
 -2.6184758405129998  4.5353363474700004  4.8521032500000008
  2.6184785867010003  4.5353363474700004  1.6173677500000001
