Er Zn
 1.0000000000000000
    -4.4060439999999996    0.0000000000000000    0.0000000000000000
    -2.2030230000000000   -3.4725619999999999    3.7404670000000002
    -2.2030230000000000    3.4725619999999999    3.7404670000000002
 Er  Zn 
   2   4
Cartesian
 -4.4060450600719996  1.7362809999999997  3.9651643336240001
 -4.4060449399279999 -1.7362810000000000  3.5157696663760003
 -4.4060399259039995  0.3070022612960000  1.2416405397160002
 -4.4060500740960000 -0.3070022612959996  6.2392934602840002
 -6.6090629259040004 -0.3070022612959999  4.9821075397160000
 -2.2030270740960001  0.3070022612959999  2.4988264602840005
