Mg V  N 
 1.0000000000000000
     5.7245400000000002   -0.0429560000000000    0.0000000000000000
    -2.8999600000000001    5.0223089999999999    0.0000000000000000
     0.0000000000000000    0.0000000000000000    5.0431470000000003
 Mg  V   N  
   4   2   6
Cartesian
  0.9304982285800000  1.6464639529329999  2.4036495936990003
  3.8334097216999998 -0.0257449405200000  2.4036495936990003
  1.8940817714199998  3.3328890470670003  4.9252230936990005
 -1.0088297217000000  5.0050979405199998  4.9252230936990005
 -1.9248919494000003  3.3336329333850001  2.4311902194660000
 -0.9750680506000000  1.6886760666150000  4.9527637194660006
  0.7406127370199999  1.6569548160619998  4.5100208011890004
  3.9192562483000004  0.1439445540350000  4.5100208011890004
  2.0839672629800003  3.3223981839379997  1.9884473011890000
 -1.0946762483000003  4.8354084459650002  1.9884473011890000
 -1.8463465328000002  3.1976036941200001  4.2771686179049997
 -1.0536134671999999  1.8247053058799998  1.7555951179050002
