Pm Y  Mg
 1.0000000000000000
     0.0000000000000000    3.8421609999999999    3.8421609999999999
     3.8421609999999999    0.0000000000000000    3.8421609999999999
     3.8421609999999999    3.8421609999999999    0.0000000000000000
 Pm  Y   Mg 
   1   1   2
Cartesian
  1.9210805000000000  1.9210805000000000  1.9210805000000000
  5.7632414999999995  5.7632414999999995  5.7632414999999995
  3.8421609999999999  3.8421609999999999  3.8421609999999999
  0.0000000000000000  0.0000000000000000  0.0000000000000000
