Nd Ga
 1.0000000000000000
     4.2384919999999999    0.0000000000000000    0.0000000000000000
    -2.1192460000000000    3.6706409999999998    0.0000000000000000
     0.0000000000000000    0.0000000000000000    4.3330339999999996
 Nd  Ga 
   1   2
Cartesian
  0.0000000000000000  0.0000000000000000  0.0000000000000000
 -0.0000021192460001  2.4470952235470000  2.1665169999999998
  2.1192481192460000  1.2235457764530000  2.1665169999999998
