Rb Au S 
 1.0000000000000000
     5.2622570000000000   -0.0131380000000000    0.0000000000000000
    -1.0578129999999999    5.1548569999999998    0.0000000000000000
     0.0000000000000000    0.0000000000000000    6.7107390000000002
 Rb  Au  S  
   2   2   2
Cartesian
  2.8876866196699997  1.9285759134050000  1.6776847500000001
  1.3167573803300001  3.2131430865949997  5.0330542500000002
  0.0000000000000000  0.0000000000000000  0.0000000000000000
  0.0000000000000000  0.0000000000000000  3.3553695000000001
  0.1804214344700001  4.1423382516049996  1.6776847500000001
  4.0240225655300002  0.9993807483950000  5.0330542500000002
