Rb Pd Cl
 1.0000000000000000
     0.0000000000000000    0.0000000000000000    4.3464239999999998
     7.2505150000000000    0.0000000000000000    0.0000000000000000
     0.0000000000000000    7.2505150000000000    0.0000000000000000
 Rb  Pd  Cl 
   2   1   4
Cartesian
  0.0000000000000000  3.6252575000000000  2.1732119999999999
  3.6252575000000000  0.0000000000000000  2.1732119999999999
  0.0000000000000000  0.0000000000000000  0.0000000000000000
  1.6412918300349999  1.6412918300349999  0.0000000000000000
  5.6092231699649995  5.6092231699649995  0.0000000000000000
  5.6092231699649995  1.6412918300349999  0.0000000000000000
  1.6412918300349999  5.6092231699649995  0.0000000000000000
