Cs Nb Bi O 
 1.0000000000000000
     5.4911120000000002    0.0000000000000000    0.0000000000000000
     0.0000000000000000    5.5875040000000000    0.0000000000000000
     0.0000000000000000    0.0000000000000000   11.6624770000000009
 Cs  Nb  Bi  O  
   2   4   2  14
Cartesian
  1.4121327997039999  1.3847734663360001  5.8312385000000004
  4.0789792002959997  4.1785254663359996  5.8312385000000004
  1.3514724854400000  4.2094299509599997  9.2667126622750011
  4.1396395145599998  1.4156779509600002  2.3957643377250002
  4.1396395145599998  1.4156779509600002  9.2667126622750011
  1.3514724854400000  4.2094299509599997  2.3957643377250002
  1.5114395602240001  1.0465339116960000  0.0000000000000000
  3.9796724397759999  3.8402859116960002  0.0000000000000000
  2.4432373377280001  0.4154644474240000  9.5198117381290004
  5.3123159021680006  5.5128717090719999  9.8369844626210003
  4.2735402806799998  1.3959484743360000  4.1860828444719997
  5.3123159021680006  5.5128717090719999  1.8254925373790001
  0.1787960978320000  2.7191197090719998  1.8254925373790001
  3.7040570551600003  1.6397759738880000  0.0000000000000000
  1.2175717193200000  4.1897004743360000  7.4763941555280002
  3.0478746622720001  3.2092164474239997  9.5198117381290004
  1.7870549448399999  4.4335279738879994  0.0000000000000000
  3.0478746622720001  3.2092164474239997  2.1426652618710000
  4.2735402806799998  1.3959484743360000  7.4763941555280002
  1.2175717193200000  4.1897004743360000  4.1860828444719997
  2.4432373377280001  0.4154644474240000  2.1426652618710000
  0.1787960978320000  2.7191197090719998  9.8369844626210003
