Nb Ga
 1.0000000000000000
     3.5206019999999998    0.0000000000000000    0.0000000000000000
     0.0000000000000000    6.9209319999999996    0.0000000000000000
     0.0000000000000000    0.0000000000000000    6.9209319999999996
 Nb  Ga 
   6   4
Cartesian
  0.0000000000000000  0.0000000000000000  0.0000000000000000
  0.0000000000000000  3.4604659999999998  3.4604659999999998
  1.7603009999999999  1.2157655197799999  4.6762315197799991
  1.7603009999999999  2.2447004802199997  1.2157655197799999
  1.7603009999999999  4.6762315197799991  5.7051664802199999
  1.7603009999999999  5.7051664802199999  2.2447004802199997
  0.0000000000000000  2.5915153036719998  6.0519813036719992
  0.0000000000000000  0.8689506963279999  2.5915153036719998
  0.0000000000000000  6.0519813036719992  4.3294166963279999
  0.0000000000000000  4.3294166963279999  0.8689506963279999
