Li Mg Tl
 1.0000000000000000
     0.0000000000000000    3.5678619999999999    3.5678619999999999
     3.5678619999999999    0.0000000000000000    3.5678619999999999
     3.5678619999999999    3.5678619999999999    0.0000000000000000
 Li  Mg  Tl 
   1   1   2
Cartesian
  1.7839309999999999  1.7839309999999999  1.7839309999999999
  5.3517858642759997  5.3517858642759997  5.3517858642759997
  0.0000000000000000  0.0000000000000000  0.0000000000000000
  3.5678691357240000  3.5678691357240000  3.5678691357240000
