Nd Mn Si
 1.0000000000000000
     2.0313979999999998   -8.8453890000000008   -0.0000010000000000
     2.0313940000000001    8.8453879999999998    0.0000010000000000
    -0.0000000000000000    0.0000010000000000    3.9747560000000002
 Nd  Mn  Si 
   2   2   4
Cartesian
  2.0313944027119999  7.0643162031939992  0.9936897986440001
  2.0313975973159999 -7.0644400386330011  2.9810662013420002
  2.0313949993760003  4.4254542612119998  2.9810675003120002
  2.0313970005880000 -4.4252950442190011  0.9936884997060000
  2.0313952955440002  3.1155932505779993  0.9936893522280000
  2.0313967044240000 -3.1154517243620004  2.9810666477880003
  2.0313961441799999 -0.6376638069650008  2.9810669279100002
  2.0313958558559997  0.6375045899719992  0.9936890720720001
