Fe C 
 1.0000000000000000
     6.8256090000000000    0.0000000000000000    0.0000000000000000
    -3.4128050000000001    5.9111510000000003    0.0000000000000000
     0.0000000000000000    0.0000000000000000    4.4967750000000004
 Fe  C  
  14   6
Cartesian
 -1.2386810789210001  3.2256146111330004  1.4193485706750002
  2.1741234667620000  2.6855363888670003  3.6677360706750002
 -2.1595616959160000  5.1875906506940002  4.4503502949000007
  1.2532363560690001  0.7235603493060000  2.2019627949000000
  3.4128007096009996  4.4640362125389998  2.2019627949000000
  0.0000032903990000  1.4471147874610000  4.4503502949000007
  2.1595676439310001  5.1875906506940002  4.4503502949000007
  5.5723656959160000  0.7235603493060000  2.2019627949000000
 -0.0000004543170001  5.3710727777340006  1.4193485706750002
  3.4128044543170004  0.5400782222660000  3.6677360706750002
  4.6514850789210005  2.6855363888670003  3.6677360706750002
  1.2386805332380000  3.2256146111330004  1.4193485706750002
  3.4128077461379998  1.9703816962830001  1.3881904167000001
 -0.0000037461380000  3.9407693037170004  3.6365779167000003
  4.9154690536759995  1.1028197974660001  0.4307235933750000
  1.5026710658509996  4.8083312025340001  2.6791110933750004
  0.0000032262390001  2.2056336837810000  2.6791110933750004
  3.4128007737610000  3.7055173162190003  0.4307235933750000
  1.9101329341489999  1.1028197974660001  0.4307235933750000
 -1.5026650536760000  4.8083312025340001  2.6791110933750004
