Pu Ga
 1.0000000000000000
     4.5186630000000001    0.0000000000000000    0.0000000000000000
    -2.2593310000000000    3.9132769999999999    0.0000000000000000
     0.0000000000000000    0.0000000000000000    3.4215650000000002
 Pu  Ga 
   1   2
Cartesian
  0.0000000000000000  0.0000000000000000  0.0000000000000000
 -0.0000019259980001  2.6088526377590000  1.7107825000000001
  2.2593339259979999  1.3044243622409999  1.7107825000000001
