Mg Pt
 1.0000000000000000
     6.3690769999999999    0.0000000000000000    0.0000000000000000
     0.0000000000000000    6.3690769999999999    0.0000000000000000
     0.0000000000000000    0.0000000000000000    5.6878940000000000
 Mg  Pt 
   8   4
Cartesian
  4.3489586334479995  1.1644201334480000  0.0000000000000000
  1.1644201334480000  2.0201183665519999  0.0000000000000000
  2.0201183665519999  5.2046568665519999  0.0000000000000000
  5.2046568665519999  4.3489586334479995  0.0000000000000000
  1.1644201334480000  4.3489586334479995  2.8439470000000000
  4.3489586334479995  5.2046568665519999  2.8439470000000000
  5.2046568665519999  2.0201183665519999  2.8439470000000000
  2.0201183665519999  1.1644201334480000  2.8439470000000000
  0.0000000000000000  0.0000000000000000  1.4219735000000000
  0.0000000000000000  0.0000000000000000  4.2659205000000000
  3.1845384999999999  3.1845384999999999  4.2659205000000000
  3.1845384999999999  3.1845384999999999  1.4219735000000000
