Sc Ti O 
 1.0000000000000000
     3.1850130000000001    4.4610159999999999    0.0265530000000000
    -3.1850130000000001    4.4610159999999999   -0.0265530000000000
    -0.9660040000000000    0.0000000000000000    5.0926380000000000
 Sc  Ti  O  
   2   2   7
Cartesian
 -0.0000000000000001  6.1323980986239999 -0.0000000000000000
 -0.0000000000000000  2.7896339013759999  0.0000000000000000
 -1.9421472256680001  4.4610159999999999  1.9983572825639999
  0.9761432256680004  4.4610160000000008  3.0942807174360003
 -1.9217452112300000  2.9224651137919997  1.0019287746720000
 -1.9217452112300000  5.9995668862080000  1.0019287746720000
 -1.1375964690220000  4.4610159999999999  3.7207995887159999
 -0.4830020000000000  0.0000000000000000  2.5463190000000000
  0.1715924690220000  4.4610159999999999  1.3718384112839999
  0.9557412112300002  2.9224651137919997  4.0907092253279993
  0.9557412112299998  5.9995668862079992  4.0907092253279993
