Ac Si Pd
 1.0000000000000000
     0.0000000000000000    3.8428429999999998    3.8428369999999998
     3.8428350000000000    0.0000010000000000    3.8428360000000001
     3.8428279999999999    3.8428360000000001    0.0000080000000000
 Ac  Si  Pd 
   2   1   1
Cartesian
  3.8428315000000000  3.8428399999999998  3.8428404999999999
  0.0000038428350000  0.0000000000010000  0.0000038428360000
  5.7642549356630006  5.7642676856800001  5.7642684356810001
  1.9214234356629998  1.9214276856799999  1.9214279356810000
