Be Ge N 
 1.0000000000000000
     5.1495249999999997    0.0000000000000000    0.0000000000000000
     0.0000000000000000    5.9138669999999998    0.0000000000000000
     0.0000000000000000    0.0000000000000000    4.8432700000000004
 Be  Ge  N  
   4   4   8
Cartesian
  2.9876050687749998  5.1738589084230000  4.7955686337700003
  2.1619199312249999  0.7400080915769999  2.3739336337700001
  4.7366824312249998  2.2169254084230001  2.3739336337700001
  0.4128425687750000  3.6969415915769996  4.7955686337700003
  3.0399036446749998  2.2205920059630002  4.7981452534100004
  2.1096213553249998  3.6932749940370000  2.3765102534100002
  4.6843838553249997  5.1775255059629997  2.3765102534100002
  0.4651411446750000  0.7363414940370000  4.7981452534100004
  3.0339610928249994  2.1733520363670000  1.8232683645800003
  2.1155639071749999  3.7405149636330002  4.2449033645799998
  4.6903264071750002  5.1302855363669995  4.2449033645799998
  0.4591985928250000  0.7835814636330000  1.8232683645800003
  2.9532886341749998  5.2210929641519996  1.7276428417000003
  2.1962363658249999  0.6927740358480000  4.1492778417000000
  4.7709988658249998  2.2641594641519998  4.1492778417000000
  0.3785261341750000  3.6497075358480000  1.7276428417000003
