Li In Ag
 1.0000000000000000
     4.0229949999999999   -0.0000000000000000    2.3226779999999998
     1.3409979999999999    3.7929149999999998    2.3226779999999998
     0.0000000000000000    0.0000000000000000    4.6453540000000002
 Li  In  Ag 
   1   1   2
Cartesian
  2.6819964999999999  1.8964574999999999  4.6453550000000003
  0.0000000000000000  0.0000000000000000  0.0000000000000000
  1.3409982499999999  0.9482287500000000  2.3226775000000002
  4.0229947499999996  2.8446862499999996  6.9680324999999996
