Li Cu P 
 1.0000000000000000
     3.9887940000000000    0.0000000000000000    0.0000000000000000
    -1.9943970000000000    3.4543960000000000    0.0000000000000000
     0.0000000000000000    0.0000000000000000    7.7185649999999999
 Li  Cu  P  
   4   2   2
Cartesian
  1.9943989943969997  1.1514641818680000  7.0682373059249999
 -0.0000019943970001  2.3029318181320000  3.2089548059249999
  1.9943989943969997  1.1514641818680000  4.5096101940750000
 -0.0000019943970001  2.3029318181320000  0.6503276940750000
  0.0000000000000000  0.0000000000000000  5.7889237500000004
  0.0000000000000000  0.0000000000000000  1.9296412500000000
  1.9943989943969997  1.1514641818680000  1.9296412500000000
 -0.0000019943970001  2.3029318181320000  5.7889237500000004
