Ti S 
 1.0000000000000000
     3.2670089999999998   -0.0000000000000000    0.0000000000000000
    -1.6335059999999999    2.8296850000000000    0.0000000000000000
     0.0000000000000000    0.0000000000000000    3.2170619999999999
 Ti  S  
   1   1
Cartesian
  1.6335013665120000  2.8296538734649999  0.0000000000000000
  0.0000006335880000  1.8862991475349999  1.6085309999999999
