Gd Cl
 1.0000000000000000
     7.4583159999999999    0.0000360000000000    0.0000000000000000
    -3.7291889999999999    6.4590769999999997    0.0000000000000000
     0.0000000000000000    0.0000000000000000    4.0749050000000002
 Gd  Cl 
   2   6
Cartesian
 -0.0000243958349999  4.3060654863470003  1.0187262500000001
  3.7291513958350007  2.1530475136530001  3.0561787499999999
  1.7950805005740000  1.9521667828180000  1.0187262500000001
 -0.7930847193439998  2.5306695929759999  3.0561787499999999
 -1.1410237800819996  5.8805741898419992  3.0561787499999999
  4.8701507800820005  0.5785388101580000  1.0187262500000001
  4.5222117193439999  3.9284434070239995  1.0187262500000001
  1.9340464994259996  4.5069462171819996  3.0561787499999999
