Na Al O 
 1.0000000000000000
     2.7955920000000001   -4.8421310000000002    0.0000020000000000
     2.7955930000000002    4.8421310000000002   -0.0000030000000000
    -0.0000090000000000   -0.0000100000000000   22.5460920000000016
 Na  Al  O  
   2  22  34
Cartesian
  2.7955649238980000 -1.6141607627570003  5.6342461781050011
  2.7956222605790000  1.6141604493590000 16.9065690363600005
  5.5911738170090004 -0.0000000006900003  0.0015546803500000
  2.7955930917350003 -4.8421263151279996 11.2716726883820009
  2.7955896463800003  1.6140418029630001  0.5628843995400000
  2.7955904052310001 -1.6140473011729999 11.8334294499919999
  2.7955779658780000 -1.6140663304259999 21.9856190323130036
  2.7955911869720000  1.6140469865650005 10.7101138416060007
  2.7955912060829999 -3.2200278675020009  2.4084648943130000
  4.1865201937130001  0.8109976118990002 13.6790735863770010
  1.4046708264330001  0.8109879276270001 13.6790966300159997
  4.1864015191760000 -0.8110628528710004  2.4084634018100002
  1.4047785948990001 -0.8110580107399998  2.4084638993090004
  4.1864924541669994  0.8109705354539997 20.1403100856620014
  1.4046570648530001  0.8109947460990001 20.1403331292810002
  2.7955901676630002  3.2201514696390001 13.6790725912990023
  2.7955764060710004  3.2201292353149999 20.1403316366710001
  2.7955942201709996 -3.2199532568559994  8.8644256080120005
  1.4048514987870000 -0.8111044533690002  8.8644246130580004
  4.1863374390320001 -0.8111044533689993  8.8644241155810004
  2.7955854964490001  1.6140354560120000  3.9556654158870002
  2.7955918458840001 -1.6140342802699996 15.2277210544920010
  2.7955681383240005 -1.6140551408140003 18.5916430730900011
  2.7955897457700001  1.6140339650519999  7.3171975487180001
  2.7955923938610003  3.3212365224340004  1.1250252299480001
  1.3169315058719999 -0.7603362760840000 12.3957062620700018
  4.2742490319970008 -0.7603362760840005 12.3957057331450002
  1.3171234666600002  0.7604416481670001  1.1250268165190001
  4.2740607922050007  0.7604416481670003  1.1250262876620001
  1.3169027417050001 -0.7603451224750000 21.4237476972690004
  4.2742538149310008 -0.7603451224849996 21.4237697144300014
  2.7955872088799998 -3.3214555731280004 12.3957073199180012
  2.7955780138569999 -3.3214983144360000 21.4237487551310011
  2.7955915875510002  3.3212857837550001 10.1482418014239997
  4.2741019197750001  0.7604182775229997 10.1482428591680005
  1.3170835220479999  0.7604231196540000 10.1482433880370007
  2.7955862434940002 -1.6140474488139998  1.2491891066880001
  2.7955904647220002  1.6140461840650004 12.5194377246060018
  2.7955757773010004  1.6140326053029996 21.3000132540130025
  2.7955939231820000 -1.6140416564219999 10.0238350138850016
  2.7955917264550001  4.8421295849500003  3.1903817484600001
 -0.0000029772230000 -0.0000015721090000 14.4616045150050017
  5.5911716814860011 -0.0000182701819997 19.3578932224700004
  0.0000023647120000 -0.0000035849700000  8.0827063437230002
  2.7955911833650000 -0.0308361495979999  3.2903536363080006
  1.4245500972380001  2.4056223279519999 14.5612116526480015
  4.1666321611960004  2.4056271700830001 14.5612111622160008
  1.4245009832930002 -2.4056544564169999  3.2903551076540007
  4.1666836885810001 -2.4056496142859998  3.2903546172040006
  1.4244140337160001  2.4056686658319997 19.2585320982030019
  4.1667393142210010  2.4056686658320001 19.2585316077299993
  2.7955950773900002  0.0308911794910001 14.5612126335100012
  2.7955764287320002  0.0307341478689998 19.2585330791490001
  2.7955921058150000 -0.0307462303890002  7.9828266720360013
  4.1667656831990003 -2.4057001168759999  7.9828276529900011
  1.4244208335460000 -2.4057049590069997  7.9828281434690007
  2.7955904166860006  1.6140540790360003  5.6364765744760001
  2.7955744008179999 -1.6140640791759997 16.9099300708140028
