Nd Al
 1.0000000000000000
     4.9097150000000003    0.0000110000000000    2.8346200000000001
     1.6365740000000000    4.6289330000000000    2.8346320000000000
    -0.0000090000000000    0.0000070000000000    5.6692539999999996
 Nd  Al 
   2   4
Cartesian
  5.7279950000000008  4.0503321249999997  9.9211927499999994
  0.8182849999999999  0.5786188750000000  1.4173132499999999
  3.2731399999999997  2.3144754999999999  5.6692529999999994
  3.2731444999999999  2.3144719999999999  2.8346260000000001
  0.8182825000000000  2.3144700000000000  4.2519429999999998
  2.4548530000000000  0.0000090000000000  4.2519369999999999
