Ba Ag As
 1.0000000000000000
     4.6320920000000001   -0.0000000000000000    0.0000000000000000
    -2.3160479999999999    4.0115100000000004    0.0000000000000000
     0.0000000000000000    0.0000000000000000    9.0749030000000008
 Ba  Ag  As 
   2   2   2
Cartesian
  0.0000000000000000  0.0000000000000000  4.5374515000000004
  0.0000000000000000  0.0000000000000000  0.0000000000000000
 -0.0000036493800000  2.6743413371700004  6.8061772500000011
  2.3160476493800002  1.3371686628300001  2.2687257500000002
  2.3160476493800002  1.3371686628300001  6.8061772500000011
 -0.0000036493800000  2.6743413371700004  2.2687257500000002
