Be Au
 1.0000000000000000
     2.9281459999999999    0.0000000000000000    0.0000000000000000
     0.0000000000000000    2.9281459999999999    0.0000000000000000
     0.0000000000000000    0.0000000000000000   10.3320380000000007
 Be  Au 
   2   4
Cartesian
  0.0000000000000000  0.0000000000000000  0.0000000000000000
  1.4640730000000000  1.4640730000000000  5.1660190000000004
  1.4640730000000000  1.4640730000000000  8.8738361489080013
  1.4640730000000000  1.4640730000000000  1.4582018510920003
  0.0000000000000000  0.0000000000000000  3.7078171489080005
  0.0000000000000000  0.0000000000000000  6.6242208510920007
