Mg Co
 1.0000000000000000
    11.3662220000000005    0.0000000000000000    0.0000000000000000
     0.0000000000000000   11.3662220000000005    0.0000000000000000
     0.0000000000000000    0.0000000000000000   11.3662220000000005
 Mg  Co 
  48  48
Cartesian
  0.8692431936720001  9.9454442500000013  9.9454442500000013
  1.4207777500000001  1.4207777500000001 10.4969788063280003
  1.4207777500000001  1.4207777500000001  3.7107986936719999
  3.7107986936719999  1.4207777500000001  1.4207777500000001
  1.4207777500000001 10.4969788063280003  1.4207777500000001
  1.4207777500000001  9.3939096936720006  7.1038887500000003
  9.9454442500000013  0.8692431936720001  9.9454442500000013
  9.9454442500000013  9.9454442500000013  0.8692431936720001
  9.9454442500000013  9.9454442500000013  7.6554233063280002
  9.9454442500000013  1.9723123063280001  4.2623332500000002
 10.4969788063280003  1.4207777500000001  1.4207777500000001
  7.6554233063280002  9.9454442500000013  9.9454442500000013
  0.8692431936720001  4.2623332500000002  4.2623332500000002
  1.4207777500000001  7.1038887500000003  4.8138678063280000
  1.4207777500000001  7.1038887500000003  9.3939096936720006
  3.7107986936719999  7.1038887500000003  7.1038887500000003
  1.4207777500000001  4.8138678063280000  7.1038887500000003
  1.4207777500000001  3.7107986936719999  1.4207777500000001
  9.9454442500000013  6.5523541936720004  4.2623332500000002
  9.9454442500000013  4.2623332500000002  6.5523541936720004
  9.9454442500000013  4.2623332500000002  1.9723123063280001
  9.9454442500000013  7.6554233063280002  9.9454442500000013
 10.4969788063280003  7.1038887500000003  7.1038887500000003
  7.6554233063280002  4.2623332500000002  4.2623332500000002
  6.5523541936720004  9.9454442500000013  4.2623332500000002
  7.1038887500000003  1.4207777500000001  4.8138678063280000
  7.1038887500000003  1.4207777500000001  9.3939096936720006
  9.3939096936720006  1.4207777500000001  7.1038887500000003
  7.1038887500000003 10.4969788063280003  7.1038887500000003
  7.1038887500000003  9.3939096936720006  1.4207777500000001
  4.2623332500000002  0.8692431936720001  4.2623332500000002
  4.2623332500000002  9.9454442500000013  6.5523541936720004
  4.2623332500000002  9.9454442500000013  1.9723123063280001
  4.2623332500000002  1.9723123063280001  9.9454442500000013
  4.8138678063280000  1.4207777500000001  7.1038887500000003
  1.9723123063280001  9.9454442500000013  4.2623332500000002
  6.5523541936720004  4.2623332500000002  9.9454442500000013
  7.1038887500000003  7.1038887500000003 10.4969788063280003
  7.1038887500000003  7.1038887500000003  3.7107986936719999
  9.3939096936720006  7.1038887500000003  1.4207777500000001
  7.1038887500000003  4.8138678063280000  1.4207777500000001
  7.1038887500000003  3.7107986936719999  7.1038887500000003
  4.2623332500000002  6.5523541936720004  9.9454442500000013
  4.2623332500000002  4.2623332500000002  0.8692431936720001
  4.2623332500000002  4.2623332500000002  7.6554233063280002
  4.2623332500000002  7.6554233063280002  4.2623332500000002
  4.8138678063280000  7.1038887500000003  1.4207777500000001
  1.9723123063280001  4.2623332500000002  9.9454442500000013
  0.0000000000000000  0.0000000000000000  5.6831110000000002
  2.8415555000000001  8.5246665000000004  0.0000000000000000
  0.0000000000000000  8.5246665000000004  2.8415555000000001
  8.5246665000000004  0.0000000000000000  2.8415555000000001
  3.3854974200320003  9.0686084200319996  9.0686084200319996
  0.5439419200320000  0.5439419200320000  7.9807245799680002
  7.9807245799680002  0.5439419200320000  0.5439419200320000
  0.5439419200320000  2.2976135799680000  6.2270529200320004
  3.3854974200320003 10.8222800799680012 10.8222800799680012
 10.8222800799680012  9.0686084200319996  5.1391690799680001
 10.8222800799680012 10.8222800799680012  3.3854974200320003
  7.9807245799680002  2.2976135799680000  2.2976135799680000
  0.0000000000000000  5.6831110000000002  0.0000000000000000
  2.8415555000000001  2.8415555000000001  5.6831110000000002
  0.0000000000000000  2.8415555000000001  8.5246665000000004
  8.5246665000000004  5.6831110000000002  8.5246665000000004
  3.3854974200320003  3.3854974200320003  3.3854974200320003
  0.5439419200320000  6.2270529200320004  2.2976135799680000
  7.9807245799680002  6.2270529200320004  6.2270529200320004
  0.5439419200320000  7.9807245799680002  0.5439419200320000
  3.3854974200320003  5.1391690799680001  5.1391690799680001
 10.8222800799680012  3.3854974200320003 10.8222800799680012
 10.8222800799680012  5.1391690799680001  9.0686084200319996
  7.9807245799680002  7.9807245799680002  7.9807245799680002
  5.6831110000000002  0.0000000000000000  0.0000000000000000
  8.5246665000000004  8.5246665000000004  5.6831110000000002
  5.6831110000000002  8.5246665000000004  8.5246665000000004
  2.8415555000000001  0.0000000000000000  8.5246665000000004
  9.0686084200319996  9.0686084200319996  3.3854974200320003
  6.2270529200320004  0.5439419200320000  2.2976135799680000
  2.2976135799680000  0.5439419200320000  6.2270529200320004
  6.2270529200320004  2.2976135799680000  0.5439419200320000
  9.0686084200319996 10.8222800799680012  5.1391690799680001
  5.1391690799680001  9.0686084200319996 10.8222800799680012
  5.1391690799680001 10.8222800799680012  9.0686084200319996
  2.2976135799680000  2.2976135799680000  7.9807245799680002
  5.6831110000000002  5.6831110000000002  5.6831110000000002
  8.5246665000000004  2.8415555000000001  0.0000000000000000
  5.6831110000000002  2.8415555000000001  2.8415555000000001
  2.8415555000000001  5.6831110000000002  2.8415555000000001
  9.0686084200319996  3.3854974200320003  9.0686084200319996
  6.2270529200320004  6.2270529200320004  7.9807245799680002
  2.2976135799680000  6.2270529200320004  0.5439419200320000
  6.2270529200320004  7.9807245799680002  6.2270529200320004
  9.0686084200319996  5.1391690799680001 10.8222800799680012
  5.1391690799680001  3.3854974200320003  5.1391690799680001
  5.1391690799680001  5.1391690799680001  3.3854974200320003
  2.2976135799680000  7.9807245799680002  2.2976135799680000
