Hf Cu Si
 1.0000000000000000
     3.9024390000000002    0.0000000000000000    0.0000000000000000
     0.0000000000000000    6.4537849999999999    0.0000000000000000
     0.0000000000000000    0.0000000000000000    7.2873520000000003
 Hf  Cu  Si 
   4   4   4
Cartesian
  0.9756097500000001  3.3003365732999996  2.2478638852719999
  2.9268292499999999  3.1534484266999998  5.0394881147280000
  0.9756097500000001  0.0734440733000000  1.3958121147280000
  2.9268292499999999  6.3803409267000006  5.8915398852720005
  2.9268292499999999  5.3720660961499993  3.0901724661920000
  0.9756097500000001  1.0817189038500001  4.1971795338079998
  2.9268292499999999  2.1451735961500003  0.5535035338080000
  0.9756097500000001  4.3086114038500005  6.7338484661920006
  0.9756097500000001  1.7925645988900001  6.5367766060560006
  2.9268292499999999  4.6612204011100005  0.7505753939440001
  0.9756097500000001  5.0194570988899994  4.3942513939439998
  2.9268292499999999  1.4343279011099999  2.8931006060560001
