Ti Ir
 1.0000000000000000
     3.8789609999999999    0.0000000000000000    0.0000000000000000
     0.0000000000000000    3.8789609999999999    0.0000000000000000
     0.0000000000000000    0.0000000000000000    3.8789609999999999
 Ti  Ir 
   1   3
Cartesian
  0.0000000000000000  0.0000000000000000  0.0000000000000000
  1.9394804999999999  1.9394804999999999  0.0000000000000000
  1.9394804999999999  0.0000000000000000  1.9394804999999999
  0.0000000000000000  1.9394804999999999  1.9394804999999999
