Hf Ga
 1.0000000000000000
     3.5876440000000001    0.0000000000000000   -1.4163699999999999
    -0.5591690000000000    3.5437989999999999   -1.4163690000000000
     0.0044210000000000    0.0051750000000000    5.2631139999999998
 Hf  Ga 
   1   3
Cartesian
  0.0000000000000000  0.0000000000000000  0.0000000000000000
  1.5142375000000001  1.7718995000000000 -1.4163695000000001
  0.4797447500000000  2.6604367500000001  1.2151877499999999
  2.5531512499999995  0.8885372499999999  1.2151872500000001
