Al As
 1.0000000000000000
     5.7353090000000000    0.0000000000000000    0.0000000000000000
     0.0000000000000000    5.7353090000000000    0.0000000000000000
     0.0000000000000000    0.0000000000000000    5.7353090000000000
 Al  As 
   4   4
Cartesian
  0.0000000000000000  0.0000000000000000  0.0000000000000000
  0.0000000000000000  2.8676545000000000  2.8676545000000000
  2.8676545000000000  0.0000000000000000  2.8676545000000000
  2.8676545000000000  2.8676545000000000  0.0000000000000000
  4.3014817499999998  1.4338272500000000  4.3014817499999998
  4.3014817499999998  4.3014817499999998  1.4338272500000000
  1.4338272500000000  1.4338272500000000  1.4338272500000000
  1.4338272500000000  4.3014817499999998  4.3014817499999998
