Fe P 
 1.0000000000000000
     5.7815170000000000    0.0001250000000000    0.0000000000000000
    -2.8906489999999998    5.0068460000000004    0.0000000000000000
     0.0000000000000000    0.0000000000000000    3.3944480000000001
 Fe  P  
   6   3
Cartesian
  3.4020787576329998  0.0002287692260000  1.6972240000000001
  1.1897020454960003  2.0610394946140000  1.6972240000000001
  4.0806851402989999  2.9459278760799998  1.6972240000000001
  5.0371546455480001  1.2893127409350003  0.0000000000000000
  2.1465475429979999  3.7177911280830003  0.0000000000000000
 -1.4020789286749995  5.0068130940020001  0.0000000000000000
  2.8906735864640001  1.6689552247780002  0.0000000000000000
  0.0001365979280001  3.3379957463380001  0.0000000000000000
 -2.8905680598569998  5.0067959326650007  1.6972240000000001
