Cr Os
 1.0000000000000000
     4.6486619999999998    0.0000000000000000    0.0000000000000000
     0.0000000000000000    4.6486619999999998    0.0000000000000000
     0.0000000000000000    0.0000000000000000    4.6486619999999998
 Cr  Os 
   6   2
Cartesian
  1.1621655000000000  0.0000000000000000  2.3243309999999999
  3.4864964999999999  0.0000000000000000  2.3243309999999999
  0.0000000000000000  2.3243309999999999  1.1621655000000000
  0.0000000000000000  2.3243309999999999  3.4864964999999999
  2.3243309999999999  3.4864964999999999  0.0000000000000000
  2.3243309999999999  1.1621655000000000  0.0000000000000000
  0.0000000000000000  0.0000000000000000  0.0000000000000000
  2.3243309999999999  2.3243309999999999  2.3243309999999999
