Fe Pt
 1.0000000000000000
     2.7357339999999999    0.0000000000000000    0.0000000000000000
     0.0000000000000000    2.7357339999999999    0.0000000000000000
     0.0000000000000000    0.0000000000000000    3.7646899999999999
 Fe  Pt 
   1   1
Cartesian
  0.0000000000000000  0.0000000000000000  0.0000000000000000
  1.3678669999999999  1.3678669999999999  1.8823449999999999
