Li Cr S 
 1.0000000000000000
     3.4943040000000001    0.0000000000000000    0.0000000000000000
    -1.7471520000000000    3.0261550000000002    0.0000000000000000
     0.0000000000000000    0.0000000000000000    5.9713789999999998
 Li  Cr  S  
   1   1   2
Cartesian
  0.0000000000000000  0.0000000000000000  2.9856894999999999
  0.0000000000000000  0.0000000000000000  0.0000000000000000
  1.7471537471519998  1.0087173246150001  4.6359696573350000
 -0.0000017471520001  2.0174376753850001  1.3354093426650000
