Dy Mn Ge
 1.0000000000000000
     3.8482240000000001    0.0000000000000000   -1.3264990000000001
    -0.4572490000000000    3.8209620000000002   -1.3264990000000001
    -0.0181530000000000   -0.0204550000000000    6.1925100000000004
 Dy  Mn  Ge 
   1   2   2
Cartesian
  0.0000000000000000  0.0000000000000000  0.0000000000000000
  0.6100427500000000  2.8554940000000002  1.7697560000000001
  2.7627792500000004  0.9450130000000001  1.7697560000000001
  2.0740148768250006  2.3370068861070004 -0.2283579880780002
  1.2988071231750000  1.4635001138930002  3.7678699880780004
