Cs Sb F 
 1.0000000000000000
     5.2247279999999998   -0.0301170000000000   -0.5501100000000000
    -0.6079270000000000    5.1893279999999997   -0.5501000000000000
    -0.0269500000000000   -0.0301260000000000    5.2535400000000001
 Cs  Sb  F  
   1   1   6
Cartesian
  2.2949254999999997  2.5645424999999999  2.0766650000000002
  0.0000000000000000  0.0000000000000000  0.0000000000000000
  3.5647792937339999  0.3603673000079999  3.8341343956400005
 -0.1031667152430000  4.1844103750319999  3.1651491830200000
  0.7783902737419999  1.5463197131249999  4.5712510139899996
  4.6930177152429993  0.9446746249679999  0.9881808169799999
  1.0250717062659997  4.7687176999919991  0.3191956043600001
  3.8114607262579998  3.5827652868749995 -0.4179210139900001
