Tc Ru
 1.0000000000000000
     5.4755310000000001   -0.0003150000000000   -0.0000110000000000
    -2.7380380000000000    4.7417759999999998    0.0000080000000000
     0.0000160000000000   -0.0000070000000000    4.3303130000000003
 Tc  Ru 
   6   2
Cartesian
  0.0002294253800000  1.5558987017620001  1.0824924634500002
  1.3901476956970005  3.9633091443729995  1.0824909402530001
 -1.3898396186669999  3.9633837240859999  1.0825701403500001
  2.7372823126420003  3.1855505564689999  3.2478132062290004
  1.3473722553490002  0.7781448550039999  3.2478147294120001
  4.1273486186669999  0.7780702759140000  3.2477398596500002
 -0.0004325013339998  3.1612318191119999  3.2477104354000006
  2.7379469768490003  1.5802221805799999  1.0825952342759999
