Li B  O 
 1.0000000000000000
     6.4900950000000002   -0.0160100000000000   -0.0107980000000000
    -1.2693559999999999    7.7112090000000002   -0.0642820000000000
    -2.1829179999999999   -0.6035130000000000    8.2043219999999994
 Li  B   O  
   6  14  24
Cartesian
  2.7038023357910008  0.9504903086110001  7.9373388826599989
  0.3340186642090003  6.1411956913890000  0.1919031173400000
  0.4816606483080002  6.7032780922580004  5.6194588083679999
  2.5561603516920002  0.3884079077420001  2.5097831916319997
 -1.7741944527250000  1.9481204784300001  5.6198895796099997
  4.8120154527250003  5.1435655215700002  2.5093524203899995
  3.6842873057840002  6.6509393367690004  0.2266552733580000
 -0.6464663057840001  0.4407466632310001  7.9025867266419993
  2.8999711480459998  6.3542810055610008  4.0750401445740003
  0.1378498519539999  0.7374049944390000  4.0542018554260002
  0.8323464579930001  1.6494530668279999  6.3535457652499998
  2.2054745420069999  5.4422329331719999  1.7756962347500000
 -2.1057193284829996  5.0699558594019996  5.5739300274899994
  5.1435403284829997  2.0217301405979997  2.5553119725099998
  0.2317217371010002  3.9981082374710004  5.7936740375640001
  2.8060992628990000  3.0935777625290002  2.3355679624360000
  2.9176502710610013  6.9494124337609993  6.4744770028519998
  0.1201707289390001  0.1422735662390000  1.6547649971479998
  2.5543978463039996  3.3807519183440000  5.9184111817720000
  0.4834231536960001  3.7109340816559997  2.2108308182279997
 -0.8262989795589999  3.4234222534760002  2.3858893298659996
  3.8641199795590007  3.6682637465240000  5.7433526701339996
  2.2720237419220006  6.4424846414020003  2.8612898088400001
  0.7657972580780000  0.6492013585979999  5.2679521911600000
 -2.5998501885159997  5.9138419728090001  6.6493007732780001
  5.6376711885160002  1.1778440271910000  1.4799412267220000
 -1.7090439447619998  0.5544464019780001  7.0149459859279988
  4.7468649447619988  6.5372395980220004  1.1142960140720000
 -0.6272656422360000  5.0301195482890000  5.6033180176819997
  3.6650866422360004  2.0615664517110002  2.5259239823180000
  2.4175867640989996  7.1178179454590005  5.1055656854480000
  0.6202342359010000 -0.0261319454590000  3.0236763145519996
  3.9973505684090007  5.5596018626440005  4.2429942885420004
 -0.9595295684089999  1.5320841373559999  3.8862477114579996
  1.6427112647039996  6.7340090755839999  7.2490246493199999
  1.3951097352960000  0.3576769244160000  0.8802173506800000
 -0.1140158661979997  2.7456626748770003  6.1802402967899992
  3.1518390491160000  4.3460239286360007  1.9489934988879998
  0.5796294619700005  0.9738064359000000  7.6293641449479992
  2.4581915380300003  6.1178795640999999  0.4998778550520000
  2.2216843040029999  2.1547256315580001  6.4339291276620001
  0.8161366959970002  4.9369603684420005  1.6953128723379998
  1.5741030881040006  4.2891353059640007  5.5687838626279991
  1.4637179118960000  2.8025506940359999  2.5604581373719997
