Li Tl In F 
 1.0000000000000000
     0.0000000000000000    4.2840049999999996    4.2840049999999996
     4.2840049999999996    0.0000000000000000    4.2840049999999996
     4.2840049999999996    4.2840049999999996    0.0000000000000000
 Li  Tl  In  F  
   1   2   1   6
Cartesian
  4.2840049999999996  4.2840049999999996  4.2840049999999996
  2.1420024999999998  2.1420024999999998  2.1420024999999998
  6.4260074999999990  6.4260074999999990  6.4260074999999990
  0.0000000000000000  0.0000000000000000  0.0000000000000000
  6.4448228499599995  4.2840049999999996  4.2840049999999996
  4.2840049999999996  2.1231871500399997  4.2840049999999996
  4.2840049999999996  6.4448228499599995  4.2840049999999996
  4.2840049999999996  4.2840049999999996  6.4448228499599995
  4.2840049999999996  4.2840049999999996  2.1231871500399997
  2.1231871500399997  4.2840049999999996  4.2840049999999996
