Cd Ga Te
 1.0000000000000000
     5.6526420000000002    0.0001690000000000   -2.5918060000000001
    -1.1884680000000001    5.5263669999999996   -2.5916470000000000
    -0.0263190000000000   -0.0327950000000000    7.4026110000000003
 Cd  Ga  Te 
   1   2   4
Cartesian
  0.0000000000000000  0.0000000000000000  0.0000000000000000
  0.5086500000000000  4.1284199999999993  1.1096187500000001
  2.2320869999999999  2.7632679999999996 -2.5917265000000000
  1.8466572202049998  2.1596654218769999 -0.0493112584640000
 -0.0528733621410000  3.2341786444049996  3.5374612567140002
  3.2537226388709999  0.7280981662829999  3.4437575679300005
  3.8281898208450005  4.8655508198310002 -2.4935915658619998
