Mg Pt
 1.0000000000000000
     7.9837009999999999    0.0000000000000000    0.0000000000000000
    -3.9918499999999999    6.9140879999999996    0.0000000000000000
     0.0000000000000000    0.0000000000000000    8.3567129999999992
 Mg  Pt 
  18   6
Cartesian
  0.0000000000000000  0.0000000000000000  5.6435640604289992
  0.0000000000000000  0.0000000000000000  1.4652075604289998
 -0.0000036585170002  4.6093943046960000  6.5759141731259989
  3.9918546585170005  2.3046936953039996  2.3975576731259998
 -0.0000036585170002  4.6093943046960000  2.3975576731259998
  3.9918546585170005  2.3046936953039996  6.5759141731259989
  2.2581499093450002  0.0000000000000000  7.6406764033079995
 -2.8627751867500000  4.9584727796399992  3.4623199033079999
  1.1290750960950002  1.9556152203599999  3.4623199033079999
  2.8627759039050003  4.9584727796399992  7.6406764033079995
 -1.1290748132499999  1.9556152203599999  7.6406764033079995
  5.7255510906550002  0.0000000000000000  3.4623199033079999
  2.9914288950920001  0.0000000000000000  4.7719087542509993
 -2.4961357397999997  4.3234345391039994  0.5935522542510000
  1.4957146348920001  2.5906534608960001  0.5935522542510000
  2.4961363651079997  4.3234345391039994  4.7719087542509993
 -1.4957142602000000  2.5906534608960001  4.7719087542509993
  4.9922721049079994  0.0000000000000000  0.5935522542510000
  2.6173685521389998  0.0000000000000000  2.0307815395560000
 -2.6831658878500000  4.6473803041680002  6.2091380395559996
  1.3086844399889999  2.2667076958319998  6.2091380395559996
  2.6831665600109997  4.6473803041680002  2.0307815395560000
 -1.3086841121499999  2.2667076958319998  2.0307815395560000
  5.3663324478609997  0.0000000000000000  6.2091380395559996
