Pm Cd Pt
 1.0000000000000000
     0.0000000000000000    3.4305880000000002    3.4305880000000002
     3.4305880000000002    0.0000000000000000    3.4305880000000002
     3.4305880000000002    3.4305880000000002    0.0000000000000000
 Pm  Cd  Pt 
   1   1   2
Cartesian
  5.1458751388240005  5.1458751388240005  5.1458751388240005
  1.7152940000000001  1.7152940000000001  1.7152940000000001
  0.0000000000000000  0.0000000000000000  0.0000000000000000
  3.4305811388240004  3.4305811388240004  3.4305811388240004
