Nb Pt
 1.0000000000000000
     2.8386770000000001    0.0000000000000000    0.0000000000000000
     0.0000000000000000    3.9955569999999998    0.0000000000000000
     0.0000000000000000    0.0000000000000000    8.5851360000000003
 Nb  Pt 
   2   4
Cartesian
  0.0000000000000000  0.0000000000000000  0.0000000000000000
  1.4193385000000001  1.9977784999999999  4.2925680000000002
  1.4193385000000001  1.9977784999999999  7.1739027591840001
  1.4193385000000001  1.9977784999999999  1.4112332408160000
  0.0000000000000000  0.0000000000000000  2.8813347591839999
  0.0000000000000000  0.0000000000000000  5.7038012408160004
