Li Br N 
 1.0000000000000000
     3.7366109999999999    0.0000000000000000   -1.0988490000000000
    -0.7690530000000000    5.3331200000000001   -2.6151460000000002
    -0.0182470000000000   -0.0115160000000000    6.8405040000000001
 Li  Br  N  
   5   2   1
Cartesian
 -0.2488857310720001  4.8143339416920004 -0.8463228162310004
  3.1981967310720001  0.5072700583080000  3.9728318162309999
  2.7632626521870001  3.5233894087080002  2.4938490716609998
  1.8683055000000000  0.0000000000000000 -0.5494245000000000
  0.1860483478129999  1.7982145912920002  0.6326599283389998
  0.9553627791570000  1.7307913576200000  3.2486675637600002
  1.9939482208429997  3.5908126423800000 -0.1221585637599999
  0.0000000000000000  0.0000000000000000  0.0000000000000000
