Th Co
 1.0000000000000000
     3.4839750000000000    0.0000000000000000   -1.1976160000000000
     0.0000000000000000    3.9574490000000000    0.0000000000000000
     0.0765750000000000    0.0000000000000000    5.8891700000000000
 Th  Co 
   2   2
Cartesian
  3.0798203539500002  0.9893622500000000  3.2930738559179997
  0.4807296460500001  2.9680867499999999  1.3984801440820001
  2.0751189764250002  0.9893622500000000  0.3702957834380001
  1.4854310235750001  2.9680867499999999  4.3212582165619997
