Pb Se
 1.0000000000000000
     3.7854700000000001   -0.0000000000000000    2.1855419999999999
     1.2618229999999999    3.5689750000000000    2.1855419999999999
    -0.0000000000000000   -0.0000000000000000    4.3710849999999999
 Pb  Se 
   1   1
Cartesian
  0.0000000000000000  0.0000000000000000  0.0000000000000000
  2.5236464999999999  1.7844875000000000  4.3710845000000003
