Ho Tl Ag
 1.0000000000000000
     0.0000030000000000    3.6779709999999999    3.6779670000000002
     3.6779739999999999   -0.0000030000000000    3.6779730000000002
     3.6779709999999999    3.6779730000000002    0.0000000000000000
 Ho  Tl  Ag 
   2   1   1
Cartesian
  0.0000000000000000  0.0000000000000000  0.0000000000000000
  3.6779703220290001  3.6779668220270003  3.6779700000000002
  5.5169609999999993  5.5169557500000002  5.5169550000000003
  1.8389869999999999  1.8389852499999999  1.8389850000000001
