Cr Ir
 1.0000000000000000
     4.6498830000000000    0.0000000000000000    0.0000000000000000
     0.0000000000000000    4.6498830000000000    0.0000000000000000
     0.0000000000000000    0.0000000000000000    4.6498830000000000
 Cr  Ir 
   6   2
Cartesian
  1.1624707500000000  0.0000000000000000  2.3249415000000000
  3.4874122500000002  0.0000000000000000  2.3249415000000000
  0.0000000000000000  2.3249415000000000  1.1624707500000000
  0.0000000000000000  2.3249415000000000  3.4874122500000002
  2.3249415000000000  3.4874122500000002  0.0000000000000000
  2.3249415000000000  1.1624707500000000  0.0000000000000000
  0.0000000000000000  0.0000000000000000  0.0000000000000000
  2.3249415000000000  2.3249415000000000  2.3249415000000000
