Tm Mg Al
 1.0000000000000000
     0.0000000000000000    3.6102870000000000    3.6102870000000000
     3.6102870000000000    0.0000000000000000    3.6102870000000000
     3.6102870000000000    3.6102870000000000    0.0000000000000000
 Tm  Mg  Al 
   2   1   1
Cartesian
  3.6102942205740001  3.6102942205740001  3.6102942205740001
  0.0000000000000000  0.0000000000000000  0.0000000000000000
  5.4154305000000003  5.4154305000000003  5.4154305000000003
  1.8051435000000000  1.8051435000000000  1.8051435000000000
