Na C  N 
 1.0000000000000000
     3.4016929999999999   -0.0006420000000000    0.8515090000000000
    -0.1823750000000000    3.3968010000000000    0.8515090000000000
    -0.0172160000000000   -0.0181610000000000    5.5069179999999998
 Na  C   N  
   2   1   2
Cartesian
  1.0407927681939999  1.0979649783309999  2.2534973288419997
  2.1613092318059999  2.2800330216689999  4.9564386711579997
  0.0000000000000000  0.0000000000000000  0.0000000000000000
  0.4896129265299999  0.5165084884960000  4.5139180032119999
  2.7124890734699996  2.8614895115040002  2.6960179967880000
