Sr P  Ir
 1.0000000000000000
     6.3485199999999997    0.0000000000000000    0.0000000000000000
     0.0000000000000000    6.3485199999999997    0.0000000000000000
     0.0000000000000000    0.0000000000000000    6.3485199999999997
 Sr  P   Ir 
   4   4   4
Cartesian
  3.9424944051999997  2.4060255948000000  5.5802855948000003
  2.4060255948000000  5.5802855948000003  3.9424944051999997
  0.7682344052000000  0.7682344052000000  0.7682344052000000
  5.5802855948000003  3.9424944051999997  2.4060255948000000
  1.0162964756799999  2.1579635243199999  4.1905564756800002
  4.1905564756800002  1.0162964756799999  2.1579635243199999
  2.1579635243199999  4.1905564756800002  1.0162964756799999
  5.3322235243199998  5.3322235243199998  5.3322235243199998
  3.7563113591599997  5.7664686408400003  0.5820513591599999
  0.5820513591599999  3.7563113591599997  5.7664686408400003
  2.5922086408399996  2.5922086408399996  2.5922086408399996
  5.7664686408400003  0.5820513591599999  3.7563113591599997
