Sn I 
 1.0000000000000000
     4.4910779999999999    0.0004840000000000   -0.0065340000000000
    -2.2444570000000001    7.2717539999999996   -0.2400990000000000
    -0.0160120000000000    0.0176930000000000   11.1018080000000001
 Sn  I  
   3   6
Cartesian
  0.0000000000000000  0.0000000000000000  0.0000000000000000
 -0.0109478548000003  3.9138332726560003  3.3292468320479998
  2.2415568548000002  3.3760977273440003  7.5259281679519994
 -0.0111481664860000  1.2162268601769999  8.1091802436979989
  2.2417571664859999  6.0737041398230005  2.7459947563019997
 -0.0135936704170001  5.2254412574419993  6.0379465270449995
  2.2442049148739995  2.0644824708039997  4.8172287130539999
 -0.0191887664280002  5.2045192226949997 10.0539293418160014
  2.2497977664279998  2.0854117773050000  0.8012456581840000
