Cu Pd O 
 1.0000000000000000
     0.0000000000000000   -4.1904450000000004   -0.0000290000000000
    -5.2475490000000002    0.0000000000000000    0.0000000000000000
     0.0000000000000000   -0.0000290000000000   -4.2161289999999996
 Cu  Pd  O  
   2   2   4
Cartesian
  0.0000000000000000 -0.0000145000000000 -2.1080644999999998
 -2.6237745000000001  0.0000000000000000  0.0000000000000000
 -2.6237745000000001 -2.0952370000000000 -2.1080789999999996
  0.0000000000000000 -2.0952225000000002 -0.0000145000000000
 -3.9356827401960004 -0.9792030330050001 -3.1620824457849994
 -3.9356827401960004 -3.2112709669949999 -1.0540755542149998
 -1.3118662598040001 -3.2112709669949999 -1.0540755542149998
 -1.3118662598040001 -0.9792030330050001 -3.1620824457849994
