Nb Sn S 
 1.0000000000000000
     3.3555500000000000   -0.0000000000000000    0.0000000000000000
    -1.6777759999999999    2.9059930000000000    0.0000000000000000
     0.0000000000000000    0.0000000000000000   17.5014600000000016
 Nb  Sn  S  
   2   2   4
Cartesian
  1.6777763444420002  0.9686633646689999 13.1260950000000012
 -0.0000023444420000  1.9373296353310001  4.3753650000000004
  0.0000000000000000  0.0000000000000000  0.0000000000000000
  0.0000000000000000  0.0000000000000000  8.7507300000000008
  0.0000000000000000  0.0000000000000000  5.9347450860000004
  0.0000000000000000  0.0000000000000000 14.6854750860000003
  0.0000000000000000  0.0000000000000000  2.8159849140000000
  0.0000000000000000  0.0000000000000000 11.5667149140000021
