Sr Al Si H 
 1.0000000000000000
    -2.1146950000000002   -3.6627600000000000    0.0000000000000000
    -2.1146950000000002    3.6627600000000000    0.0000000000000000
     0.0000000000000000    0.0000000000000000   -4.9647839999999999
 Sr  Al  Si  H  
   1   1   1   1
Cartesian
  0.0000000000000000  0.0000000000000000 -0.0009184850400000
 -2.1146950000000002 -1.2209224418400002 -2.2859156379840000
 -2.1146950000000002  1.2209224418400000 -2.7541394522400000
 -2.1146950000000002 -1.2209224418400002 -0.5344788567359999
