Mg Zr Rh
 1.0000000000000000
     0.0000000000000000    3.1847240000000001    3.1847240000000001
     3.1847240000000001    0.0000000000000000    3.1847240000000001
     3.1847240000000001    3.1847240000000001    0.0000000000000000
 Mg  Zr  Rh 
   1   1   2
Cartesian
  1.5923556305520001  1.5923556305520001  1.5923556305520001
  4.7770923694480008  4.7770923694480008  4.7770923694480008
  0.0000000000000000  0.0000000000000000  0.0000000000000000
  3.1847240000000001  3.1847240000000001  3.1847240000000001
