Sc Ta O 
 1.0000000000000000
     4.8167280000000003    0.0110650000000000    0.0000000000000000
    -0.1376100000000000    5.1207839999999996    0.0000000000000000
     0.0000000000000000    0.0000000000000000    5.6980069999999996
 Sc  Ta  O  
   2   2   8
Cartesian
  2.3739615000000001  1.2857284999999998  1.8413052640429999
  2.3051565000000003  3.8461204999999996  3.8567074339640000
 -0.0344025000000000  1.2801959999999999  4.6869127518709996
 -0.1032075000000000  3.8405879999999994  1.0110942481290000
  0.9860267666700000  2.2305837920999996  0.6075841844170000
  1.2177951464160002  2.0777853523859999  3.5085933943059997
  3.7618962333299999  0.3408732079000000  0.6075841844170000
  3.4613228535839999  3.0540636476140000  2.1894136056939999
  3.5301278535840002  0.4936716476140000  3.5085933943059997
  0.9172217666700000  4.7909757920999994  5.0904228155829996
  1.1489901464160002  4.6381773523859993  2.1894136056939999
  3.6930912333300001  2.9012652078999999  5.0904228155829996
