Sm Ti S  O 
 1.0000000000000000
     3.8429099999999998    0.0000000000000000    0.0000000000000000
     0.0000000000000000    3.8429099999999998    0.0000000000000000
    -1.9214549999999999   -1.9214549999999999   11.6143219999999996
 Sm  Ti  S   O  
   2   2   2   5
Cartesian
  1.9214550000000004  1.9214550000000004  7.7569036914279996
  0.0000000000000000  0.0000000000000000  3.8574183085719995
 -0.0000000000000001 -0.0000000000000001  9.8018373659679998
  1.9214549999999999  1.9214549999999999  1.8124846340320000
 -0.0000000000000000 -0.0000000000000000  6.8719620409599997
  1.9214549999999997  1.9214549999999997  4.7423599590399999
  0.0000000000000001  1.9214549999999999  9.3453480540800005
  1.9214549999999999  0.0000000000000001  9.3453480540800005
  1.9214549999999997  0.0000000000000000  2.2689739459200000
  0.0000000000000000  1.9214549999999997  2.2689739459200000
  1.9214549999999999  1.9214549999999999  0.0000000000000000
