Ta Pd
 1.0000000000000000
     2.9097350000000000    0.0000000000000000    0.0000000000000000
     0.0000000000000000    3.8668369999999999    0.0000000000000000
     0.0000000000000000    0.0000000000000000    8.5165349999999993
 Ta  Pd 
   2   4
Cartesian
  0.0000000000000000  0.0000000000000000  0.0000000000000000
  1.4548675000000000  1.9334184999999999  4.2582674999999997
  1.4548675000000000  1.9334184999999999  7.1136913547999994
  1.4548675000000000  1.9334184999999999  1.4028436451999999
  0.0000000000000000  0.0000000000000000  2.8554238548000002
  0.0000000000000000  0.0000000000000000  5.6611111451999996
