Ca Al Si
 1.0000000000000000
     4.1546770000000004    0.0000000000000000    0.0000000000000000
    -2.0773389999999998    3.5980560000000001    0.0000000000000000
     0.0000000000000000    0.0000000000000000    7.1077219999999999
 Ca  Al  Si 
   1   2   2
Cartesian
  0.0000000000000000  0.0000000000000000  0.0000000000000000
  2.0773404106720004  1.1993508006480000  2.6308593288019999
 -0.0000024106719998  2.3987051993520003  4.4768626711980000
  2.0773404106720004  1.1993508006480000  5.2327689058980003
 -0.0000024106719998  2.3987051993520003  1.8749530941019998
