Pr Al
 1.0000000000000000
     6.5669079999999997   -0.0000010000000000    0.0000000000000000
    -3.2834550000000000    5.6871099999999997    0.0000000000000000
     0.0000000000000000    0.0000000000000000    4.6048190000000000
 Pr  Al 
   2   6
Cartesian
  3.2834569501209998  1.8957007709629998  3.4536142500000002
 -0.0000039501210003  3.7914082290369997  1.1512047500000000
 -0.0000101264789999  1.5703076138129999  3.4536142500000002
  5.2069964353089997  0.7851444833270000  1.1512047500000000
  3.2834631264789991  4.1168013861870003  1.1512047500000000
 -1.9235434353090000  4.9019645166729999  3.4536142500000002
  1.9235220106990003  4.9019639308469998  3.4536142500000002
  1.3599309893009999  0.7851450691530000  1.1512047500000000
