Mg B  C 
 1.0000000000000000
     8.9482219999999995    0.0000000000000000    0.0000000000000000
     0.0000000000000000    8.9482219999999995    0.0000000000000000
     0.0000000000000000    0.0000000000000000    5.0773010000000003
 Mg  B   C  
   4  48   2
Cartesian
  0.0000000000000000  0.0000000000000000  0.0000000000000000
  4.4741109999999997  4.4741109999999997  2.5386505000000001
  0.0000000000000000  4.4741109999999997  3.8079757500000002
  4.4741109999999997  0.0000000000000000  1.2693252500000001
  5.3568173074119994  7.2131617541999997  0.4234012076910000
  6.7934006601799997  0.6951426260700000  4.6476293255740000
  5.5107625187000000  3.3246224018799997  4.4454968954630001
  6.7249109689919990  6.5790638986139998  4.6453597720270006
  2.2507999689919997  6.8432691013859994  2.1067092720270000
  3.5914046925879997  1.7350602457999997  0.4234012076910000
  2.3691581013860001  6.7249109689919990  0.4319412279730000
  6.5385463493980005  3.6436712572899994  2.9828331006840001
  8.2530793739299995  6.7934006601799997  0.4296716744260001
  2.9118319727979998  8.2363104059019996  3.0396379442720001
  2.1548213398199998  8.2530793739299995  4.6476293255740000
  8.1177822572899991  2.0644353493979999  4.6331183993160003
  6.5790638986139998  2.2233110310080000  0.4319412279730000
  3.4374594812999999  5.6235995981200002  4.4454968954630001
  0.6951426260700000  2.1548213398199998  0.4296716744260001
  3.7789683739299997  6.6289323398199995  2.9683221744260000
  8.0655156925879989  2.7390507541999995  2.9620517076910002
  2.1049528986140000  2.2507999689919997  2.9705917279729999
  1.0366515186999998  1.1494885981199998  1.9068463954629999
  7.2131617541999997  3.5914046925879997  4.6538997923090006
  5.6235995981200002  5.5107625187000000  0.6318041045370001
  6.8837866506019987  8.1177822572899991  0.4441826006840001
  6.6974220310080002  2.1049528986140000  2.1067092720270000
  6.6289323398199995  5.1692536260699997  2.1089788255740003
  0.8304397427100000  6.8837866506019987  4.6331183993160003
  2.3192896601799995  3.7789683739299997  2.1089788255740003
  3.6436712572899994  2.4096756506019998  2.0944678993160002
  2.2233110310080000  2.3691581013860001  4.6453597720270006
  7.9115704812999992  7.7987334018799990  1.9068463954629999
  5.1860225940980005  1.5622790272020000  4.5763135557280004
  3.7621994059019999  7.3859429727979995  4.5763135557280004
  6.2091712457999995  8.0655156925879989  2.1152492923090001
  5.1692536260699997  2.3192896601799995  2.9683221744260000
  7.7987334018799990  1.0366515186999998  3.1704546045370003
  2.7390507541999995  0.8827063074120000  2.1152492923090001
  5.3045507427100000  6.5385463493980005  2.0944678993160002
  0.7119115940980000  2.9118319727979998  2.0376630557280002
  3.3246224018799997  3.4374594812999999  0.6318041045370001
  8.2363104059019996  6.0363900272019997  2.0376630557280002
  2.4096756506019998  5.3045507427100000  2.9828331006840001
  0.8827063074120000  6.2091712457999995  2.9620517076910002
  1.7350602457999997  5.3568173074119994  4.6538997923090006
  6.8432691013859994  6.6974220310080002  2.9705917279729999
  2.0644353493979999  0.8304397427100000  0.4441826006840001
  1.5622790272020000  3.7621994059019999  0.5009874442720000
  1.1494885981199998  7.9115704812999992  3.1704546045370003
  7.3859429727979995  5.1860225940980005  0.5009874442720000
  6.0363900272019997  0.7119115940980000  3.0396379442720001
  0.0000000000000000  0.0000000000000000  2.5386505000000001
  4.4741109999999997  4.4741109999999997  0.0000000000000000
