Rb Na Sb F 
 1.0000000000000000
     0.0000000000000000    4.5318170000000002    4.5318170000000002
     4.5318170000000002    0.0000000000000000    4.5318170000000002
     4.5318170000000002    4.5318170000000002    0.0000000000000000
 Rb  Na  Sb  F  
   2   1   1   6
Cartesian
  6.7977255000000003  6.7977255000000003  6.7977255000000003
  2.2659085000000001  2.2659085000000001  2.2659085000000001
  4.5318170000000002  4.5318170000000002  4.5318170000000002
  0.0000000000000000  0.0000000000000000  0.0000000000000000
  2.2088257330680001  4.5318170000000002  4.5318170000000002
  4.5318170000000002  4.5318170000000002  2.2088257330680001
  6.8548082669320003  4.5318170000000002  4.5318170000000002
  4.5318170000000002  2.2088257330680001  4.5318170000000002
  4.5318170000000002  6.8548082669320003  4.5318170000000002
  4.5318170000000002  4.5318170000000002  6.8548082669320003
