Tm Cr C 
 1.0000000000000000
     0.0000000000000000    3.2939609999999999    0.0000000000000000
     0.0291010000000000    0.0000000000000000    5.4640639999999996
     4.9922610000000001   -1.6469819999999999   -1.4710099999999999
 Tm  Cr  C  
   2   2   3
Cartesian
  1.0856561010120001  1.6469801765699998  1.4148853992879997
  3.9356009742040001  0.0000004704420000  2.5781830997299995
  3.4458570292980002  1.6469761716600000 -0.4015821961320000
  1.5754699084710000  0.0000011813700000  4.3946246369459994
  2.8178984117129997  0.0000024493320001  0.4533839634280001
  2.2035835771570000  1.6469798445930000  3.5396675167159999
  0.0000199981450000  0.0000032939550000 -0.0000004199760000
