Pr Cd Hg
 1.0000000000000000
     0.0000000000000000    3.6623190000000001    3.6623190000000001
     3.6623190000000001    0.0000000000000000    3.6623190000000001
     3.6623190000000001    3.6623190000000001    0.0000000000000000
 Pr  Cd  Hg 
   1   1   2
Cartesian
  5.4934785000000002  5.4934785000000002  5.4934785000000002
  1.8311668246380000  1.8311668246380000  1.8311668246380000
  0.0000000000000000  0.0000000000000000  0.0000000000000000
  3.6623190000000001  3.6623190000000001  3.6623190000000001
