Hf Si
 1.0000000000000000
     3.7894869999999998    0.0000000000000000    0.0000000000000000
     0.0000000000000000    5.2522039999999999    0.0000000000000000
     0.0000000000000000    0.0000000000000000    6.9054240000000000
 Hf  Si 
   4   4
Cartesian
  0.9473717500000000  1.9650543523560000  4.6636678689120004
  2.8421152500000000  3.2871496476440001  2.2417561310880001
  2.8421152500000000  4.5911563523560002  5.6944681310879997
  0.9473717500000000  0.6610476476440000  1.2109558689119999
  0.9473717500000000  4.5158502514040002  3.7519171164959997
  2.8421152500000000  0.7363537485959999  3.1535068835039999
  2.8421152500000000  1.8897482514039998  6.6062188835040008
  0.9473717500000000  3.3624557485959996  0.2992051164960000
