Sn Rh
 1.0000000000000000
     6.5041620000000000    0.0000000000000000    0.0000000000000000
     0.0000000000000000    6.5041620000000000    0.0000000000000000
     0.0000000000000000    0.0000000000000000    5.7729169999999996
 Sn  Rh 
   8   4
Cartesian
  4.3073552678520004  1.0552742678520000  0.0000000000000000
  4.3073552678520004  5.4488877321480000  2.8864584999999998
  5.4488877321480000  4.3073552678520004  0.0000000000000000
  2.1968067321480000  5.4488877321480000  0.0000000000000000
  1.0552742678520000  4.3073552678520004  2.8864584999999998
  1.0552742678520000  2.1968067321480000  0.0000000000000000
  2.1968067321480000  1.0552742678520000  2.8864584999999998
  5.4488877321480000  2.1968067321480000  2.8864584999999998
  0.0000000000000000  0.0000000000000000  4.3296877499999997
  0.0000000000000000  0.0000000000000000  1.4432292499999999
  3.2520810000000000  3.2520810000000000  1.4432292499999999
  3.2520810000000000  3.2520810000000000  4.3296877499999997
