Ba Li Sb
 1.0000000000000000
     4.9404079999999997    0.0000000000000000    0.0000000000000000
    -2.4702039999999998    4.2785180000000000    0.0000000000000000
     0.0000000000000000    0.0000000000000000    9.1802899999999994
 Ba  Li  Sb 
   2   2   2
Cartesian
  0.0000000000000000  0.0000000000000000  4.5901449999999997
  0.0000000000000000  0.0000000000000000  0.0000000000000000
  2.4702064702039999  1.4261712404939999  6.8852174999999995
 -0.0000024702040000  2.8523467595060001  2.2950724999999998
  2.4702064702039999  1.4261712404939999  2.2950724999999998
 -0.0000024702040000  2.8523467595060001  6.8852174999999995
