Nd Co Ge
 1.0000000000000000
     4.2906480000000000    0.0000000000000000    0.0000000000000000
     0.0000000000000000    4.2906480000000000    0.0000000000000000
     0.0000000000000000    0.0000000000000000    6.5502960000000003
 Nd  Co  Ge 
   2   2   2
Cartesian
  2.1453240000000000  0.0000000000000000  1.9983970551600001
  0.0000000000000000  2.1453240000000000  4.5518989448399996
  2.1453240000000000  2.1453240000000000  0.0000000000000000
  0.0000000000000000  0.0000000000000000  0.0000000000000000
  2.1453240000000000  0.0000000000000000  5.3074624878480003
  0.0000000000000000  2.1453240000000000  1.2428335121520000
