Hf Zn N 
 1.0000000000000000
     1.6527060000000000   -5.6021210000000004    0.0000000000000000
     1.6527060000000000    5.6021210000000004    0.0000000000000000
     0.0000000000000000    0.0000000000000000    8.7435430000000007
 Hf  Zn  N  
   6   2   2
Cartesian
  1.6527060000000000 -1.4387367152200004  0.4082097920410001
  1.6527060000000000  1.4387367152200004  4.7799812920410005
  1.6527060000000000  1.4387367152200004  8.3353332079589997
  1.6527060000000000 -1.4387367152200004  3.9635617079590006
  1.6527060000000000 -5.0632529810100007  2.1858857500000002
  1.6527060000000000  5.0632529810100007  6.5576572500000001
  1.6527060000000000  2.7583947464640000  2.1858857500000002
  1.6527060000000000 -2.7583947464640000  6.5576572500000001
  0.0000000000000000  0.0000000000000000  0.0000000000000000
  0.0000000000000000  0.0000000000000000  4.3717715000000004
