Ca Ti N 
 1.0000000000000000
     5.8835509999999998    0.0139040000000000    1.0926520000000000
     1.9286710000000000    5.3819889999999999    1.8968320000000001
     0.0026340000000000   -0.0056240000000000    8.9797270000000005
 Ca  Ti  N  
   8   2   8
Cartesian
  3.2272167364640003  5.1370682148510003  7.5200230086080007
  5.6690240604340003  3.1189573757260001  3.5243927113060001
  4.7830024511070004  1.2357336891930000 10.0475334497680002
  2.5979800484989997  2.7967617717660000  5.1168369658710002
  4.5876392635359995  0.2532007851490000  4.4491879913919998
  2.1458319395660004  2.2713116242739999  8.4448182886940000
  5.2168759515009997  2.5935072282339999  6.8523740341290003
  3.0318535488929999  4.1545353108069998  1.9216775502320003
  5.8489444066359999  4.5692672055290009  9.1790506521889998
  1.9659115933640001  0.8210017944710001  2.7901603478110002
  7.0779957766599999  3.8245338814150003  7.8769030390640005
  3.3540431281219996  0.9501281542930000  6.6127000871490003
  0.7368602233400000  1.5657351185849999  4.0923079609360000
  4.2758311823199993  3.4186010663499999  8.9902277297700000
  1.0085257077490000  0.9075951068760000  1.1037759711000001
  4.4608128718779998  4.4401408457070000  5.3565109128510002
  3.5390248176799997  1.9716679336500000  2.9789832702300001
  6.8063302922509994  4.4826738931239998 10.8654350289000003
