Na H  Pd
 1.0000000000000000
    -2.6369370000000001    2.6369370000000001    3.2432170000000000
     2.6369370000000001   -2.6369370000000001    3.2432170000000000
     2.6369370000000001    2.6369370000000001   -3.2432170000000000
 Na  H   Pd 
   2   4   1
Cartesian
 -0.0000000000000002  2.6369370000000005  1.6216085000000000
  2.6369370000000001  0.0000000000000000  1.6216085000000000
  1.1612200358790001  1.1612200358790001  0.0000032432169999
  1.4757169641210004  1.4757169641210000  3.2432137567830002
  1.4757143271839999 -1.4757143271839999  3.2432170000000000
 -1.4757143271839999  1.4757143271839999  3.2432170000000000
  0.0000000000000000  0.0000000000000000  0.0000000000000000
