Ce Bi
 1.0000000000000000
     4.0427569999999999   -0.0000000000000000    2.3340860000000001
     1.3475850000000000    3.8115480000000002    2.3340860000000001
    -0.0000000000000000   -0.0000000000000000    4.6681749999999997
 Ce  Bi 
   1   1
Cartesian
  2.6951710000000002  1.9057740000000001  4.6681735000000000
  0.0000000000000000  0.0000000000000000  0.0000000000000000
