Ta B 
 1.0000000000000000
     3.0634679999999999    0.0009610000000000   -0.6669640000000000
    -0.1590950000000000    3.2053929999999999   -0.7358880000000000
    -0.0005570000000000    0.0016960000000000    7.3711390000000003
 Ta  B  
   3   4
Cartesian
  0.5381788460460001  0.5934188673770000  2.4684038701580002
  2.3656371539540002  2.6146311326229998  3.4998831298419999
  1.5317339999999999  0.0004805000000000 -0.3334820000000000
  2.7966409627160003  1.3992139380430000  5.4797606060670008
  0.1071750372840000  1.8088360619570001  0.4885263939330001
  1.0643125758400001  1.1758461580030000  4.8883484488000004
  1.8395034241599999  2.0322038419969997  1.0799385511999999
