Ca Ga N 
 1.0000000000000000
     3.1506500000000002   -5.4570800000000004   -0.0000020000000000
     3.1506490000000000    5.4570800000000004   -0.0000000000000000
    -0.0000050000000000    0.0000020000000000   12.1680890000000002
 Ca  Ga  N  
  12   2  10
Cartesian
  1.2895940576980001  2.2336500832760002 10.6733366110620000
  3.7220973179220000  0.0000017543160000 10.6733354296860004
  5.0116995329899998  2.2336485746440000  1.4947512075620002
  1.2896240945649999 -2.2336961970460001  7.5784918680709996
  2.5792489714139997  0.0000062114459999  4.5895954946469999
  5.0116699054350002  2.2336981970460004  4.5895951319290003
  2.5791935314279999  0.0000057027640003  1.4947515703160001
  5.0116999423020001 -2.2336480832760004  1.4947503889380001
  1.2896236852490000  2.2336986883120002  7.5784805186240005
  3.7220418779359998  0.0000012456340001  7.5784915053549993
  1.2895976176590001 -2.2336411175640003 10.6733357924379995
  5.0116671641060000 -2.2336912312340003  4.5895943132890000
  0.0000025514990000  0.0000014999200000  9.1255800264379996
  6.3012914485009999  0.0000005000800002  3.0425069735619998
  2.2167400290550003 -3.8395072176820002  9.1258098129649987
  1.8678052451389999 -0.0000039571220000  9.1258106272969997
  4.0845571215950001  3.8395037606019997  3.0422771870330001
  3.1506440160170004 -1.8190238476400002  6.0840431666679997
  3.1506493333329999  1.8190303047200000 -0.0000006666660000
  3.1506468333330000  1.8190313047200000  6.0840438333340003
  3.1506528173160002 -1.8190248476399999 -0.0000013333340000
  4.4334824535579997 -0.0000049570359997  3.0422885407920002
  0.9339078251770001  1.6175772394820003  3.0422777798689999
  2.2167393254770000  3.8395102175960001  9.1257990520419998
