Sc Al
 1.0000000000000000
     7.5875560000000002    0.0000000000000000    0.0000000000000000
     0.0000000000000000    7.5875560000000002    0.0000000000000000
     0.0000000000000000    0.0000000000000000    7.5875560000000002
 Sc  Al 
   8  16
Cartesian
  6.6391115000000003  6.6391115000000003  6.6391115000000003
  0.9484445000000000  4.7422225000000005  4.7422225000000005
  6.6391115000000003  2.8453335000000002  2.8453335000000002
  0.9484445000000000  0.9484445000000000  0.9484445000000000
  2.8453335000000002  6.6391115000000003  2.8453335000000002
  4.7422225000000005  4.7422225000000005  0.9484445000000000
  2.8453335000000002  2.8453335000000002  6.6391115000000003
  4.7422225000000005  0.9484445000000000  4.7422225000000005
  0.0000000000000000  5.6906670000000004  1.8968890000000000
  5.6906670000000004  0.0000000000000000  1.8968890000000000
  0.0000000000000000  3.7937780000000001  0.0000000000000000
  1.8968890000000000  5.6906670000000004  0.0000000000000000
  0.0000000000000000  1.8968890000000000  5.6906670000000004
  5.6906670000000004  3.7937780000000001  5.6906670000000004
  0.0000000000000000  0.0000000000000000  3.7937780000000001
  1.8968890000000000  1.8968890000000000  3.7937780000000001
  3.7937780000000001  5.6906670000000004  5.6906670000000004
  1.8968890000000000  0.0000000000000000  5.6906670000000004
  3.7937780000000001  3.7937780000000001  3.7937780000000001
  5.6906670000000004  5.6906670000000004  3.7937780000000001
  3.7937780000000001  1.8968890000000000  1.8968890000000000
  1.8968890000000000  3.7937780000000001  1.8968890000000000
  3.7937780000000001  0.0000000000000000  0.0000000000000000
  5.6906670000000004  1.8968890000000000  0.0000000000000000
