Mg Pd
 1.0000000000000000
     8.6393909999999998   -0.0000420000000000    0.0000000000000000
    -4.3197310000000000    7.4819110000000002    0.0000000000000000
     0.0000000000000000    0.0000000000000000    8.1585669999999997
 Mg  Pd 
  20   8
Cartesian
  0.0000000000000000  0.0000000000000000  0.0000000000000000
  0.0000000000000000  0.0000000000000000  4.0792834999999998
 -0.0001536173670004  6.8845807943280004  2.0396417499999999
  2.6768428115810008  3.4424419850230001  6.1189252500000002
  5.9622995374670005  3.4421566648870003  6.1189252500000002
 -1.6426395374670002  4.0397123351130002  2.0396417499999999
  1.6428215080789998  4.0394344968460008  2.0396417499999999
  4.3198136173670001  0.5972882056720000  6.1189252500000002
 -0.0000439477200002  2.8894535449170000  7.6412893764989995
  6.1370234191659998  1.4447006784409999  3.5621364135709999
  2.5023625104800002  1.4446884206169999  3.5620058764990001
  1.8173061289110000  6.0371805793410003  7.6412893764989995
 -1.8173634191660002  6.0371683215590002  7.6414199135710001
  4.3196996279889994  4.5924229369940006  0.5172776235010000
  6.1370234191659998  1.4447006784409999  0.5171470864290000
  4.3196996279889994  4.5924229369940006  3.5620058764990001
  2.5023625104800002  1.4446884206169999  0.5172776235010000
  1.8173061289110000  6.0371805793410003  4.5965611235010000
 -0.0000439477200002  2.8894535449170000  4.5965611235010000
 -1.8173634191660002  6.0371683215590002  4.5964305864289994
  0.0000238501139997  4.9878992328390002  6.1189252500000002
  4.3196361498860005  2.4939697671609999  2.0396417499999999
 -0.0000086989200001  1.8333623256000000  2.0396417499999999
  7.0516480119509994  0.9166468815180000  6.1189252500000002
  1.5877429285200000  0.9166734440400001  6.1189252500000002
  2.7319213911400002  6.5652030378289998  2.0396417499999999
 -2.7319836922909997  6.5652296003509996  2.0396417499999999
  4.3196730185799996  5.6485141562690000  6.1189252500000002
