Nd Sb Te
 1.0000000000000000
     4.3425609999999999    0.0000000000000000    0.0000000000000000
     0.0000000000000000    4.3425609999999999    0.0000000000000000
     0.0000000000000000    0.0000000000000000    9.5987659999999995
 Nd  Sb  Te 
   2   2   2
Cartesian
  3.2569207499999999  3.2569207499999999  6.9617834057139998
  1.0856402500000000  1.0856402500000000  2.6369825942859997
  3.2569207499999999  1.0856402500000000  0.0000000000000000
  1.0856402500000000  3.2569207499999999  0.0000000000000000
  3.2569207499999999  3.2569207499999999  3.6025128674599998
  1.0856402500000000  1.0856402500000000  5.9962531325399997
