Li Ge Rh
 1.0000000000000000
     3.5917270000000001    0.0000000000000000    2.0736849999999998
     1.1972430000000001    3.3863120000000002    2.0736849999999998
     0.0000000000000000    0.0000000000000000    4.1473699999999996
 Li  Ge  Rh 
   1   1   2
Cartesian
  0.0000000000000000  0.0000000000000000  0.0000000000000000
  2.3944850000000000  1.6931560000000001  4.1473699999999996
  3.5917275000000002  2.5397340000000002  6.2210549999999998
  1.1972425000000000  0.8465780000000001  2.0736849999999998
