Al Cu Se
 1.0000000000000000
     5.0807490000000000    0.0000000000000000   -2.3236599999999998
    -1.0627180000000001    4.9683630000000001   -2.3236599999999998
     0.0358460000000000    0.0443240000000000    6.7948060000000003
 Al  Cu  Se 
   2   2   4
Cartesian
  3.5628052499999998  1.2642527500000000  1.0737430000000003
  2.0090154999999998  2.4841815000000000 -2.3236599999999998
  0.4910717500000000  3.7484342499999999  1.0737430000000003
  0.0000000000000000  0.0000000000000000  0.0000000000000000
  1.5304369741040000  1.8742171249999999 -0.0507728193599999
  0.0008570063280000  3.1240814957520002  3.3600888193600005
  3.0664352436720002  0.6686767542480001  3.3466301806400001
  3.5100247758959999  4.3583986250000004 -2.3609741806399995
