Rb Fe S 
 1.0000000000000000
     5.2820790000000004    0.0108160000000000   -1.0535209999999999
    -1.9566200000000000    5.8062800000000001   -2.9390960000000002
    -0.0036350000000000    0.1262040000000000    6.7943689999999997
 Rb  Fe  S  
   2   2   4
Cartesian
  2.7005573532700007  3.7912511701680001 -0.2623517193700000
  0.6212666467300001  2.1520488298320002  3.0641037193699998
 -0.6281373532789999  5.7858092791039999 -3.1627626592790001
  3.9499613532790003  0.1574907208960000  5.9645146592789997
  0.3260543757730002  5.3912663491120005  1.7084437260329997
 -0.0440791704280000  1.7065253180600002 -0.3675670350960001
  3.3659031704280000  4.2367746819400001  3.1693190350959992
  2.9957696242270000  0.5520336508880000  1.0933082739669999
