Ho Ag
 1.0000000000000000
     3.5912099999999998    0.0000000000000000    0.0000000000000000
     0.0000000000000000    3.5912099999999998    0.0000000000000000
     0.0000000000000000    0.0000000000000000    3.5912099999999998
 Ho  Ag 
   1   1
Cartesian
  1.7956049999999999  1.7956049999999999  1.7956049999999999
  0.0000000000000000  0.0000000000000000  0.0000000000000000
