Ca Ni As
 1.0000000000000000
     3.7937289999999999    0.0000000000000000   -1.4373419999999999
    -0.5445700000000000    3.7544409999999999   -1.4373419999999999
     0.0060240000000000    0.0069600000000000    5.7411669999999999
 Ca  Ni  As 
   1   2   2
Cartesian
  0.0000000000000000  0.0000000000000000  0.0000000000000000
  0.5430167500000000  2.8193107500000001  1.4332415000000001
  2.7121662500000001  0.9420902500000000  1.4332415000000001
  1.1994752078549999  1.3860069580809999  3.1659137599840004
  2.0557077921449998  2.3753940419189998 -0.2994307599839997
