Dy Al
 1.0000000000000000
     6.2429730000000001   -0.0000820000000000    0.0000010000000000
    -3.1215570000000001    5.4066970000000003   -0.0000000000000000
    -0.0000000000000000    0.0000000000000000    4.5872080000000004
 Dy  Al 
   2   6
Cartesian
  3.1214817287310002  1.8021920841700003  1.1468118410870001
 -0.0000594857580002  3.6044229157480006  3.4404109205380005
  4.8752584223129993  0.7895240067180000  3.4404114411490005
  1.3677095924220002  0.7896511773970000  3.4404154665250002
  3.1213866489840001  3.8273524096800000  3.4404114411520004
 -1.7538424223130002  4.6170909932820008  1.1468113204750001
  1.7537032860210002  4.6169692293000004  1.1468118823070002
  0.0000324724320000  1.5792679969350001  1.1468113204730002
