Ta Fe Ru
 1.0000000000000000
    -0.0000050000000000    3.0784470000000002    3.0784470000000002
     3.0784470000000002   -0.0000050000000000    3.0784470000000002
     3.0784470000000002    3.0784470000000002   -0.0000050000000000
 Ta  Fe  Ru 
   1   1   2
Cartesian
  4.6176729068890001  4.6176729068890001  4.6176729068890001
  1.5392222500000001  1.5392222500000001  1.5392222500000001
  3.0784383431110003  3.0784383431110003  3.0784383431110003
  0.0000000000000000  0.0000000000000000  0.0000000000000000
