Tm Cd Rh
 1.0000000000000000
     0.0000000000000000    3.2668189999999999    3.2668189999999999
     3.2668189999999999    0.0000000000000000    3.2668189999999999
     3.2668189999999999    3.2668189999999999    0.0000000000000000
 Tm  Cd  Rh 
   1   1   2
Cartesian
  4.9002284999999999  4.9002284999999999  4.9002284999999999
  1.6334095000000000  1.6334095000000000  1.6334095000000000
  0.0000000000000000  0.0000000000000000  0.0000000000000000
  3.2668255336380003  3.2668255336380003  3.2668255336380003
