Gd Cl O 
 1.0000000000000000
     3.9428450000000002    0.0000000000000000    0.0000000000000000
     0.0000000000000000    3.9428450000000002    0.0000000000000000
     0.0000000000000000    0.0000000000000000    6.7180169999999997
 Gd  Cl  O  
   2   2   2
Cartesian
  2.9571337500000001  2.9571337500000001  5.5677581292599996
  0.9857112500000000  0.9857112500000000  1.1502588707400001
  0.9857112500000000  0.9857112500000000  4.2238188284099998
  2.9571337500000001  2.9571337500000001  2.4941981715899999
  2.9571337500000001  0.9857112500000000  0.0000000000000000
  0.9857112500000000  2.9571337500000001  0.0000000000000000
