Rb Hg F 
 1.0000000000000000
     4.5492189999999999    0.0000000000000000    0.0000000000000000
     0.0000000000000000    4.5492189999999999    0.0000000000000000
     0.0000000000000000    0.0000000000000000    4.5492189999999999
 Rb  Hg  F  
   1   1   3
Cartesian
  0.0000000000000000  0.0000000000000000  0.0000000000000000
  2.2746095000000000  2.2746095000000000  2.2746095000000000
  2.2746095000000000  0.0000000000000000  2.2746095000000000
  2.2746095000000000  2.2746095000000000  0.0000000000000000
  0.0000000000000000  2.2746095000000000  2.2746095000000000
