Mg Ge Rh
 1.0000000000000000
     0.0000090000000000    3.0270560000000000    3.0270560000000000
     3.0270560000000000    0.0000090000000000    3.0270560000000000
     3.0270560000000000    3.0270560000000000    0.0000090000000000
 Mg  Ge  Rh 
   1   1   2
Cartesian
  4.5405968041210008  4.5405968041210008  4.5405968041209999
  1.5135302500000001  1.5135302500000001  1.5135302500000001
  0.0000060541210000  0.0000060541210000  0.0000060541210000
  3.0270544458790001  3.0270544458790001  3.0270544458790001
