Sc C  Cl
 1.0000000000000000
     3.4439289999999998    0.0000000000000000    0.0000000000000000
    -1.7219640000000001    2.9825300000000001    0.0000000000000000
     0.0000000000000000    0.0000000000000000   10.0712159999999997
 Sc  C   Cl 
   2   1   2
Cartesian
  1.7219663886310002  0.9941756724900001  6.2657264646719995
 -0.0000013886310001  1.9883543275100002  3.8054895353280003
  0.0000000000000000  0.0000000000000000  5.0356079999999999
  1.7219663886310002  0.9941756724900001  2.1400931151359996
 -0.0000013886310001  1.9883543275100002  7.9311228848639992
