Li Au I 
 1.0000000000000000
     4.3960540000000004    0.0000000000000000    0.0000000000000000
     0.0000000000000000    7.1742720000000002   -0.3953770000000000
     0.0000000000000000    0.1057240000000000   13.3454940000000004
 Li  Au  I  
   2   2   8
Cartesian
  0.0000000000000000  0.0528620000000000  6.6727470000000002
  2.1980270000000002  3.5871360000000001 -0.1976885000000000
  2.1980270000000002  3.6399980000000003  6.4750585000000003
  0.0000000000000000  0.0000000000000000  0.0000000000000000
  4.3879344882620002  2.2622693830039999  1.3972825061150000
  2.1899074882620004  1.3777286169959999  5.0777759938850000
  0.0081195117380000  5.0177266169959998 11.5528344938849994
  2.2061465117380004  5.9022673830040002  7.8723410061150005
  1.4606988428500001  5.9937817579479997  1.5025629179500000
  3.6587258428500000  4.8204882420520008  4.5771185820500007
  2.9353551571500005  1.2862142420520000 11.4475540820500008
  0.7373281571500001  2.4595005836760002  8.3729988133269995
