Hf Sn
 1.0000000000000000
     8.7749530000000000    0.0000000000000000    0.0000000000000000
    -4.3874769999999996    7.5993329999999997    0.0000000000000000
     0.0000000000000000    0.0000000000000000    5.9136670000000002
 Hf  Sn 
  10   8
Cartesian
 -0.0000047208100000  5.0662245331109999  0.0000000000000000
  4.3874807208100002  2.5331084668889998  2.9568335000000001
  4.3874807208100002  2.5331084668889998  0.0000000000000000
 -0.0000047208100000  5.0662245331109999  2.9568335000000001
  2.4789768722179999  0.0000000000000000  1.4784167500000001
  1.2394882948560000  2.1468571684979998  4.4352502500000002
 -3.1479884226379995  5.4524758315019994  4.4352502500000002
 -1.2394885773619999  2.1468571684979998  1.4784167500000001
  3.1479877051440002  5.4524758315019994  1.4784167500000001
  6.2959761277819997  0.0000000000000000  4.4352502500000002
  0.0000000000000000  0.0000000000000000  0.0000000000000000
  0.0000000000000000  0.0000000000000000  2.9568335000000001
  5.3869524216530005  0.0000000000000000  1.4784167500000001
  2.6934759038760006  4.6652381280329998  4.4352502500000002
 -1.6940004822229999  2.9340948719669999  4.4352502500000002
 -2.6934765177769999  4.6652381280329998  1.4784167500000001
  1.6940000961240005  2.9340948719669999  1.4784167500000001
  3.3880005783470004  0.0000000000000000  4.4352502500000002
