Mn Cu Pd
 1.0000000000000000
     0.0000000000000000    3.0423619999999998    3.0423619999999998
     3.0423619999999998    0.0000000000000000    3.0423619999999998
     3.0423619999999998    3.0423619999999998    0.0000000000000000
 Mn  Cu  Pd 
   1   1   2
Cartesian
  4.5635429999999992  4.5635429999999992  4.5635429999999992
  1.5211809999999999  1.5211809999999999  1.5211809999999999
  0.0000000000000000  0.0000000000000000  0.0000000000000000
  3.0423619999999998  3.0423619999999998  3.0423619999999998
