Y  Al Ge
 1.0000000000000000
     2.1454279999999999   -3.7159900000000001    0.0000000000000000
     2.1454279999999999    3.7159900000000001    0.0000000000000000
     0.0000000000000000    0.0000000000000000    6.6214610000000000
 Y   Al  Ge 
   1   2   2
Cartesian
  0.0000000000000000  0.0000000000000000  0.0000000000000000
  2.1454279999999999 -1.2386658106600001  2.3394747361369999
  2.1454279999999999  1.2386658106600001  4.2819862638629997
  2.1454279999999999 -1.2386658106600001  4.9089392986479998
  2.1454279999999999  1.2386658106600001  1.7125217013519998
