Dy Zr Sb
 1.0000000000000000
     4.1395670000000004   -0.0000000000000000   -1.0391889999999999
    -0.2608770000000000    4.1313389999999997   -1.0391889999999999
     0.0190390000000000    0.0202800000000000    8.8403329999999993
 Dy  Zr  Sb 
   2   2   2
Cartesian
  2.6300121830090006  2.8013254617840002  1.7120472164350000
  1.2677168169910000  1.3502935382159997  5.0499077835649997
 -0.1304385000000000  2.0656694999999998 -0.5195945000000000
  2.0697835000000002  0.0000000000000000 -0.5195945000000000
  0.5228689060820001  0.5569276164450000  2.0828097558940000
  3.3748600939180005  3.5946913835549994  4.6791452441059995
