Zr Si S 
 1.0000000000000000
     3.5542509999999998    0.0000000000000000    0.0000000000000000
     0.0000000000000000    3.5542509999999998    0.0000000000000000
     0.0000000000000000    0.0000000000000000    8.1175890000000006
 Zr  Si  S  
   2   2   2
Cartesian
  2.6656882499999996  2.6656882499999996  5.9325775688700002
  0.8885627500000000  0.8885627500000000  2.1850114311300004
  2.6656882499999996  0.8885627500000000  0.0000000000000000
  0.8885627500000000  2.6656882499999996  0.0000000000000000
  0.8885627500000000  0.8885627500000000  5.0535319736490001
  2.6656882499999996  2.6656882499999996  3.0640570263510001
