Lu Ta Ru
 1.0000000000000000
     0.0000000000000000    3.2198470000000001    3.2198470000000001
     3.2198470000000001    0.0000000000000000    3.2198470000000001
     3.2198470000000001    3.2198470000000001    0.0000000000000000
 Lu  Ta  Ru 
   1   1   2
Cartesian
  1.6099235000000001  1.6099235000000001  1.6099235000000001
  4.8297705000000004  4.8297705000000004  4.8297705000000004
  0.0000000000000000  0.0000000000000000  0.0000000000000000
  3.2198470000000001  3.2198470000000001  3.2198470000000001
