Ba Ta In O 
 1.0000000000000000
     0.0000000000000000    4.1999599999999999    4.1999599999999999
     4.1999599999999999    0.0000000000000000    4.1999599999999999
     4.1999599999999999    4.1999599999999999    0.0000000000000000
 Ba  Ta  In  O  
   2   1   1   6
Cartesian
  6.2999399999999994  6.2999399999999994  6.2999399999999994
  2.0999800000000000  2.0999800000000000  2.0999800000000000
  4.1999599999999999  4.1999599999999999  4.1999599999999999
  0.0000000000000000  0.0000000000000000  0.0000000000000000
  4.1999599999999999  4.1999599999999999  6.2090528655999995
  4.1999599999999999  2.1908671343999999  4.1999599999999999
  2.1908671343999999  4.1999599999999999  4.1999599999999999
  4.1999599999999999  4.1999599999999999  2.1908671343999999
  4.1999599999999999  6.2090528655999995  4.1999599999999999
  6.2090528655999995  4.1999599999999999  4.1999599999999999
