Ca C  N 
 1.0000000000000000
     3.4711560000000001    0.0020510000000000    4.1095959999999998
     1.5047410000000001    3.1280489999999999    4.1095959999999998
     0.0032590000000000    0.0020500000000000    5.3793780000000000
 Ca  C   N  
   1   1   2
Cartesian
  0.0000000000000000  0.0000000000000000  0.0000000000000000
  2.4895779999999998  1.5660749999999999  6.7992849999999994
  2.0761686356320004  1.3060188498000000  5.6702229300399996
  2.9029873643679998  1.8261311501999997  7.9283470699599992
