Ta H 
 1.0000000000000000
     2.7654570000000001    0.0000000000000000    1.5966370000000001
     0.9218180000000000    2.6072989999999998    1.5966370000000001
    -0.0000000000000000    0.0000000000000000    3.1932760000000000
 Ta  H  
   1   2
Cartesian
  0.0000000000000000  0.0000000000000000  0.0000000000000000
  2.7654562500000002  1.9554742500000000  4.7899124999999998
  0.9218187500000000  0.6518247500000000  1.5966374999999999
