Sc Al Ni
 1.0000000000000000
     3.6796869999999999    0.0000000000000000    2.1244679999999998
     1.2265619999999999    3.4692409999999998    2.1244679999999998
     0.0000000000000000    0.0000000000000000    4.2489350000000004
 Sc  Al  Ni 
   1   1   2
Cartesian
  2.4531244999999999  1.7346204999999999  4.2489355000000000
  0.0000000000000000  0.0000000000000000  0.0000000000000000
  1.2265622500000000  0.8673102499999999  2.1244677500000000
  3.6796867500000001  2.6019307499999997  6.3734032500000000
