Li Hg Au
 1.0000000000000000
     0.0000000000000000    3.1736179999999998    3.1736179999999998
     3.1736179999999998    0.0000000000000000    3.1736179999999998
     3.1736179999999998    3.1736179999999998    0.0000000000000000
 Li  Hg  Au 
   2   1   1
Cartesian
  0.0000000000000000  0.0000000000000000  0.0000000000000000
  3.1736179999999998  3.1736179999999998  3.1736179999999998
  4.7604333472359999  4.7604333472359999  4.7604333472359999
  1.5868089999999999  1.5868089999999999  1.5868089999999999
