Si B 
 1.0000000000000000
     5.7400909999999996    0.0000000000000000    2.3600800000000000
     1.7683120000000001    6.9612780000000001    3.8596330000000001
     0.0027680000000000    0.0076210000000000    8.1537129999999998
 Si  B  
   8  24
Cartesian
  2.6536933827030000  3.3529489965090002  2.7495568050400001
  5.6754082483530004  6.8373984965090004  9.6345335770400009
  5.1410426118349983  1.0772036251269999  3.8581569668580000
  1.8357627516470001  0.1315005034910000  4.7388924229599994
  4.8574776172970004  3.6159500034910002 11.6238691949599993
  4.3835467265319998  2.4072458748729999  5.7005237561019992
  3.1276242734679998  4.5616531251270001  8.6729022438979992
  2.3701283881650004  5.8916953748729997 10.5152690331419993
  1.8744001944989999  4.0035627865099999  7.2538811266599987
  1.5435919307679999  3.4698468669140001  4.4492328255949998
  5.2688927106520005  6.9542963669140008 11.6234940435149987
  5.9675790692319994  3.4990521330859998  9.9241931744050014
  5.6367708055009995  2.9653362134900001  7.1195448733400006
  6.3589277867279996  5.0403927900490002  8.9723716956850001
  2.0789803751860001  4.7123714021580003  5.6369009225309998
  5.2265495297579996  5.7333560978420000  6.1419761481889994
  2.2846214702420000  1.2355429021580000  8.2314498518110000
  1.2898820467209999  0.5191132865100000  1.3709754420200000
  4.8775439931560003  5.4129557099509995 12.5753155222349999
  6.0500939483899989  4.6901615210450007  7.2336872531490002
  5.4321906248139999  2.2565275978420001  8.7365250774690004
  1.1522432132720002  1.9285062099510002  5.4010543043150001
  3.6034015034759999  6.4859752059969997 11.9846909699179989
  5.0378316330330009  3.9673732940030004  8.4959450780020003
  4.0789088533339992  1.2133330210450000  8.9332183238689993
  2.2422782893480000  0.0146026330860000  2.7499319564849998
  1.4610770516100000  2.2787374789550001  7.1397387468510001
  3.9077694965239997  0.4829237940030000  2.3887350300820001
  2.4733393669670001  3.0015257059970000  5.8774809219980000
  2.6336270068440002  1.5559432900490000  1.7981104777650001
  6.2212889532789992  6.4497857134900007 13.0024505579800014
  3.4322621466659999  5.7555659789549996  5.4402076761310001
