Ti Al C 
 1.0000000000000000
     4.1811210000000001    0.0000000000000000    0.0000000000000000
     0.0000000000000000    4.1811210000000001    0.0000000000000000
     0.0000000000000000    0.0000000000000000    4.1811210000000001
 Ti  Al  C  
   3   1   1
Cartesian
  2.0905605000000000  2.0905605000000000  0.0000000000000000
  2.0905605000000000  0.0000000000000000  2.0905605000000000
  0.0000000000000000  2.0905605000000000  2.0905605000000000
  0.0000000000000000  0.0000000000000000  0.0000000000000000
  2.0905605000000000  2.0905605000000000  2.0905605000000000
