La P 
 1.0000000000000000
     3.7149570000000001    0.0000000000000000    2.1448309999999999
     1.2383189999999999    3.5024959999999998    2.1448309999999999
    -0.0000000000000000   -0.0000000000000000    4.2896640000000001
 La  P  
   1   1
Cartesian
  0.0000000000000000  0.0000000000000000  0.0000000000000000
  2.4766379999999999  1.7512479999999999  4.2896630000000000
