Se O 
 1.0000000000000000
     5.0825969999999998    0.0000000000000000    0.0000000000000000
     0.0000000000000000    8.3718599999999999    0.0000000000000000
     0.0000000000000000    0.0000000000000000    8.3718599999999999
 Se  O  
   8  16
Cartesian
  2.5412984999999999  2.4495560048400002  3.0527568896999999
  2.5412984999999999  5.9223039951600001  5.3191031102999995
  0.0000000000000000  3.0527568896999999  5.9223039951600001
  0.0000000000000000  5.3191031102999995  2.4495560048400002
  0.0000000000000000  7.2386868897000003  6.6354860048399997
  2.5412984999999999  1.7363739951600001  7.2386868897000003
  2.5412984999999999  6.6354860048399997  1.1331731103000000
  0.0000000000000000  1.1331731103000000  1.7363739951600001
  2.5412984999999999  2.7311686315200001  4.6651017789599996
  2.5412984999999999  5.6406913684799997  3.7067582210399999
  0.0000000000000000  4.6651017789599996  5.6406913684799997
  0.0000000000000000  3.7067582210399999  2.7311686315200001
  0.0000000000000000  0.4791717789600000  6.9170986315200000
  2.5412984999999999  1.4547613684800000  0.4791717789600000
  2.5412984999999999  6.9170986315200000  7.8926882210400002
  0.0000000000000000  7.8926882210400002  1.4547613684800000
  1.2706492500000000  1.1644336355399998  3.0214963644599999
  3.8119477499999999  5.3503636355399999  1.1644336355399998
  3.8119477499999999  3.0214963644599999  7.2074263644599998
  1.2706492500000000  7.2074263644599998  5.3503636355399999
  3.8119477499999999  7.2074263644599998  5.3503636355399999
  1.2706492500000000  3.0214963644599999  7.2074263644599998
  1.2706492500000000  5.3503636355399999  1.1644336355399998
  3.8119477499999999  1.1644336355399998  3.0214963644599999
