La Fe Si
 1.0000000000000000
     3.7872539999999999    0.0000000000000000   -1.4041020000000000
    -0.5205620000000000    3.7513079999999999   -1.4041020000000000
    -0.0287480000000000   -0.0330130000000000    5.7321499999999999
 La  Fe  Si 
   1   2   2
Cartesian
  0.0000000000000000  0.0000000000000000  0.0000000000000000
  2.6959259999999996  0.9213205000000000  1.4619730000000000
  0.5420180000000000  2.7969744999999997  1.4619730000000000
  2.1107428165119999  2.4238728980509996 -0.1164355472859999
  1.1272011834880000  1.2944221019490001  3.0403815472859996
