Fe Co
 1.0000000000000000
     2.8469430000000000    0.0000000000000000    0.0000000000000000
     0.0000000000000000    2.8469430000000000    0.0000000000000000
     0.0000000000000000    0.0000000000000000    2.8469430000000000
 Fe  Co 
   1   1
Cartesian
  0.0000000000000000  0.0000000000000000  0.0000000000000000
  1.4234715000000000  1.4234715000000000  1.4234715000000000
