Cs H  Pt
 1.0000000000000000
     4.4861750000000002    4.4861750000000002    0.0000000000000000
     0.0000000000000000    4.4861750000000002    4.4861750000000002
     4.4861750000000002    0.0000000000000000    4.4861750000000002
 Cs  H   Pt 
   2   6   1
Cartesian
  6.7292625000000008  6.7292625000000008  6.7292625000000008
  2.2430875000000001  2.2430875000000001  2.2430875000000001
  4.4861750000000002  4.4861750000000002  7.3291717657000000
  4.4861750000000002  1.6431782343000001  4.4861750000000002
  1.6431782343000001  4.4861750000000002  4.4861750000000002
  4.4861750000000002  4.4861750000000002  1.6431782343000001
  4.4861750000000002  7.3291717657000000  4.4861750000000002
  7.3291717657000000  4.4861750000000002  4.4861750000000002
  0.0000000000000000  0.0000000000000000  0.0000000000000000
