Eu Hf O 
 1.0000000000000000
     4.0976830000000000   -0.0000180000000000    0.0000230000000000
    -0.0000180000000000    4.0976629999999998    0.0000360000000000
     0.0000230000000000    0.0000360000000000    4.0977139999999999
 Eu  Hf  O  
   1   1   3
Cartesian
  4.0976609023809996  4.0976409024270000  0.0000671953690000
  2.0488439999819996  2.0488445976629999  2.0488865000360001
  4.0976814022759998  2.0488355976450001  2.0488939022990000
  2.0488570976829998  0.0000089999820000  2.0488685000230000
  2.0488365977009999  2.0488184023190001  0.0000294999870000
