Ba Nd Sb O 
 1.0000000000000000
     5.2876459999999996   -3.0710999999999999    0.0000000000000000
     5.2876459999999996    3.0710999999999999    0.0000000000000000
     3.5039300000000000    0.0000000000000000    5.0113200000000004
 Ba  Nd  Sb  O  
   2   1   1   6
Cartesian
 10.5461820313199990  0.0000000000000001  3.7537793592000002
  3.5330399686799998 -0.0000000000000000  1.2575406408000001
  0.0000000000000000  0.0000000000000000  0.0000000000000000
  7.0396109999999998  0.0000000000000000  2.5056600000000002
  7.7925387330420000  1.2977424425999997  3.8638028898000005
  7.9322589910379993 -1.5383047767000000  3.4712611828800002
  8.6859967262940003  0.2405623341000003  1.3536477357600003
  6.2866832669579997 -1.2977424425999999  1.1475171102000001
  5.3932252737059994 -0.2405623340999999  3.6576722642400004
  6.1469630089619995  1.5383047767000000  1.5400588171200000
