Li Al Ir
 1.0000000000000000
     6.0454270000000001    0.0000000000000000    0.0000000000000000
     0.0000000000000000    6.0454270000000001    0.0000000000000000
     0.0000000000000000    0.0000000000000000    6.0454270000000001
 Li  Al  Ir 
   4   8   4
Cartesian
  0.0000000000000000  0.0000000000000000  3.0227135000000001
  0.0000000000000000  3.0227135000000001  0.0000000000000000
  3.0227135000000001  0.0000000000000000  0.0000000000000000
  3.0227135000000001  3.0227135000000001  3.0227135000000001
  1.5113567500000000  4.5340702500000001  4.5340702500000001
  4.5340702500000001  1.5113567500000000  1.5113567500000000
  1.5113567500000000  1.5113567500000000  1.5113567500000000
  4.5340702500000001  4.5340702500000001  4.5340702500000001
  4.5340702500000001  4.5340702500000001  1.5113567500000000
  1.5113567500000000  1.5113567500000000  4.5340702500000001
  4.5340702500000001  1.5113567500000000  4.5340702500000001
  1.5113567500000000  4.5340702500000001  1.5113567500000000
  0.0000000000000000  0.0000000000000000  0.0000000000000000
  0.0000000000000000  3.0227135000000001  3.0227135000000001
  3.0227135000000001  0.0000000000000000  3.0227135000000001
  3.0227135000000001  3.0227135000000001  0.0000000000000000
