Li Tm Al
 1.0000000000000000
     0.0000000000000000    3.5823220000000000    3.5823220000000000
     3.5823220000000000    0.0000000000000000    3.5823220000000000
     3.5823220000000000    3.5823220000000000    0.0000000000000000
 Li  Tm  Al 
   1   2   1
Cartesian
  5.3734830000000002  5.3734830000000002  5.3734830000000002
  0.0000000000000000  0.0000000000000000  0.0000000000000000
  3.5823220000000000  3.5823220000000000  3.5823220000000000
  1.7911610000000000  1.7911610000000000  1.7911610000000000
