Bi Br
 1.0000000000000000
    12.7957570000000000    0.0000000000000000    0.0000000000000000
     0.0000000000000000    7.4002879999999998   -0.0247250000000000
     0.0000000000000000    2.3755780000000000    7.2946260000000001
 Bi  Br 
   4  12
Cartesian
  4.2645059141749995  3.6766127242000000 -0.0011547739510000
 10.6623844141749995  2.3991092757999999  7.2834182739509998
  2.1333725858250001  7.3767567241999998 -0.0135172739510000
  8.5312510858249997  6.0992532757999998  7.2710557739510007
  2.3152770673370000  2.3425691365739998  1.6863313803200000
  6.4158309470710009  2.6814036911880001  1.6753189371170001
  4.1070285327759999  3.6742802711280000  5.6333353766250003
 10.5049070327759999  2.4014417288719998  1.6489281233749999
  0.0179524470710000  3.3943183088120001  5.6069445628830001
  4.0826014326630000  6.0427131365739992  1.6739688803200001
  8.7131555673370009  3.7331528634260001  5.5959321196800005
 12.7778045529290001  6.3815476911879996  1.6629564371170000
  2.2908499672240001  7.3744242711279995  5.6209728766250002
  8.6887284672239993  6.1015857288720001  1.6365656233749999
  6.3799260529290001  7.0944623088120000  5.5945820628830001
 10.4804799326630000  7.4332968634260004  5.5835696196800004
