Mg Fe Rh
 1.0000000000000000
     0.0000020000000000    3.0278559999999999    3.0278559999999999
     3.0278559999999999    0.0000020000000000    3.0278559999999999
     3.0278559999999999    3.0278559999999999    0.0000020000000000
 Mg  Fe  Rh 
   1   1   2
Cartesian
  4.5417915557140001  4.5417915557140001  4.5417915557140001
  1.5139285000000000  1.5139285000000000  1.5139285000000000
  0.0000030278580000  0.0000030278580000  0.0000060557120000
  3.0278509442860000  3.0278509442860000  3.0278509442860000
