Al C 
 1.0000000000000000
     3.2630919999999999   -0.0036170000000000    7.8760230000000000
     1.5640350000000001    2.8638400000000002    7.8760230000000000
    -0.0061030000000000   -0.0036170000000000    8.5252250000000007
 Al  C  
   4   3
Cartesian
  4.1937027150719999  2.4848987140680001 21.1182639429380004
  0.6273212849280000  0.3717072859320000  3.1590070570619999
  3.4059907826879998  2.0181550031220001 17.1515763569769994
  1.4150332173119999  0.8384509968780001  7.1256946430230013
  3.7761875736000001  2.2375080646500001 19.0157794425250017
  1.0448364264000001  0.6190979353500000  5.2614915574750007
  0.0000000000000000  0.0000000000000000  0.0000000000000000
