Na In O 
 1.0000000000000000
     3.1039740000000000   -0.0068080000000000    4.8290559999999996
     1.4130460000000000    2.7636940000000001    4.8290559999999996
    -0.0111550000000000   -0.0068080000000000    5.7405850000000003
 Na  In  O  
   1   1   2
Cartesian
  2.2529325000000004  1.3750390000000001  7.6993484999999993
  0.0000000000000000  0.0000000000000000  0.0000000000000000
  3.3273334799250005  2.0307813487100002 11.3710908061650002
  1.1785315200749999  0.7192966512900000  4.0276061938349992
