Zr Ge Te
 1.0000000000000000
     4.0308859999999997   -0.0000000000000000    0.0000000000000000
    -2.0154440000000000    8.3510340000000003    0.0000000000000000
     0.0000000000000000    0.0000000000000000   11.1486959999999993
 Zr  Ge  Te 
   2   2   8
Cartesian
  2.0154426906679999  2.5832420492880002  8.0896833454319985
 -0.0000006906680001  5.7677919507119997  2.5153353454319998
  2.0154424573759999  4.5314714732160004  5.9614418738159998
 -0.0000004573760000  3.8195625267840003  0.3870938738160000
  2.0154440642559996  7.9433949773580004  2.8614912075359999
 -0.0000020642560000  0.4076390226420000  8.4358392075359987
  2.0154381747919996  6.6334100289480000  0.4601624274000000
  0.0000038252080000  1.7176239710520000  6.0345104273999990
  2.0154445666319996  3.7480359205740004  3.3766724496959997
 -0.0000025666320002  4.6029980794260004  8.9510204496959993
  0.0000012636100000  6.2785829453220003  5.5726311008159994
  2.0154407363900004  2.0724510546779999 11.1469791008159991
