Tb Cu
 1.0000000000000000
     4.9856449999999999   -0.0000000000000000    0.0000000000000000
    -2.4928240000000002    4.3176969999999999    0.0000000000000000
     0.0000000000000000    0.0000000000000000    4.0520319999999996
 Tb  Cu 
   1   5
Cartesian
  0.0000000000000000  0.0000000000000000  0.0000000000000000
 -1.2464120000000001  2.1588484999999999  2.0260159999999998
 -0.0000034928230001  2.8784661058989998  0.0000000000000000
  2.4928244928229999  1.4392308941009999  0.0000000000000000
  2.4928224999999999  0.0000000000000000  2.0260159999999998
  1.2464104999999999  2.1588484999999999  2.0260159999999998
