Mn Sb Pt
 1.0000000000000000
     6.2339460000000004    0.0000000000000000    0.0000000000000000
     0.0000000000000000    6.2339460000000004    0.0000000000000000
     0.0000000000000000    0.0000000000000000    6.2339460000000004
 Mn  Sb  Pt 
   4   4   4
Cartesian
  0.0000000000000000  0.0000000000000000  3.1169730000000002
  0.0000000000000000  3.1169730000000002  0.0000000000000000
  3.1169730000000002  0.0000000000000000  0.0000000000000000
  3.1169730000000002  3.1169730000000002  3.1169730000000002
  0.0000000000000000  0.0000000000000000  0.0000000000000000
  0.0000000000000000  3.1169730000000002  3.1169730000000002
  3.1169730000000002  0.0000000000000000  3.1169730000000002
  3.1169730000000002  3.1169730000000002  0.0000000000000000
  1.5584865000000001  4.6754595000000005  4.6754595000000005
  1.5584865000000001  1.5584865000000001  1.5584865000000001
  4.6754595000000005  4.6754595000000005  1.5584865000000001
  4.6754595000000005  1.5584865000000001  4.6754595000000005
