Ti Fe Si
 1.0000000000000000
     6.2620760000000004    0.0000000000000000    0.0000000000000000
     0.0000000000000000    6.9363440000000001    0.0000000000000000
     0.0000000000000000    0.0000000000000000   10.7533069999999995
 Ti  Fe  Si 
  12  12  12
Cartesian
  5.7343207588720002  1.7340860000000000 10.7181436861100003
  1.6634829169440000  5.2022580000000005  2.4285053462659998
  1.6634829169440000  1.7340860000000000  8.3248016537339993
  1.8741829881159999  1.7340860000000000  2.1060566825639997
  5.7343207588720002  5.2022580000000005  0.0351633138900000
  1.8741829881159999  5.2022580000000005  8.6472503174359989
  2.6032827588720000  5.2022580000000005  5.3414901861099997
  4.7945209169440002  1.7340860000000000  7.8051588462659991
  4.7945209169440002  5.2022580000000005  2.9481481537340000
  5.0052209881160001  5.2022580000000005  7.4827101825640003
  2.6032827588720000  1.7340860000000000  5.4118168138899998
  5.0052209881160001  1.7340860000000000  3.2705968174359996
  1.5732777121640000  3.4681720000000000  0.0000000000000000
  1.5732777121640000  0.0000000000000000  0.0000000000000000
  3.8899577766680000  6.7028042338640006  9.4266392554890004
  3.8899577766680000  3.2346322338640001  1.3266677445110000
  3.8899577766680000  3.7017117661359995  9.4266392554890004
  3.8899577766680000  0.2335397661360000  1.3266677445110000
  4.7043157121640000  0.0000000000000000  5.3766534999999998
  4.7043157121640000  3.4681720000000000  5.3766534999999998
  0.7589197766680000  3.2346322338640001  4.0499857554889998
  0.7589197766680000  6.7028042338640006  6.7033212445109989
  0.7589197766680000  0.2335397661360000  4.0499857554889998
  0.7589197766680000  3.7017117661359995  6.7033212445109989
  3.1720671219520002  5.2022580000000005  0.3201044427760000
  6.2315922140320001  0.0566699304800000  1.8010713894299999
  6.2315922140320001  3.4115020695200000  1.8010713894299999
  6.2315922140320001  3.5248419304800001  8.9522356105699998
  3.1720671219520002  1.7340860000000000 10.4332025572239999
  6.2315922140320001  6.8796740695200000  8.9522356105699998
  0.0410291219520000  1.7340860000000000  5.6967579427760002
  3.1005542140320004  3.5248419304800001  7.1777248894300003
  3.1005542140320004  6.8796740695200000  7.1777248894300003
  3.1005542140320004  0.0566699304800000  3.5755821105699996
  0.0410291219520000  5.2022580000000005  5.0565490572239993
  3.1005542140320004  3.4115020695200000  3.5755821105699996
