Ta Se
 1.0000000000000000
     3.3825880000000002    0.0000000000000000    0.0000000000000000
     0.0000000000000000    3.3825880000000002    0.0000000000000000
     0.0000000000000000    0.0000000000000000   10.2373419999999999
 Ta  Se 
   4   2
Cartesian
  0.8456470000000000  0.8456470000000000  7.8503419152280003
  2.5369410000000001  2.5369410000000001  2.3870000847720001
  2.5369410000000001  2.5369410000000001  9.4762877583779996
  0.8456470000000000  0.8456470000000000  0.7610542416220001
  2.5369410000000001  2.5369410000000001  6.6318115716520003
  0.8456470000000000  0.8456470000000000  3.6055304283480001
