Al Pd
 1.0000000000000000
     7.8976970000000000   -4.5597380000000003    1.7724139999999999
     0.0000000000000000    9.1194740000000003    1.7724139999999999
    -7.8976970000000000   -4.5597380000000003    1.7724139999999999
 Al  Pd 
  13  13
Cartesian
 -0.3320823634560000  2.4601421061520004  0.8925664214319999
  3.5007963537960003  3.4364815183239994  2.6608577864679996
  1.2256830859149999 -4.7500207328320005  2.6608577864680001
 -3.5007963537960003 -3.4364835183240001  2.6563842135320002
 -1.2256830859150001  4.7500187328320003  2.6563842135319997
 -1.9645047425680002 -1.5176633097520003  0.8925664214320000
 -2.2965871060240008  0.9424778035759989  4.4246755785679994
  4.7264794397109995 -1.3135382119840000  2.6563842135319997
  1.9645047425679996  1.5176613097520000  4.4246755785679994
 -4.7264794397109995  1.3135362119839997  2.6608577864680001
  2.2965871060240000 -0.9424798035760003  0.8925664214320000
  0.0000000000000000 -0.0000010000000001  2.6586210000000001
  0.3320823634560008 -2.4601441061520006  4.4246755785680003
  2.2795833643829995 -0.9320162031140009  3.5424618273100004
 -2.2795833643829999  0.9320142031140000  1.7747801726899999
  1.2086003673040000  4.3827641391640002  1.7780538213479999
 -3.1912856083659995  3.2380596581560002  3.5391881786520001
  3.1912856083659995 -3.2380616581560000  1.7780538213479999
 -1.2086003673040004 -4.3827661391639996  3.5391881786519996
  0.3326430999430000 -2.4401851391260001  1.7747801726899999
  1.9469402644399998  1.5081689333420001  1.7747801726899999
 -4.3998859756700002 -1.1447044873720000  1.7780538213479999
  4.3998859756699993  1.1447024873719993  3.5391881786520001
 -1.9469402644400005 -1.5081709333419995  3.5424618273099999
  0.0000000000000000  0.0000000000000000  0.0000000000000000
 -0.3326430999429996  2.4401831391260003  3.5424618273099999
