Ta Mo Os
 1.0000000000000000
     0.0000000000000000    3.1935820000000001    3.1935820000000001
     3.1935820000000001    0.0000000000000000    3.1935820000000001
     3.1935820000000001    3.1935820000000001    0.0000000000000000
 Ta  Mo  Os 
   2   1   1
Cartesian
  0.0000000000000000  0.0000000000000000  0.0000000000000000
  3.1935883871640005  3.1935883871640005  3.1935883871640005
  1.5967910000000001  1.5967910000000001  1.5967910000000001
  4.7903730000000007  4.7903730000000007  4.7903730000000007
