Tl Cl O 
 1.0000000000000000
     4.6116180000000000    0.0000000000000000    2.6625179999999999
     1.5372049999999999    4.3478740000000000    2.6625179999999999
     0.0000000000000000    0.0000000000000000    5.3250370000000000
 Tl  Cl  O  
   1   1   4
Cartesian
  3.0744115000000001  2.1739370000000000  5.3250364999999995
  0.0000000000000000  0.0000000000000000  0.0000000000000000
  1.5372037960950000  2.8987232479260001  2.6625154485820004
  3.2453445844819999  0.4830488014000000  2.6625154485820004
  0.6831342352999999  0.4830488014000000  1.1832231103000002
  0.6831342352999999  0.4830488014000000  4.1418083424630003
