Ge Pd S 
 1.0000000000000000
     3.4715150000000001    0.0000000000000000    0.0000000000000000
    -1.7357579999999999    7.0661160000000001   -2.1305010000000002
     0.0000000000000000   -0.0703470000000000    9.3209780000000002
 Ge  Pd  S  
   2   2   6
Cartesian
 -0.0000018198670000  1.1675011320750002  2.4444925837270000
  1.7357588198670002  5.8282678679249997  4.7459844162730001
 -0.0000021257829999  5.5098805182540005 -1.3902302107630002
  1.7357591257830003  1.4858884817460001  8.5807072107630002
  1.7357591082190003  1.7702995512360000  3.7103542843269999
 -0.0000021082189999  5.2254694487640005  3.4801227156730001
 -0.0000019068399999  2.4078955159680002  0.5803908308629998
  1.7357589068400001  4.5878734840319995  6.6100861691369994
  1.7357570738550003  6.0079573933529993  0.0951915332480000
 -0.0000000738550000  0.9878116066470000  7.0952854667520002
