Zn Te
 1.0000000000000000
     6.1886890000000001    0.0000000000000000    0.0000000000000000
     0.0000000000000000    6.1886890000000001    0.0000000000000000
     0.0000000000000000    0.0000000000000000    6.1886890000000001
 Zn  Te 
   4   4
Cartesian
  0.0000000000000000  0.0000000000000000  0.0000000000000000
  0.0000000000000000  3.0943445000000001  3.0943445000000001
  3.0943445000000001  0.0000000000000000  3.0943445000000001
  3.0943445000000001  3.0943445000000001  0.0000000000000000
  1.5471722500000000  1.5471722500000000  4.6415167500000001
  1.5471722500000000  4.6415167500000001  1.5471722500000000
  4.6415167500000001  1.5471722500000000  1.5471722500000000
  4.6415167500000001  4.6415167500000001  4.6415167500000001
