Ca Cd
 1.0000000000000000
     3.8532999999999999    0.0000000000000000    0.0000000000000000
     0.0000000000000000    3.8532999999999999    0.0000000000000000
     0.0000000000000000    0.0000000000000000    3.8532999999999999
 Ca  Cd 
   1   1
Cartesian
  0.0000000000000000  0.0000000000000000  0.0000000000000000
  1.9266500000000000  1.9266500000000000  1.9266500000000000
