Li Ru N 
 1.0000000000000000
     2.9531410000000000    0.0000000000000000    0.0000000000000000
     0.0000000000000000    4.7476310000000002    0.0000000000000000
     0.0000000000000000    0.0000000000000000    9.7259689999999992
 Li  Ru  N  
   4   4   4
Cartesian
  0.7382852500000000  3.4596319431170000  4.7590430692969994
  0.7382852500000000  3.6618145568830003  9.6220275692969999
  2.2148557499999999  1.2879990568830000  4.9669259307029998
  2.2148557499999999  1.0858164431170001  0.1039414307030000
  0.7382852500000000  2.1914637409209998  7.2394374914289994
  0.7382852500000000  0.1823517590790000  2.3764529914289998
  2.2148557499999999  2.5561672590790003  2.4865315085710002
  2.2148557499999999  4.5652792409209999  7.3495160085709994
  0.7382852500000000  0.6588524920250001  8.4084406094149990
  0.7382852500000000  1.7149630079750002  3.5454561094149999
  2.2148557499999999  4.0887785079750003  1.3175283905849999
  2.2148557499999999  3.0326679920249999  6.1805128905849989
