Nb Cr Si
 1.0000000000000000
     6.6514730000000002    0.0000000000000000    0.0000000000000000
    -3.3257370000000002    5.7603450000000000    0.0000000000000000
     0.0000000000000000    0.0000000000000000    3.3245960000000001
 Nb  Cr  Si 
   3   3   3
Cartesian
 -1.9795418514030003  3.4286667905550003  1.6622980000000001
  3.9590831075870003  0.0000000000000000  1.6622980000000001
  1.3461947438160002  2.3316782094450001  1.6622980000000001
  2.4833104425200001  4.3012208097749998  0.0000000000000000
  1.6848513682650001  0.0000000000000000  0.0000000000000000
 -0.8424258107850000  1.4591241902250001  0.0000000000000000
  0.0000000000000000  0.0000000000000000  1.6622980000000001
  3.3257396590700004  1.9201130798849999  0.0000000000000000
 -0.0000036590700004  3.8402319201149999  0.0000000000000000
