K  Co As
 1.0000000000000000
     3.6113149999999998    0.0000000000000000   -0.9723880000000000
    -0.2618260000000000    3.6018119999999998   -0.9723880000000000
     0.0329500000000000    0.0354320000000000    7.3145300000000004
 K   Co  As 
   1   2   2
Cartesian
  0.0000000000000000  0.0000000000000000  0.0000000000000000
  0.7229342500000000  2.7190750000000001  2.6848770000000002
  2.6595047500000000  0.9181689999999999  2.6848770000000002
  1.1835997084609999  1.2727622659880000  4.3957405649760011
  2.1988392915389996  2.3644817340119997  0.9740134350240002
