Sc Pd
 1.0000000000000000
     4.0161100000000003    0.0000000000000000    0.0000000000000000
     0.0000000000000000    4.0161100000000003    0.0000000000000000
     0.0000000000000000    0.0000000000000000    4.0161100000000003
 Sc  Pd 
   1   3
Cartesian
  0.0000000000000000  0.0000000000000000  0.0000000000000000
  2.0080550000000001  2.0080550000000001  0.0000000000000000
  2.0080550000000001  0.0000000000000000  2.0080550000000001
  0.0000000000000000  2.0080550000000001  2.0080550000000001
