Zr Te
 1.0000000000000000
     3.8077510000000001   -0.0000010000000000    0.0000000000000000
    -1.9038770000000000    3.2976079999999999    0.0000000000000000
     0.0000000000000000    0.0000000000000000    3.8668309999999999
 Zr  Te 
   1   1
Cartesian
  3.8077510000000001 -0.0000010000000000  0.0000000000000000
 -0.0000029038760000  2.1984060992029999  1.9334155000000000
