Hf Sn C 
 1.0000000000000000
     3.3389460000000000    0.0000000000000000    0.0000000000000000
    -1.6694730000000000    2.8916119999999998    0.0000000000000000
     0.0000000000000000    0.0000000000000000   14.5269420000000000
 Hf  Sn  C  
   4   2   2
Cartesian
 -0.0000016694730000  1.9277422972039999  1.2268728866100000
  1.6694746694730003  0.9638697027959999  8.4903438866099989
  1.6694746694730003  0.9638697027959999 13.3000691133900002
 -0.0000016694730000  1.9277422972039999  6.0365981133900002
 -0.0000016694730000  1.9277422972039999 10.8952065000000005
  1.6694746694730003  0.9638697027959999  3.6317355000000000
  0.0000000000000000  0.0000000000000000  0.0000000000000000
  0.0000000000000000  0.0000000000000000  7.2634710000000000
