Ca Si
 1.0000000000000000
     4.5505310000000003    0.0000000000000000    0.0000000000000000
     0.0000000000000000   10.7377570000000002    0.0000000000000000
     0.0000000000000000    0.0000000000000000    3.8997899999999999
 Ca  Si 
   4   4
Cartesian
  0.0000000000000000  9.2457564026070003  0.9749475000000000
  0.0000000000000000  1.4920005973929999  2.9248425000000000
  2.2752655000000002  3.8768779026070002  0.9749475000000000
  2.2752655000000002  6.8608790973930001  2.9248425000000000
  2.2752655000000002  0.7407871176730000  0.9749475000000000
  2.2752655000000002  9.9969698823270008  2.9248425000000000
  0.0000000000000000  6.1096656176729995  0.9749475000000000
  0.0000000000000000  4.6280913823269998  2.9248425000000000
