Mg B 
 1.0000000000000000
     0.0000000000000000   -5.9584859999999997   -0.0003950000000000
     5.2189759999999996    2.9795090000000002    4.0504819999999997
    -5.2189759999999996    2.9795090000000002    4.0504819999999997
 Mg  B  
   4  28
Cartesian
  0.0000000000000000  0.0000000000000000  0.0000000000000000
  0.0000000000000000 -2.9792429999999999 -0.0001975000000000
  0.0000000000000002  1.4975366982400002  3.1203007302569996
  0.0000000000000001 -1.4970046982399996  4.9802682697429992
  1.1364528999039998 -4.4689002242839999  1.0888414460779998
  1.7949937295360001 -0.0184693248519998  1.6632724000219998
  1.7953225250239999 -2.9604449829429997  1.6629437111609997
  3.4705877261440001 -1.4893292411299999  3.4520154376779999
  0.8742985164479998 -1.4893533556069993  2.2229201573449999
  1.9442303482559999 -0.5615492065489995  3.3472758310980000
  1.9444495452480000 -2.4168966384269992  3.3468531153400001
  3.4705877261439997  1.4898612411300005  4.6485535623220002
 -1.1364528999039998 -4.4689002242839999  1.0888414460779998
 -0.8742985164479997 -1.4893533556069993  2.2229201573449999
 -1.7949937295359999 -0.0184693248519998  1.6632724000220001
 -1.7953225250239999 -2.9604449829429993  1.6629437111609999
  1.9444495452479995  2.4174286384270003  4.7537158846599992
  1.9442303482559999  0.5620812065490004  4.7532931689019993
 -1.9442303482559999 -0.5615492065489993  3.3472758310980000
 -1.9444495452480000 -2.4168966384269988  3.3468531153399996
  1.7953225250239997  2.9609769829430004  6.4376252888389995
  1.7949937295360001  0.0190013248520011  6.4372965999779996
  0.8742985164479994  1.4898853556070006  5.8776488426549998
  1.1364528999040002  4.4694322242840006  7.0117275539219994
 -3.4705877261440001 -1.4893292411299999  3.4520154376779999
 -1.9444495452480000  2.4174286384270003  4.7537158846600001
 -1.9442303482559999  0.5620812065490004  4.7532931689019993
 -0.8742985164479998  1.4898853556070004  5.8776488426549998
 -3.4705877261440001  1.4898612411300007  4.6485535623220002
 -1.7953225250239997  2.9609769829430004  6.4376252888389995
 -1.7949937295359999  0.0190013248520010  6.4372965999779996
 -1.1364528999039998  4.4694322242840006  7.0117275539219994
