Sc Al Ag
 1.0000000000000000
     4.0177980000000000    0.0000000000000000    2.3196759999999998
     1.3392660000000001    3.7880159999999998    2.3196759999999998
    -0.0000000000000000   -0.0000000000000000    4.6393540000000000
 Sc  Al  Ag 
   1   1   2
Cartesian
  2.6785320000000001  1.8940079999999999  4.6393529999999998
  0.0000000000000000  0.0000000000000000  0.0000000000000000
  4.0177980000000000  2.8410120000000001  6.9590294999999998
  1.3392660000000001  0.9470040000000000  2.3196764999999999
