Sc As O 
 1.0000000000000000
     5.4221899999999996   -0.0050040000000000   -1.6606220000000000
    -2.9671340000000002    4.5383839999999998   -1.6605250000000000
     0.0026250000000000    0.0049790000000000    5.6708119999999997
 Sc  As  O  
   2   2   8
Cartesian
 -1.9178101885630001  3.9716689878389997 -0.2427858442520001
  4.3754754366959991  0.5666809603880000  2.5924664786019997
  0.1809197530999995  2.8384610893540003  2.5924903180869996
  2.2766267717649993  1.6998299054170001 -0.2428533551140000
 -0.8249370093140004  2.8527523623980002  3.9532585718419995
  0.2828762879139998  1.1549339562020000  2.4546464022380001
  0.8113043597250001  0.8654660018789999 -0.3807669433180000
  3.2826243582009993  1.6856383962069998 -1.6035964861909999
  2.8384702950229999  0.8655155938690000  1.1177096605909995
  1.6464337423499995  3.6729383367500001  2.7304284637999996
  2.1748288480269995  3.3834295422250000 -0.1050083783090001
 -0.3807217421870003  3.6728479392109996  1.2320001405420000
