La H 
 1.0000000000000000
     2.7864789999999999    2.7864789999999999    0.0000000000000000
     2.7864789999999999    0.0000000000000000   -2.7864789999999999
     0.0000000000000000    2.7864789999999999   -2.7864789999999999
 La  H  
   1   3
Cartesian
  0.0000000000000000  0.0000000000000000  0.0000000000000000
  2.7864789999999999  2.7864789999999999 -2.7864789999999999
  1.3932395000000000  1.3932395000000000 -1.3932395000000000
  4.1797184999999999  4.1797184999999999 -4.1797184999999999
