Hf Mn Rh
 1.0000000000000000
     0.0003500000000000    3.1498539999999999    3.1493479999999998
     3.1472660000000001    0.0005150000000000    3.1491829999999998
     3.1472929999999999    3.1497139999999999    0.0004890000000000
 Hf  Mn  Rh 
   1   1   2
Cartesian
  1.5737303972659999  1.5750207505150000  1.5747581491829998
  4.7211817503229998  4.7250622506550002  4.7242712980419999
  0.0000220362200000  0.0000598482110000  0.0000566897250000
  3.1474356110999997  3.1499879507020001  3.1494501620699999
