Li Mg Bi
 1.0000000000000000
     4.1523740000000000    0.0000000000000000    2.3973740000000001
     1.3841239999999999    3.9148960000000002    2.3973740000000001
     0.0000000000000000    0.0000000000000000    4.7947490000000004
 Li  Mg  Bi 
   1   1   1
Cartesian
  0.0000000000000000  0.0000000000000000  0.0000000000000000
  2.7682490000000000  1.9574480000000001  4.7947485000000007
  1.3841245000000000  0.9787240000000000  2.3973742500000004
