Ba Ge Rh
 1.0000000000000000
     3.9674440000000000    0.0002670000000000   -1.3315729999999999
    -0.4466590000000000    3.9422210000000000   -1.3315729999999999
     0.0873650000000000    0.0978300000000000    6.8363649999999998
 Ba  Ge  Rh 
   1   2   2
Cartesian
  0.0000000000000000  0.0000000000000000  0.0000000000000000
  2.3138331318099996  2.5909733859699999  0.3130736972850001
  1.2943203889749999  1.4493485565180000  3.8601426395689997
  0.7010127308150002  3.0052335948300000  2.0866094999999998
  2.9071372691849997  1.0350844051700001  2.0866094999999998
