Ba Ir F 
 1.0000000000000000
     4.9035950000000001   -0.0205840000000000   -0.6778220000000000
    -0.7755800000000000    4.8417070000000004   -0.6793100000000000
    -0.0178200000000000   -0.0192990000000000    4.9501939999999998
 Ba  Ir  F  
   1   1   6
Cartesian
  2.0550975000000000  2.4009119999999999  1.7965309999999999
  0.0000000000000000  0.0000000000000000  0.0000000000000000
  3.0762667962350001  3.3510418078250002 -0.6170651992520000
  1.0339282037649997  1.4507821921750002  4.2101271992519997
  4.3426200505950003  1.2453803342909999  0.6997317168519999
  0.7683658988299999  4.4827660301420007  0.4619196824999998
 -0.2324250505950000  3.5564436657090002  2.8933302831479999
  3.3418291011700001  0.3190579698580001  3.1311423174999997
