Hf Tc Rh
 1.0000000000000000
    -0.0000110000000000    3.2394520000000000    3.2408060000000001
     3.2393500000000000   -0.0002190000000000    3.2410630000000000
     3.2383829999999998    3.2392259999999999    0.0002390000000000
 Hf  Tc  Rh 
   2   1   1
Cartesian
  3.2401109716110001  0.0007171481680000  3.2409139781890000
  3.2381162212820001  3.2383030690650001  3.2412030230240001
  4.8582785445010002  4.8588474903420007  4.8615842398139995
  1.6194434564439997  1.6196147491169999  1.6205334826219999
