Cd C  N 
 1.0000000000000000
     3.3419420000000000   -0.0053940000000000    4.0825920000000000
     1.4541340000000000    3.0090029999999999    4.0825920000000000
    -0.0086140000000000   -0.0053940000000000    5.2759900000000002
 Cd  C   N  
   1   1   2
Cartesian
  0.0000000000000000  0.0000000000000000  0.0000000000000000
  2.3937310000000003  1.4991075000000000  6.7205870000000001
  2.7976348065540000  1.7520579049050000  7.8545785268580000
  1.9898271934459999  1.2461570950949998  5.5865954731420002
