Nb Zn
 1.0000000000000000
     5.0713520000000001    0.0000000000000000    0.0000000000000000
    -2.5356760000000000    4.3919189999999997    0.0000000000000000
     0.0000000000000000    0.0000000000000000   16.3809269999999998
 Nb  Zn 
   8  16
Cartesian
  2.5356785356760003  1.4639715360269998  5.6206728150209999
 -0.0000025356760001  2.9279474639729997 13.8111363150209989
 -0.0000025356760001  2.9279474639729997 10.7602541849790008
  2.5356785356760003  1.4639715360269998  2.5697906849790000
  0.0000000000000000  0.0000000000000000  9.6759514840679994
  0.0000000000000000  0.0000000000000000  1.4854879840680000
  0.0000000000000000  0.0000000000000000  6.7049755159320004
  0.0000000000000000  0.0000000000000000 14.8954390159320003
 -0.0000000000000000  1.4097357282959999  4.0952317499999999
  1.2208671377759999  0.7048678641480000 12.2856952499999998
  3.8504848622240000  0.7048678641480000 12.2856952499999998
 -1.3148088622240002  3.6870511358519997  4.0952317499999999
  1.3148088622240000  3.6870511358519997  4.0952317499999999
  2.5356760000000000  2.9821832717039998 12.2856952499999998
  2.5356760000000000  0.0000000000000000  8.1904634999999999
 -1.2678380000000000  2.1959594999999998  0.0000000000000000
  2.5356785356760003  1.4639715360269998 14.3025968868750013
 -0.0000025356760001  2.9279474639729997  6.1121333868749996
 -0.0000025356760001  2.9279474639729997  2.0783301131249998
  2.5356785356760003  1.4639715360269998 10.2687936131249984
  2.5356760000000000  0.0000000000000000  0.0000000000000000
 -1.2678380000000000  2.1959594999999998  8.1904634999999999
  1.2678380000000000  2.1959594999999998  8.1904634999999999
  1.2678380000000000  2.1959594999999998  0.0000000000000000
