Cs Ti O 
 1.0000000000000000
    -5.1492370000000003    5.1493390000000003    4.4499890000000004
     5.1492180000000003   -5.1493490000000000    4.4499810000000002
     5.1492829999999996    5.1493430000000000   -4.4500019999999996
 Cs  Ti  O  
   2  12  24
Cartesian
 -0.0000185829430005  0.0000186762830006  6.2926570387030010
  0.0000356281700000  0.0000794598520001  2.6073174110720001
  3.5606173244730006  1.7106915445430002  4.4499800300030001
  1.6801706491989992  6.7146813903069997  1.4703298918120009
  6.8294000763479996  1.5653408437900003  2.9796317542300006
 -1.6800124944200006  3.5839818574360010  1.4703540454710002
  1.5655203161159994  3.4691634144750005  2.9796089349100008
  1.5886569737979999  3.4385899620410005 -0.0000120299589998
  3.5838621163240001  1.6800614493800006  1.4702834152400004
 -1.5653686061680001  6.8293831560160001  2.9797223272660003
  6.8600548796149994  1.5884544162720000 -0.0000159936479998
  3.4692169327400002 -1.5653689877329999  2.9796292079920002
 -1.7104973729209998  3.5607498500270003  4.4499884431970003
  6.7147458890479994 -1.6801531429919994  1.4703257723630001
  0.3783048280419996  6.8481289728879995 -0.0000183156969996
  8.1359847673579999  1.6421287543259999  1.4677287893210014
  3.0179183568509997  6.7559490817689998 -0.0000102319059994
  3.4198122536539999  0.3824328891100007  5.9403131201550003
  1.7293166513759997  4.7668607163430003  1.4904639824480004
  1.7293230151059997  4.7668434683590002 -1.4904741693859997
 -2.9865508419530000  3.5071990963190003  2.9821635605940005
 -0.3821787133370008  3.4199420211180005  2.9595746862030006
  4.7708252914909997 -1.6987856741280001  4.4499863159570010
  3.5068525342839996  2.9866844768339997  2.9822088265290008
  3.5423785704170001  3.0179649041540002  0.0000245669589999
 -1.6424386727780000  8.1360456265410015  1.4677538815810012
  1.6421282574519995  2.1628081527970004  1.4678526235320006
  6.7914040171669994 -2.9865581460169994  2.9821073191930005
  1.6065661774969997  2.1316873551840003  4.4499345333190004
  5.5315045045979998  1.7294012776380001  1.4902954139880003
  5.5314748229689998  1.7293994773430004 -1.4903267888570000
  2.9867694819499997  6.7914762019830004  2.9822184342580007
  3.4198083183320001  0.3824156408419998  2.9596330674720006
  3.4504217638189996  0.3784333585060001  0.0000102863810003
  1.6986620116179993  4.7707194146690011  4.4499532642290012
  2.1315619115590003 -1.6066366792690003  4.4499871314610004
  2.1626592938489999 -1.6421535008510000  1.4678296651489999
 -0.3821541814170004  3.4199283731880001  5.9403793384630008
