Ta Ni
 1.0000000000000000
     4.2325869999999997    0.0001080000000000    2.3459020000000002
     2.1162869999999998    4.3814240000000000    1.1731670000000001
    -0.0074880000000000    0.0002470000000000    5.0051800000000002
 Ta  Ni 
   4   2
Cartesian
  1.7296034967409999  2.1910589043309998  1.8703015808550001
  3.1710448405589995  3.5842834499529999  4.2620637399490002
  3.1703411594409996  0.7974955500470000  4.2621852600510000
  4.6117825032590005  2.1907200956690001  6.6539474191450001
  1.0506778639749998  0.0003134305930000  5.5916210118830003
  5.2907081360249997  4.3814655694069993  2.9326279881169999
