Mn Ga S 
 1.0000000000000000
     4.9311829999999999    0.0001740000000000   -2.3269790000000001
    -1.0980340000000000    4.8074899999999996   -2.3270070000000000
     0.0189970000000000    0.0239030000000000    6.4277949999999997
 Mn  Ga  S  
   1   2   4
Cartesian
  3.4337039514869998  1.2142529368449999  0.8866774841709999
  0.4187558656979999  3.6178684697829997  0.8870681877729998
  3.8517740819979998  4.8312675098569997  1.7737811356599995
  3.3975951817199999  4.1344306389119998 -2.5152464801190004
  2.9432551364770001  0.5982635430150000  3.1725610235059998
  0.0069373785680001  3.1017120731459995  3.0772755915069996
  1.3565744814829999  1.8284632377129997 -0.1868745146470000
