Ba B  Ir
 1.0000000000000000
     3.7504130000000000    0.0000000000000000   -1.2230310000000000
    -0.3988370000000000    3.7291449999999999   -1.2230310000000000
     0.0125520000000000    0.0139680000000000    6.4003119999999996
 Ba  B   Ir 
   1   2   2
Cartesian
  0.0000000000000000  0.0000000000000000  0.0000000000000000
  2.2918868651039999  2.5500781861130002  0.6662121178979998
  1.0722411348960001  1.1930348138870002  3.2880378821020000
  2.7193765000000001  0.9392702500000000  1.9771249999999998
  0.6447514999999999  2.8038427500000003  1.9771249999999998
