Ga
 1.0000000000000000
     2.8987579999999999    0.0000000000000000    0.0000000000000000
     0.0000000000000000    2.8987579999999999    0.0000000000000000
     0.0000000000000000    0.0000000000000000    4.5110239999999999
 Ga 
   2
Cartesian
  0.0000000000000000  0.0000000000000000  0.0000000000000000
  1.4493790000000000  1.4493790000000000  2.2555120000000000
