Ba Au
 1.0000000000000000
     5.8553769999999998   -0.0000000000000000    0.0000000000000000
    -2.9276900000000001    5.0709059999999999    0.0000000000000000
     0.0000000000000000    0.0000000000000000    4.5249509999999997
 Ba  Au 
   1   5
Cartesian
  0.0000000000000000  0.0000000000000000  0.0000000000000000
  2.9276909276890000  1.6903003096979998  0.0000000000000000
  2.9276884999999999  0.0000000000000000  2.2624754999999999
  1.4638434999999999  2.5354530000000000  2.2624754999999999
 -1.4638450000000001  2.5354530000000000  2.2624754999999999
 -0.0000039276890003  3.3806056903020001  0.0000000000000000
