Mg Ni P 
 1.0000000000000000
     4.1472049999999996   -0.0126170000000000    1.9428620000000001
     1.2302000000000000    3.9605649999999999    1.9428620000000001
    -0.0171850000000000   -0.0126170000000000    4.5797090000000003
 Mg  Ni  P  
   2   3   1
Cartesian
  2.0063464266599995  1.4730061992929999  3.1686369681990003
  3.3538682131199997  2.4623208653760003  5.2967875663680006
 -0.0085925000000000 -0.0063085000000000  2.2898545000000001
  0.6151000000000000  1.9802824999999999  0.9714310000000000
  2.0736024999999998 -0.0063085000000000  0.9714310000000000
  0.0000000000000000  0.0000000000000000  0.0000000000000000
