Th Cu
 1.0000000000000000
     4.3517250000000001    0.0000000000000000    0.0000000000000000
    -2.1758620000000000    3.7687040000000001    0.0000000000000000
     0.0000000000000000    0.0000000000000000    3.5078600000000000
 Th  Cu 
   1   2
Cartesian
  0.0000000000000000  0.0000000000000000  0.0000000000000000
 -0.0000018425289999  2.5124705895680002  1.7539300000000000
  2.1758648425290001  1.2562334104319999  1.7539300000000000
