Sm In N 
 1.0000000000000000
     4.9428590000000003    0.0000000000000000    0.0000000000000000
     0.0000000000000000    4.9428570000000001    0.0000000000000000
     0.0000000000000000    0.0000000000000000    4.9428570000000001
 Sm  In  N  
   3   1   1
Cartesian
  2.4714295000000002  2.4714285000000000  0.0000000000000000
  0.0000000000000000  2.4714285000000000  2.4714285000000000
  2.4714295000000002  0.0000000000000000  2.4714285000000000
  0.0000000000000000  0.0000000000000000  0.0000000000000000
  2.4714295000000002  2.4714285000000000  2.4714285000000000
