Nb Si Pt
 1.0000000000000000
     3.8588840000000002    0.0000000000000000    0.0000000000000000
     0.0000000000000000    6.4868389999999998    0.0000000000000000
     0.0000000000000000    0.0000000000000000    7.4315740000000003
 Nb  Si  Pt 
   4   4   4
Cartesian
  2.8941630000000003  3.0693581491130000  4.9421007520360005
  0.9647210000000001  0.1740613508870000  1.2263137520359999
  2.8941630000000003  6.3127776491129994  6.2052602479640004
  0.9647210000000001  3.4174808508869998  2.4894732479640003
  0.9647210000000001  1.7435715074540001  6.4974251481999996
  0.9647210000000001  4.9869910074539998  4.6499358518000005
  2.8941630000000003  4.7432674925459999  0.9341488518000001
  2.8941630000000003  1.4998479925460000  2.7816381482000003
  0.9647210000000001  4.2289584624309997  6.9459949548400006
  0.9647210000000001  0.9855389624310000  4.2013660451599995
  2.8941630000000003  5.5013000375690000  3.2302079548400000
  2.8941630000000003  2.2578805375690001  0.4855790451600000
