In As Pt
 1.0000000000000000
     4.0278530000000003    0.0000000000000000    0.0000000000000000
     0.0000000000000000    4.0278530000000003    0.0000000000000000
     0.0000000000000000    0.0000000000000000    7.1005919999999998
 In  As  Pt 
   1   1   5
Cartesian
  2.0139265000000002  2.0139265000000002  0.0000000000000000
  0.0000000000000000  0.0000000000000000  3.5502959999999999
  0.0000000000000000  2.0139265000000002  2.0290083651840001
  0.0000000000000000  2.0139265000000002  5.0715836348160002
  2.0139265000000002  0.0000000000000000  2.0290083651840001
  2.0139265000000002  0.0000000000000000  5.0715836348160002
  0.0000000000000000  0.0000000000000000  0.0000000000000000
