Ca Ni B 
 1.0000000000000000
     4.8020490000000002   -0.0074000000000000    5.9283149999999996
     2.0946300000000000    4.3211420000000000    5.9283149999999996
    -0.0118290000000000   -0.0074000000000000    7.6291840000000004
 Ca  Ni  B  
   3   7   2
Cartesian
  4.4408659469999998  2.7776767168400003 12.5687397462800003
  2.4439840530000003  1.5286652831600003  6.9170742537200001
  3.4424250000000005  2.1531710000000004  9.7429069999999989
  1.4891860218899999  2.4755327008900001  4.2147608396429996
  0.4089664627230000  0.2558000922440000  5.0869885741400003
  2.8775856815370000  0.2558000922440000  4.2147608396429996
  4.0072643184630001  4.0505419077560001 15.2710531603570008
  6.4758835372770003  4.0505419077560001 14.3988254258600001
  5.3956639781100009  1.8308092991099998 15.2710531603570008
  0.0000000000000000  0.0000000000000000  0.0000000000000000
  5.7177853068000006  3.5763653548960002 16.1827346972320001
  1.1670646931999999  0.7299766451040001  3.3030793027679999
