Ti Si Ni
 1.0000000000000000
     3.6432560000000000    0.0000000000000000    0.0000000000000000
     0.0000000000000000    6.1294919999999999    0.0000000000000000
     0.0000000000000000    0.0000000000000000    6.9679940000000000
 Ti  Si  Ni 
   4   4   4
Cartesian
  2.7324419999999998  5.9945634926040006  1.2622172731300001
  0.9108140000000000  0.1349285073960000  5.7057767268699999
  2.7324419999999998  2.9298174926040002  2.2217797268699999
  0.9108140000000000  3.1996745073959998  4.7462142731299997
  2.7324419999999998  1.4304150300720000  4.3322318136020002
  0.9108140000000000  4.6990769699279999  2.6357621863980003
  2.7324419999999998  4.4951610300719995  6.1197591863980003
  0.9108140000000000  1.6343309699280000  0.8482348136019999
  2.7324419999999998  5.2712405301600000  3.9022926478139994
  0.9108140000000000  0.8582514698400000  3.0657013521860002
  2.7324419999999998  2.2064945301600001  6.5496983521860006
  0.9108140000000000  3.9229974698400003  0.4182956478140000
