Ca Mg Hg
 1.0000000000000000
     0.0000000000000000    3.6020799999999999    3.6020799999999999
     3.6020799999999999    0.0000000000000000    3.6020799999999999
     3.6020799999999999    3.6020799999999999    0.0000000000000000
 Ca  Mg  Hg 
   1   1   2
Cartesian
  1.8010400000000000  1.8010400000000000  1.8010400000000000
  5.4031199999999995  5.4031199999999995  5.4031199999999995
  0.0000000000000000  0.0000000000000000  0.0000000000000000
  3.6020727958400003  3.6020727958400003  3.6020727958400003
