Ba Se
 1.0000000000000000
     4.0828360000000004    0.0000000000000000    2.3572259999999998
     1.3609460000000000    3.8493350000000000    2.3572259999999998
    -0.0000000000000000   -0.0000000000000000    4.7144539999999999
 Ba  Se 
   1   1
Cartesian
  0.0000000000000000  0.0000000000000000  0.0000000000000000
  2.7218910000000003  1.9246675000000000  4.7144529999999998
