Lu Co Ru
 1.0000000000000000
     0.0000000000000000    3.2687979999999999    3.2687979999999999
     3.2687979999999999    0.0000000000000000    3.2687979999999999
     3.2687979999999999    3.2687979999999999    0.0000000000000000
 Lu  Co  Ru 
   2   1   1
Cartesian
  0.0000000000000000  0.0000000000000000  0.0000000000000000
  3.2687979999999999  3.2687979999999999  3.2687979999999999
  1.6343924624039998  1.6343924624039998  1.6343924624039998
  4.9031969999999996  4.9031969999999996  4.9031969999999996
