Ca Zn Sb
 1.0000000000000000
     4.4928419999999996    0.0000000000000000    0.0000000000000000
    -2.2464200000000001    3.8909150000000001    0.0000000000000000
     0.0000000000000000    0.0000000000000000    7.4997769999999999
 Ca  Zn  Sb 
   1   2   2
Cartesian
  0.0000000000000000  0.0000000000000000  0.0000000000000000
 -0.0000015797540002  2.5939446303050002  4.7479663229369997
  2.2464235797540000  1.2969703696949999  2.7518106770629998
 -0.0000015797540002  2.5939446303050002  1.9280576707139998
  2.2464235797540000  1.2969703696949999  5.5717193292860001
