Sr F 
 1.0000000000000000
     5.8622199999999998    0.0000000000000000    0.0000000000000000
     0.0000000000000000    5.8622199999999998    0.0000000000000000
     0.0000000000000000    0.0000000000000000    5.8622199999999998
 Sr  F  
   4   8
Cartesian
  0.0000000000000000  0.0000000000000000  0.0000000000000000
  0.0000000000000000  2.9311099999999999  2.9311099999999999
  2.9311099999999999  0.0000000000000000  2.9311099999999999
  2.9311099999999999  2.9311099999999999  0.0000000000000000
  4.3966649999999996  1.4655549999999999  1.4655549999999999
  1.4655549999999999  4.3966649999999996  4.3966649999999996
  4.3966649999999996  4.3966649999999996  4.3966649999999996
  1.4655549999999999  1.4655549999999999  1.4655549999999999
  1.4655549999999999  1.4655549999999999  4.3966649999999996
  4.3966649999999996  4.3966649999999996  1.4655549999999999
  1.4655549999999999  4.3966649999999996  1.4655549999999999
  4.3966649999999996  1.4655549999999999  4.3966649999999996
