Al Ir
 1.0000000000000000
     3.0186970000000000    0.0000000000000000    0.0000000000000000
     0.0000000000000000    3.0186970000000000    0.0000000000000000
     0.0000000000000000    0.0000000000000000    3.0186970000000000
 Al  Ir 
   1   1
Cartesian
  0.0000000000000000  0.0000000000000000  0.0000000000000000
  1.5093485000000000  1.5093485000000000  1.5093485000000000
