Sr Ta Ga Si O 
 1.0000000000000000
     4.2060969999999998   -7.2851739999999996    0.0000000000000000
     4.2060969999999998    7.2851739999999996    0.0000000000000000
     0.0000000000000000    0.0000000000000000    5.1295029999999997
 Sr  Ta  Ga  Si  O  
   3   1   3   2  14
Cartesian
  4.8265047196939994 -0.0000000000000004  0.0000000000000000
  1.7928446401529998 -3.1052981323259998  0.0000000000000000
  1.7928446401529998  3.1052981323259998  0.0000000000000000
  0.0000000000000000  0.0000000000000000  0.0000000000000000
  2.1523523690339998  0.0000000000000000  2.5647514999999999
  3.1299208154829996  5.4211820951859995  2.5647514999999999
  3.1299208154829996 -5.4211820951859995  2.5647514999999999
  4.2060969999999998  2.4283961901159996  2.7456536823010000
  4.2060969999999998 -2.4283961901160001  2.3838493176990001
  1.3376271740369998  0.9127521652860000  1.1804114893659998
  6.9529180885289996  0.7020503628580009  1.1804114893659998
  4.3277457374340003  5.6703860422040000  1.1804114893659998
  6.9529180885289996 -0.7020503628580009  3.9490915106339997
  4.3277457374340003 -5.6703860422040000  3.9490915106339997
  1.3376271740369998 -0.9127521652860000  3.9490915106339997
  3.3077588027400000  1.2076341532839996  3.4363053547300000
  5.7124685795799994  2.2607789067240001  3.4363053547300000
  3.5980636176799998  3.8167463696439996  3.4363053547300000
  4.2060969999999998  2.4283961901159996  1.1345075670189999
  4.2060969999999998 -2.4283961901160001  3.9949954329809998
  3.3077588027400000 -1.2076341532839998  1.6931976452699999
  3.5980636176799998 -3.8167463696439996  1.6931976452699999
  5.7124685795799994 -2.2607789067239996  1.6931976452699999
