Na Bi O 
 1.0000000000000000
     4.9733929999999997   -0.0251730000000000    3.6827770000000002
     1.8415410000000001    4.6199430000000001    3.6827950000000000
    -0.0373480000000000   -0.0252040000000000    6.1883830000000000
 Na  Bi  O  
   2   2   6
Cartesian
  0.9393666420140000  0.6333372780340000  1.8785646090450001
  5.8382193579859996  3.9362287219660002 11.6753903909550001
  2.3280262375540000  1.5695956557740001  4.6556344489949995
  4.4495597624459995  2.9999703442260000  8.8983205510049999
  1.5722901394620001  3.2541484750980003  5.6728851793050001
  4.3648509372030002  2.1127027005450003  4.6613049737610002
  2.3749920575250005  0.2373331102470000  6.2885835682589999
  5.2052958605379995  1.3154175249019999  7.8810698206950001
  4.4025939424749989  4.3322328897530005  7.2653714317409994
  2.4127350627969997  2.4568632994550001  8.8926500262390000
