Sc Al C 
 1.0000000000000000
     4.5120459999999998    0.0000000000000000    0.0000000000000000
     0.0000000000000000    4.5120459999999998    0.0000000000000000
     0.0000000000000000    0.0000000000000000    4.5120459999999998
 Sc  Al  C  
   3   1   1
Cartesian
  0.0000000000000000  2.2560229999999999  2.2560229999999999
  2.2560229999999999  2.2560229999999999  0.0000000000000000
  2.2560229999999999  0.0000000000000000  2.2560229999999999
  0.0000000000000000  0.0000000000000000  0.0000000000000000
  2.2560229999999999  2.2560229999999999  2.2560229999999999
