Mn Ge
 1.0000000000000000
     0.0000000000000000    2.8824329999999998    2.8824329999999998
     2.8824329999999998    0.0000000000000000    2.8824329999999998
     2.8824329999999998    2.8824329999999998    0.0000000000000000
 Mn  Ge 
   3   1
Cartesian
  0.0000000000000000  0.0000000000000000  0.0000000000000000
  2.8824387648659999  2.8824387648659999  2.8824387648659999
  1.4412222648659998  1.4412222648659998  1.4412222648659998
  4.3236495000000001  4.3236495000000001  4.3236495000000001
