Ag Bi S  Cl
 1.0000000000000000
     4.0705419999999997    0.0000000000000000    0.0000000000000000
    -2.0352709999999998    7.0852009999999996    0.0000000000000000
     0.0000000000000000    0.0000000000000000    8.7045019999999997
 Ag  Bi  S   Cl 
   2   2   2   4
Cartesian
  0.0000000000000000  0.0000000000000000  4.3522509999999999
  0.0000000000000000  0.0000000000000000  0.0000000000000000
 -0.0000000000000000  4.1243380133059997  6.5283765000000002
  2.0352709999999998  2.9608629866939999  2.1761254999999999
  2.0352709999999998  5.9131528801780000  6.5283765000000002
  0.0000000000000000  1.1720481198220001  2.1761254999999999
  2.0352709999999998  2.2577276394540000  4.8954293338039996
 -0.0000000000000000  4.8274733605459996  3.8090726661959997
 -0.0000000000000000  4.8274733605459996  0.5431783338039999
  2.0352709999999998  2.2577276394540000  8.1613236661960009
