Ca Mg Tl
 1.0000000000000000
     0.0000000000000000    3.7294920000000000    3.7294920000000000
     3.7294920000000000    0.0000000000000000    3.7294920000000000
     3.7294920000000000    3.7294920000000000    0.0000000000000000
 Ca  Mg  Tl 
   1   1   2
Cartesian
  1.8647460000000000  1.8647460000000000  1.8647460000000000
  5.5942454589840001  5.5942454589840001  5.5942454589840001
  3.7294920000000000  3.7294920000000000  3.7294920000000000
  0.0000000000000000  0.0000000000000000  0.0000000000000000
