Cs Na Er F 
 1.0000000000000000
     0.0000000000000000    4.5800739999999998    4.5800739999999998
     4.5800739999999998    0.0000000000000000    4.5800739999999998
     4.5800739999999998    4.5800739999999998    0.0000000000000000
 Cs  Na  Er  F  
   2   1   1   6
Cartesian
  6.8701109999999996  6.8701109999999996  6.8701109999999996
  2.2900369999999999  2.2900369999999999  2.2900369999999999
  0.0000000000000000  0.0000000000000000  0.0000000000000000
  4.5800739999999998  4.5800739999999998  4.5800739999999998
  4.5800739999999998  4.5800739999999998  6.7533465934440002
  4.5800739999999998  6.7533465934440002  4.5800739999999998
  4.5800739999999998  2.4068014065560002  4.5800739999999998
  2.4068014065560002  4.5800739999999998  4.5800739999999998
  4.5800739999999998  4.5800739999999998  2.4068014065560002
  6.7533465934440002  4.5800739999999998  4.5800739999999998
