Hf V  Ga
 1.0000000000000000
     0.0000000000000000    0.0000000000000000    5.1508779999999996
    -3.2004649999999999    3.2004649999999999    2.5754380000000001
    -3.2004649999999999   -3.2004649999999999    2.5754380000000001
 Hf  V   Ga 
   1   2   4
Cartesian
  0.0000000000000000  0.0000000000000000  0.0000000000000000
 -3.2004649999999999  0.0000000000000000  3.8631574999999998
 -3.2004649999999999  0.0000000000000000  6.4385965000000001
 -1.2617609229950000 -1.2617609229950000  2.5754360303179999
 -1.9387040770049999 -1.9387040770049999  5.1508799696820002
 -1.9387040770049999  1.9387040770049999  5.1508799696820002
 -1.2617609229950000  1.2617609229950000  2.5754360303179999
