Ba Mg Re O 
 1.0000000000000000
     0.0000000000000000    4.0916100000000002    4.0916100000000002
     4.0916100000000002    0.0000000000000000    4.0916100000000002
     4.0916100000000002    4.0916100000000002    0.0000000000000000
 Ba  Mg  Re  O  
   2   1   1   6
Cartesian
  2.0458050000000001  2.0458050000000001  2.0458050000000001
  6.1374150000000007  6.1374150000000007  6.1374150000000007
  0.0000000000000000  0.0000000000000000  0.0000000000000000
  4.0916100000000002  4.0916100000000002  4.0916100000000002
  4.0916100000000002  6.0457465695600003  4.0916100000000002
  4.0916100000000002  4.0916100000000002  2.1374734304400000
  4.0916100000000002  4.0916100000000002  6.0457465695600003
  2.1374734304400000  4.0916100000000002  4.0916100000000002
  4.0916100000000002  2.1374734304400000  4.0916100000000002
  6.0457465695600003  4.0916100000000002  4.0916100000000002
