Nb Zn
 1.0000000000000000
    11.5014149999999997    0.0000000000000000    0.0000000000000000
     0.0000000000000000    7.7163360000000001    0.0000000000000000
     0.0000000000000000    0.0000000000000000   11.6858900000000006
 Nb  Zn 
   4  64
Cartesian
  0.5558403841200000  0.0000000000000000  8.7644175000000004
 10.9455746158800000  0.0000000000000000  2.9214725000000001
  6.3065478841200004  3.8581680000000000  8.7644175000000004
  5.1948671158800002  3.8581680000000000  2.9214725000000001
  0.6080798110500000  5.4246536550239997  4.2762527853700005
  2.1464630757899998  1.2972241103040001 10.8774367580200018
  7.1231828533649990  0.0000000000000000 11.2990169256600002
  2.1464630757899998  6.4191118896960004  6.6513982419800000
  9.8544353748299987  2.5984221336480000  2.9214725000000001
 10.8933351889499992  5.4246536550239997 10.1191977853699999
  4.3782321466349998  0.0000000000000000  5.4560719256599999
  0.6080798110500000  2.2916823449760000  1.5666922146300000
  2.0185558395749998  0.0000000000000000  4.1986584757700003
  9.3549519242100008  1.2972241103040001  0.8084532419800000
 10.8933351889499992  2.2916823449760000 10.1191977853699999
  9.3549519242100008  6.4191118896960004  5.0344917580199997
  1.6469796251700000  5.1179138663519996  8.7644175000000004
 10.8933351889499992  2.2916823449760000  7.4096372146300009
  4.3782321466349998  0.0000000000000000  0.3868730743400000
  0.6080798110500000  2.2916823449760000  4.2762527853700005
  0.6080798110500000  5.4246536550239997  1.5666922146300000
  9.8544353748299987  5.1179138663519996  2.9214725000000001
  0.0000000000000000  0.0000000000000000  0.0000000000000000
  7.1231828533649990  0.0000000000000000  6.2298180743399998
  3.3390217943100002  0.0000000000000000  8.7644175000000004
  1.6469796251700000  2.5984221336480000  8.7644175000000004
  9.3549519242100008  6.4191118896960004  0.8084532419800000
 10.8933351889499992  5.4246536550239997  7.4096372146300009
  2.0185558395749998  0.0000000000000000  1.6442865242300000
  2.1464630757899998  6.4191118896960004 10.8774367580200018
  0.0000000000000000  0.0000000000000000  5.8429450000000003
  9.3549519242100008  1.2972241103040001  5.0344917580199997
  2.1464630757899998  1.2972241103040001  6.6513982419800000
  8.1623932056899999  0.0000000000000000  2.9214725000000001
  9.4828591604249990  0.0000000000000000 10.0416034757699997
  9.4828591604249990  0.0000000000000000  7.4872315242300003
  6.3587873110499995  1.5664856550240001  4.2762527853700005
  7.8971705757899997  5.1553921103039997 10.8774367580200018
  1.3724753533650000  3.8581680000000000 11.2990169256600002
  7.8971705757899997  2.5609438896960000  6.6513982419800000
  4.1037278748299997  6.4565901336480005  2.9214725000000001
  5.1426276889500002  1.5664856550240001 10.1191977853699999
 10.1289396466350006  3.8581680000000000  5.4560719256599999
  6.3587873110499995  6.1498503449760005  1.5666922146300000
  7.7692633395749997  3.8581680000000000  4.1986584757700003
  3.6042444242099996  5.1553921103039997  0.8084532419800000
  5.1426276889500002  6.1498503449760005 10.1191977853699999
  3.6042444242099996  2.5609438896960000  5.0344917580199997
  7.3976871251700000  1.2597458663520000  8.7644175000000004
  5.1426276889500002  6.1498503449760005  7.4096372146300009
 10.1289396466350006  3.8581680000000000  0.3868730743400000
  6.3587873110499995  6.1498503449760005  4.2762527853700005
  6.3587873110499995  1.5664856550240001  1.5666922146300000
  4.1037278748299997  1.2597458663520000  2.9214725000000001
  5.7507074999999999  3.8581680000000000  0.0000000000000000
  1.3724753533650000  3.8581680000000000  6.2298180743399998
  9.0897292943099988  3.8581680000000000  8.7644175000000004
  7.3976871251700000  6.4565901336480005  8.7644175000000004
  3.6042444242099996  2.5609438896960000  0.8084532419800000
  5.1426276889500002  1.5664856550240001  7.4096372146300009
  7.7692633395749997  3.8581680000000000  1.6442865242300000
  7.8971705757899997  2.5609438896960000 10.8774367580200018
  5.7507074999999999  3.8581680000000000  5.8429450000000003
  3.6042444242099996  5.1553921103039997  5.0344917580199997
  7.8971705757899997  5.1553921103039997  6.6513982419800000
  2.4116857056900001  3.8581680000000000  2.9214725000000001
  3.7321516604249996  3.8581680000000000 10.0416034757699997
  3.7321516604249996  3.8581680000000000  7.4872315242300003
