Sr Sn O 
 1.0000000000000000
     5.7382020000000002    0.0000000000000000    0.0000000000000000
     0.0000000000000000    5.7264999999999997    0.0000000000000000
     0.0000000000000000    0.0000000000000000    8.1016130000000004
 Sr  Sn  O  
   4   4  12
Cartesian
  2.7124251325920001  2.8289024530000000  6.0762097500000003
  5.5815261325920007  0.0343475470000000  6.0762097500000003
  0.1566701292060000  5.6921581794999998  2.0254032500000001
  3.0257711292059999  2.8975918205000002  2.0254032500000001
  2.8691067382020004  0.0000057265000000  0.0000000000000000
  0.0000000000000000  2.8632442734999999  4.0508065000000002
  0.0000000000000000  2.8632442734999999  0.0000000000000000
  2.8691010000000001  0.0000057265000000  4.0508065000000002
  4.1161844406600006  1.6203761665000000  4.3361210050210008
  1.2470834406600000  1.2428738335000000  7.8162984949789998
  4.4911185593400003  4.4836261664999997  3.7655000965920000
  1.6220175593399999  4.1061238334999999  0.2853064034080000
  1.6220175593399999  4.1061238334999999  3.7655000965920000
  4.4911185593400003  4.4836204399999993  0.2853064034080000
  1.2470834406600000  1.2428738335000000  4.3361210050210008
  4.1161844406600006  1.6203761665000000  7.8162984949789998
  2.9459412629820005  5.3457908269999992  6.0762097500000003
  0.0768402629820000  3.2439591729999999  6.0762097500000003
  5.6613617370179998  2.4825408269999998  2.0254032500000001
  2.7922607370180001  0.3807091730000000  2.0254032500000001
