Ca La Zn
 1.0000000000000000
     0.0000900000000000    3.7109230000000002    3.7109230000000002
     3.7109230000000002    0.0000900000000000    3.7109230000000002
     3.7109230000000002    3.7109230000000002    0.0000900000000000
 Ca  La  Zn 
   1   1   2
Cartesian
  1.8554914219359999  1.8554914219359999  1.8554914219359999
  5.5664520000000000  5.5664520000000000  5.5664520000000000
  3.7121332439520001  3.7121332439519996  3.7121332439519996
  7.4207707560480012  7.4207707560480003  7.4207707560480003
