Re Si
 1.0000000000000000
     4.8061059999999998    0.0000000000000000    0.0000000000000000
     0.0000000000000000    4.8061059999999998    0.0000000000000000
     0.0000000000000000    0.0000000000000000    4.8061059999999998
 Re  Si 
   4   4
Cartesian
  4.1619532250319997  3.0472057749679999  1.7589002250320001
  3.0472057749679999  1.7589002250320001  4.1619532250319997
  1.7589002250320001  4.1619532250319997  3.0472057749679999
  0.6441527749680001  0.6441527749680001  0.6441527749680001
  0.7479310218260000  1.6551219781739999  3.1509840218259999
  1.6551219781739999  3.1509840218259999  0.7479310218260000
  3.1509840218259999  0.7479310218260000  1.6551219781739999
  4.0581749781739997  4.0581749781739997  4.0581749781739997
