Hg Br
 1.0000000000000000
     4.4243480000000002   -0.0003090000000000   -1.7093640000000001
    -0.6612220000000000    4.3746590000000003   -1.7093640000000001
    -0.0048460000000000   -0.0056330000000000    6.5636640000000002
 Hg  Br 
   2   2
Cartesian
  3.3264886818439998  3.8667921515590002  2.0281011829200000
  0.4317913133100000  0.5019248428080000  1.1168413807440001
  2.4698409109040003  2.8710037127020005 -0.1907150254560003
  1.2884390939420001  1.4977132929310002  3.3356444617920000
