Fe Co
 1.0000000000000000
     4.0370470000000003    0.0000000000000000    0.0000000000000000
     0.0000000000000000    4.0370470000000003    0.0000000000000000
     0.0000000000000000    0.0000000000000000    2.8457059999999998
 Fe  Co 
   3   1
Cartesian
  2.0185235000000001  2.0185235000000001  0.0000000000000000
  2.0185235000000001  0.0000000000000000  1.4228529999999999
  0.0000000000000000  2.0185235000000001  1.4228529999999999
  0.0000000000000000  0.0000000000000000  0.0000000000000000
