Mn Au
 1.0000000000000000
     3.4063970000000001    0.0000000000000000    0.0000000000000000
     0.0000000000000000    3.4063970000000001    0.0000000000000000
     0.0000000000000000    0.0000000000000000    8.8235759999999992
 Mn  Au 
   2   4
Cartesian
  0.0000000000000000  0.0000000000000000  0.0000000000000000
  1.7031985000000001  1.7031985000000001  4.4117879999999996
  1.7031985000000001  1.7031985000000001  1.4133868744079998
  1.7031985000000001  1.7031985000000001  7.4101803020159993
  0.0000000000000000  0.0000000000000000  5.8251836979839995
  0.0000000000000000  0.0000000000000000  2.9983923020159997
