Li Fe P 
 1.0000000000000000
     3.6669250000000000    0.0000000000000000    0.0000000000000000
     0.0000000000000000    3.6669250000000000    0.0000000000000000
     0.0000000000000000    0.0000000000000000    5.8293039999999996
 Li  Fe  P  
   2   2   2
Cartesian
  2.7501937500000002  2.7501937500000002  3.8154951522479998
  0.9167312500000000  0.9167312500000000  2.0138088477520002
  2.7501937500000002  0.9167312500000000  0.0000000000000000
  0.9167312500000000  2.7501937500000002  0.0000000000000000
  0.9167312500000000  0.9167312500000000  4.6388960008559996
  2.7501937500000002  2.7501937500000002  1.1904079991440000
