Na Th F 
 1.0000000000000000
     5.9066809999999998    0.0000000000000000    0.0000000000000000
    -2.9533410000000000    5.1153350000000000    0.0000000000000000
     0.0000000000000000    0.0000000000000000    3.8355750000000000
 Na  Th  F  
   2   1   6
Cartesian
  2.9533432866739999  1.7051099615549998  2.2687426125000001
 -0.0000032866740000  3.4102250384450001  1.5668323874999999
  0.0000000000000000  0.0000000000000000  0.0000000000000000
  2.2027722657199997  3.8153135324300003  1.9177875000000000
 -0.7505679884219999  1.3000214675699999  1.9177875000000000
  1.5011357227019999  0.0000000000000000  1.9177875000000000
  3.6331226962470002  0.0000000000000000  0.0000000000000000
 -1.8165616556670001  3.1463760591450001  0.0000000000000000
  1.1367789594200000  1.9689589408550001  0.0000000000000000
