Os Ru
 1.0000000000000000
    -1.3635189999999999   -2.3616530000000000    0.0000000000000000
    -1.3635189999999999    2.3616530000000000    0.0000000000000000
     0.0000000000000000    0.0000000000000000   -4.3003200000000001
 Os  Ru 
   1   1
Cartesian
 -1.3635189999999999 -0.7872900906920001 -3.2252400000000003
 -1.3635189999999999  0.7872900906920000 -1.0750800000000000
