Nd Te O 
 1.0000000000000000
     3.8878260000000000    0.0000000000000000   -1.1701800000000000
    -0.3522070000000000    3.8718409999999999   -1.1701800000000000
     0.0080790000000000    0.0088480000000000    7.0704250000000002
 Nd  Te  O  
   2   1   2
Cartesian
  2.3362323393029998  2.5583981119429997  0.7183586191099999
  1.2074656606970000  1.3222908880569999  4.0117063808900006
  0.0000000000000000  0.0000000000000000  0.0000000000000000
  0.7118407500000000  2.9083047500000001  2.3650324999999999
  2.8318572500000001  0.9723842500000000  2.3650324999999999
