Pr H 
 1.0000000000000000
     3.4007499999999999    0.0000000000000000    1.9634240000000001
     1.1335830000000000    3.2062569999999999    1.9634240000000001
     0.0000000000000000    0.0000000000000000    3.9268470000000000
 Pr  H  
   1   2
Cartesian
  0.0000000000000000  0.0000000000000000  0.0000000000000000
  3.4007497499999997  2.4046927499999997  5.8902712500000005
  1.1335832500000000  0.8015642500000000  1.9634237500000000
