Nd Zn
 1.0000000000000000
     3.6707660000000000    0.0000000000000000    0.0000000000000000
     0.0000000000000000    3.6707660000000000    0.0000000000000000
     0.0000000000000000    0.0000000000000000    3.6707660000000000
 Nd  Zn 
   1   1
Cartesian
  0.0000000000000000  0.0000000000000000  0.0000000000000000
  1.8353830000000000  1.8353830000000000  1.8353830000000000
