Ni Mo
 1.0000000000000000
     4.2016819999999999    0.0000000000000000    0.0000000000000000
     0.0000000000000000    4.4277410000000001    0.0000000000000000
     0.0000000000000000    0.0000000000000000    4.9704699999999997
 Ni  Mo 
   6   2
Cartesian
  3.1512614999999999  3.7222823096930000  0.0073264727800000
  1.0504205000000000  0.7054586903070000  4.9631435272199997
  3.1512614999999999  1.4775725936280000  1.2426174999999999
  1.0504205000000000  2.9501684063720002  3.7278525000000000
  1.0504205000000000  0.7054586903070000  2.4925614727799998
  3.1512614999999999  3.7222823096930000  2.4779085272199999
  3.1512614999999999  1.5300413244780000  3.7278525000000000
  1.0504205000000000  2.8976996755219999  1.2426174999999999
