Cu Sb S 
 1.0000000000000000
     4.8967400000000003    0.0000360000000000   -2.1931300000000000
    -0.9820660000000000    4.7972489999999999   -2.1931310000000002
     0.0046690000000000    0.0057210000000000    6.5744520000000000
 Cu  Sb  S  
   3   1   4
Cartesian
  3.4290652030539999  1.2022186049460000  1.0938416333200001
  0.4900502042500001  3.6005084888879999  1.0938411333860001
  1.9619157337170001  2.4042528821159999  4.3811002358550004
  0.0001527656660000  0.0001872085350000 -0.0000395751390000
  0.5133230346300001  0.6290574704009999  4.2735127610430004
  1.0734797820610000  4.1739462363270006 -1.0401092999740003
  3.8738372625490007  1.8888034182029998 -1.0401088236260001
  2.3782149334160003  2.9144119935899999  2.1838586233259996
