Co As
 1.0000000000000000
     5.8449179999999998    0.0000000000000000    0.0000000000000000
     0.0000000000000000    5.2826800000000000   -2.5902020000000001
     0.0000000000000000    0.0339820000000000    5.9349970000000001
 Co  As 
   4   8
Cartesian
  5.8363142807039994  3.8754227993520001  2.3587873140000002
  2.9138552807039999  1.4582302006480001  3.9535061859999998
  0.0086037192960000  1.4412392006479999  0.9860076859999999
  2.9310627192959999  3.8584317993520001 -0.6087111860000000
  3.7058942739659995  3.4972746433300004  3.1995915414249998
  0.7834352739659999  1.8363783566700000  3.1127019585750002
  2.1390237260339999  1.8193873566700001  0.1452034585749999
  5.0614827260339998  3.4802836433300004  0.2320930414249996
  2.1444127404300000  4.4900427843439994  1.5654390926360002
  5.0668717404299999  0.8436102156560000  4.7468544073639993
  3.7005052595699999  0.8266192156559999  1.7793559073640000
  0.7780462595700001  4.4730517843439994 -1.4020594073640000
