Rb Sb
 1.0000000000000000
     4.2023640000000002    0.0000000000000000    0.0000000000000000
    -2.1011829999999998    6.8244100000000003   -1.8474240000000000
     0.0000000000000000   -0.0489320000000000    8.7224000000000004
 Rb  Sb 
   2   4
Cartesian
  2.1011813330200000  4.5370405732760011  1.3889473972800002
 -0.0000003330199999  2.2384374267239999  5.4860286027200003
  2.1011755700090000  0.8475900538340001  2.4977173635200005
  2.1011790879970005  5.4898942590019999  6.2527421304960003
  0.0000019120030000  1.2855837409980002  0.6222338695040001
  0.0000054299910003  5.9278879461659999  4.3772586364799997
