Sn Pt
 1.0000000000000000
     6.5572629999999998    0.0000000000000000    0.0000000000000000
     0.0000000000000000    6.5572629999999998    0.0000000000000000
     0.0000000000000000    0.0000000000000000    6.5572629999999998
 Sn  Pt 
   8   4
Cartesian
  4.9179472500000001  1.6393157500000000  1.6393157500000000
  1.6393157500000000  4.9179472500000001  4.9179472500000001
  4.9179472500000001  4.9179472500000001  4.9179472500000001
  1.6393157500000000  1.6393157500000000  1.6393157500000000
  1.6393157500000000  1.6393157500000000  4.9179472500000001
  4.9179472500000001  4.9179472500000001  1.6393157500000000
  1.6393157500000000  4.9179472500000001  1.6393157500000000
  4.9179472500000001  1.6393157500000000  4.9179472500000001
  0.0000000000000000  0.0000000000000000  0.0000000000000000
  0.0000000000000000  3.2786314999999999  3.2786314999999999
  3.2786314999999999  0.0000000000000000  3.2786314999999999
  3.2786314999999999  3.2786314999999999  0.0000000000000000
