Hf In Co
 1.0000000000000000
     0.0005970000000000    3.1047250000000002    3.1010870000000001
     3.1032150000000001    0.0006520000000000    3.1009060000000002
     3.1029760000000000    3.1044209999999999    0.0010360000000000
 Hf  In  Co 
   1   1   2
Cartesian
  1.5517125144030000  1.5524495013480002  1.5507603526159999
  4.6550847946450000  4.6573453958830004  4.6522748490150008
  3.1033070186270000  3.1046846983590002  3.1008416422090002
  3.1030598785160000  3.1046415094829998  0.0017057581020000
