Mg Cu Si
 1.0000000000000000
     5.0336200000000000    0.0000000000000000    0.0000000000000000
    -2.5168100000000000    4.3592420000000001    0.0000000000000000
     0.0000000000000000    0.0000000000000000    7.9045759999999996
 Mg  Cu  Si 
   4   6   2
Cartesian
 -0.0000025168100001  2.9061627864140003  0.4800211867520000
  2.5168125168100000  1.4530792135860000  4.4323091867519997
  2.5168125168100000  1.4530792135860000  7.4245548132480002
 -0.0000025168100001  2.9061627864140003  3.4722668132479999
 -0.0000000000000000  1.4688117179640001  5.9284319999999999
  3.7615915074699995  0.7344058589820001  1.9761439999999999
  1.2720284925300001  0.7344058589820001  1.9761439999999999
  1.2447815074700004  3.6248361410179997  5.9284319999999999
 -1.2447815074699999  3.6248361410179997  5.9284319999999999
  2.5168099999999995  2.8904302820360002  1.9761439999999999
  0.0000000000000000  0.0000000000000000  0.0000000000000000
  0.0000000000000000  0.0000000000000000  3.9522879999999998
