Er In
 1.0000000000000000
     5.3083929999999997   -0.0000000000000000    0.0000000000000000
    -2.6541969999999999    4.5972030000000004    0.0000000000000000
     0.0000000000000000    0.0000000000000000    6.6454259999999996
 Er  In 
   4   2
Cartesian
 -0.0000029875300002  3.0648035324010001  4.9840694999999995
  2.6541989875300001  1.5323994675990000  1.6613564999999999
  0.0000000000000000  0.0000000000000000  3.3227129999999998
  0.0000000000000000  0.0000000000000000  0.0000000000000000
  2.6541989875300001  1.5323994675990000  4.9840960817040001
 -0.0000029875300002  3.0648035324010001  1.6613299182960000
