Ac Mg Sn
 1.0000000000000000
     0.0000000000000000    4.1026420000000003    4.1026420000000003
     4.1026420000000003    0.0000000000000000    4.1026420000000003
     4.1026420000000003    4.1026420000000003    0.0000000000000000
 Ac  Mg  Sn 
   2   1   1
Cartesian
  4.1026420000000003  4.1026420000000003  4.1026420000000003
  0.0000000000000000  0.0000000000000000  0.0000000000000000
  2.0513210000000002  2.0513210000000002  2.0513210000000002
  6.1539547947160003  6.1539547947160003  6.1539547947160003
