Dy S 
 1.0000000000000000
     3.3700839999999999   -0.0000000000000000    1.9457180000000001
     1.1233610000000001    3.1773440000000002    1.9457180000000001
    -0.0000000000000000   -0.0000000000000000    3.8914390000000001
 Dy  S  
   1   1
Cartesian
  0.0000000000000000  0.0000000000000000  0.0000000000000000
  2.2467224999999997  1.5886720000000001  3.8914375000000003
