Zr Be Si
 1.0000000000000000
     3.7306830000000000    0.0000000000000000    0.0000000000000000
    -1.8653420000000001    3.2308650000000001    0.0000000000000000
     0.0000000000000000    0.0000000000000000    7.2393900000000002
 Zr  Be  Si 
   2   2   2
Cartesian
  0.0000000000000000  0.0000000000000000  3.6196950000000001
  0.0000000000000000  0.0000000000000000  0.0000000000000000
  1.8653431986750002  1.0769539230450000  5.4295425000000002
 -0.0000021986750001  2.1539110769550001  1.8098475000000001
  1.8653431986750002  1.0769539230450000  1.8098475000000001
 -0.0000021986750001  2.1539110769550001  5.4295425000000002
