Dy Al Si
 1.0000000000000000
     4.1692720000000003    0.0000000000000000    0.0000000000000000
    -2.0846369999999999    3.6106959999999999    0.0000000000000000
     0.0000000000000000    0.0000000000000000    6.5947870000000002
 Dy  Al  Si 
   1   2   2
Cartesian
  0.0000000000000000  0.0000000000000000  0.0000000000000000
  2.0846377513030001  1.2035641297680000  2.3556579164000002
 -0.0000027513029998  2.4071318702319999  4.2391290836000000
  2.0846377513030001  1.2035641297680000  4.8759217163200006
 -0.0000027513029998  2.4071318702319999  1.7188652836800000
