Dy Se
 1.0000000000000000
     4.0080390000000001    0.0000000000000000    0.0000000000000000
     0.0000000000000000   10.9904630000000001    0.0000000000000000
     0.0000000000000000    0.0000000000000000   11.0946250000000006
 Dy  Se 
   8  12
Cartesian
  1.0020097500000000 10.9660861530659997  8.9490354712500011
  3.0060292500000001  0.0243768469340000  2.1455895287500000
  3.0060292500000001  5.4708546530660005  7.6929020287499998
  1.0020097500000000  5.5196083469340005  3.4017229712500003
  1.0020097500000000  2.0617888778739997  5.4084521734999997
  3.0060292500000001  8.9286741221259991  5.6861728265000000
  3.0060292500000001  7.5570203778740002  0.1388603265000000
  1.0020097500000000  3.4334426221260004 10.9557646735000009
  1.0020097500000000  3.3563335337179998  8.0576600148750011
  3.0060292500000001  7.6341294662819994  3.0369649851250000
  3.0060292500000001  8.8515650337179999  8.5842774851249999
  1.0020097500000000  2.1388979662820002  2.5103475148750003
  1.0020097500000000 10.3774149738599988  4.2347628893750002
  3.0060292500000001  0.6130480261400001  6.8598621106250004
  3.0060292500000001  4.8821834738600005  1.3125496106250001
  1.0020097500000000  6.1082795261400005  9.7820753893750005
  1.0020097500000000  9.6069505461710012  0.4998350455000001
  3.0060292500000001  1.3835124538290000 10.5947899545000013
  3.0060292500000001  4.1117190461709994  5.0474774545000001
  1.0020097500000000  6.8787439538289998  6.0471475455000006
