Mg Ir
 1.0000000000000000
     5.1744919999999999    0.0000000000000000    0.0000000000000000
    -2.5872449999999998    4.4812399999999997    0.0000000000000000
     0.0000000000000000    0.0000000000000000    8.4003359999999994
 Mg  Ir 
   4   8
Cartesian
 -0.0000019205790000  2.9874948270799999  0.5834369365440000
  2.5872489205789999  1.4937451729199998  4.7836049365440001
  2.5872489205789999  1.4937451729199998  7.8168990634559989
 -0.0000019205790000  2.9874948270799999  3.6167310634559997
  0.0000000000000000  0.0000000000000000  0.0000000000000000
  0.0000000000000000  0.0000000000000000  4.2001679999999997
  2.5872440686489995  2.9392229097999998  2.1000839999999998
 -1.2518148639389999  3.7102292142799995  6.3002519999999995
  1.2518216943250002  3.7102292142799995  6.3002519999999995
  1.3354253056750001  0.7710107857200000  2.1000839999999998
  3.8390618639389995  0.7710107857200000  2.1000839999999998
  0.0000029313510001  1.5420170901999999  6.3002519999999995
