Tm Au
 1.0000000000000000
     1.8247430000000000   -5.3888999999999996    0.0000000000000000
     1.8247430000000000    5.3888999999999996    0.0000000000000000
     0.0000000000000000    0.0000000000000000    4.5877270000000001
 Tm  Au 
   2   2
Cartesian
  1.8247430000000000 -3.8893631303999996  3.4407952499999999
  1.8247430000000000  3.8893631303999996  1.1469317500000000
  1.8247430000000000 -0.9571548623999997  3.4407952499999999
  1.8247430000000000  0.9571548623999997  1.1469317500000000
