Ti Si B 
 1.0000000000000000
     6.7775900000000000    0.0000000000000000    0.0000000000000000
    -3.3887960000000001    5.8695659999999998    0.0000000000000000
     0.0000000000000000    0.0000000000000000    3.3044289999999998
 Ti  Si  B  
   6   2   1
Cartesian
  1.6172278602599999  0.0000000000000000  1.6522144999999999
  2.5801803084840000  4.4690053784760000  1.6522144999999999
 -0.8086141687440001  1.4005606215239998  1.6522144999999999
  4.0649002680399997  0.0000000000000000  0.0000000000000000
  1.3563444657359998  2.3492585741039997  0.0000000000000000
 -2.0324507337759998  3.5203074258959997  0.0000000000000000
 -0.0000040554620002  3.9130459565220002  1.6522144999999999
  3.3887980554620003  1.9565200434779999  1.6522144999999999
  0.0000000000000000  0.0000000000000000  0.0000000000000000
