Mg Zr Ir
 1.0000000000000000
     0.0012420000000000    3.1941670000000002    3.1941670000000002
     3.1941670000000002    0.0012420000000000    3.1941670000000002
     3.1941670000000002    3.1941670000000002    0.0012420000000000
 Mg  Zr  Ir 
   1   1   2
Cartesian
  1.5973876104240001  1.5973876104240001  1.5973876104240001
  4.7921883895760002  4.7921883895760002  4.7921883895760011
  6.3891478984079999  6.3891478984079999  6.3891478984080008
  3.1952097120160001  3.1952097120160001  3.1952097120160001
