Tl Pd Se
 1.0000000000000000
     7.4188400000000003    0.0000000000000000    0.0000000000000000
    -3.7094200000000002    6.4249029999999996    0.0000000000000000
     0.0000000000000000    0.0000000000000000    5.9514069999999997
 Tl  Pd  Se 
   2   4   6
Cartesian
  3.7094237094200002  2.1416321916989998  3.8246836113639997
 -0.0000037094200001  4.2832708083009994  2.1267233886360000
  0.0000000000000000  0.0000000000000000  0.0000000000000000
 -1.8547100000000001  3.2124514999999998  0.0000000000000000
  3.7094200000000002  0.0000000000000000  0.0000000000000000
  1.8547100000000001  3.2124514999999998  0.0000000000000000
  5.5329671625799994  1.0888090367009999  1.2756900418570001
  3.7094311282599999  4.2472656518889993  1.2756900418570001
  1.8858950939400001  1.0888090367009999  1.2756900418570001
  1.8235249060599996  5.3360939632989997  4.6757169581430000
 -1.8235471625799999  5.3360939632989997  4.6757169581430000
 -0.0000111282599999  2.1776373481109998  4.6757169581430000
