Ba Li Os O 
 1.0000000000000000
     0.0000000000000000    4.1046959999999997    4.1046959999999997
     4.1046959999999997    0.0000000000000000    4.1046959999999997
     4.1046959999999997    4.1046959999999997    0.0000000000000000
 Ba  Li  Os  O  
   2   1   1   6
Cartesian
  6.1570439999999991  6.1570439999999991  6.1570439999999991
  2.0523479999999998  2.0523479999999998  2.0523479999999998
  4.1046959999999997  4.1046959999999997  4.1046959999999997
  0.0000000000000000  0.0000000000000000  0.0000000000000000
  4.1046959999999997  1.9142906547359999  4.1046959999999997
  4.1046959999999997  4.1046959999999997  6.2951013452639994
  4.1046959999999997  6.2951013452639994  4.1046959999999997
  4.1046959999999997  4.1046959999999997  1.9142906547359999
  6.2951013452639994  4.1046959999999997  4.1046959999999997
  1.9142906547359999  4.1046959999999997  4.1046959999999997
