Zr Cd
 1.0000000000000000
     3.0905239999999998   -0.0042560000000000    0.0008440000000000
    -0.0042560000000000    3.0905250000000000    0.0008450000000000
    -1.5411900000000001   -1.5411900000000001    6.9989980000000003
 Zr  Cd 
   2   1
Cartesian
  1.5444865219380000  1.5444871910339999  2.3649786866620004
  0.0005990712599997  0.0005994021349998  4.6352673274830005
 -0.0000075931980000 -0.0000075931690000  0.0004409858550000
