Ba Pd
 1.0000000000000000
     5.5869790000000004    0.0000010000000000    0.0000000000000000
    -2.7934890000000001    4.8384729999999996    0.0000000000000000
     0.0000000000000000    0.0000000000000000    4.3251730000000004
 Ba  Pd 
   1   5
Cartesian
  0.0000000000000000  0.0000000000000000  0.0000000000000000
 -1.3967445000000001  2.4192364999999998  2.1625865000000002
  0.0000143007820002  3.2256602897739994  0.0000000000000000
  2.7934756992180003  1.6128137102259998  0.0000000000000000
  2.7934895000000002  0.0000005000000000  2.1625865000000002
  1.3967450000000001  2.4192369999999999  2.1625865000000002
