Pr Mg
 1.0000000000000000
     4.5408869999999997    0.0000000000000000    2.6216830000000000
     1.5136289999999999    4.2811899999999996    2.6216830000000000
     0.0000000000000000    0.0000000000000000    5.2433630000000004
 Pr  Mg 
   1   3
Cartesian
  0.0000000000000000  0.0000000000000000  0.0000000000000000
  3.0272579999999998  2.1405949999999998  5.2433645000000002
  1.5136289999999999  1.0702974999999999  2.6216822500000001
  4.5408869999999997  3.2108924999999999  7.8650467500000003
