Li Sn Au
 1.0000000000000000
     6.5512930000000003    0.0000000000000000    0.0000000000000000
     0.0000000000000000    6.5512930000000003    0.0000000000000000
     0.0000000000000000    0.0000000000000000    6.5512930000000003
 Li  Sn  Au 
   8   4   4
Cartesian
  3.2756465000000001  0.0000000000000000  0.0000000000000000
  4.9134697500000000  4.9134697500000000  4.9134697500000000
  3.2756465000000001  3.2756465000000001  3.2756465000000001
  4.9134697500000000  1.6378232500000001  1.6378232500000001
  0.0000000000000000  0.0000000000000000  3.2756465000000001
  1.6378232500000001  4.9134697500000000  1.6378232500000001
  0.0000000000000000  3.2756465000000001  0.0000000000000000
  1.6378232500000001  1.6378232500000001  4.9134697500000000
  0.0000000000000000  0.0000000000000000  0.0000000000000000
  0.0000000000000000  3.2756465000000001  3.2756465000000001
  3.2756465000000001  0.0000000000000000  3.2756465000000001
  3.2756465000000001  3.2756465000000001  0.0000000000000000
  1.6378232500000001  4.9134697500000000  4.9134697500000000
  1.6378232500000001  1.6378232500000001  1.6378232500000001
  4.9134697500000000  4.9134697500000000  1.6378232500000001
  4.9134697500000000  1.6378232500000001  4.9134697500000000
