Ta Au
 1.0000000000000000
     5.2474759999999998    0.0000000000000000    0.0000000000000000
     0.0000000000000000    5.2474759999999998    0.0000000000000000
     0.0000000000000000    0.0000000000000000    5.2474759999999998
 Ta  Au 
   6   2
Cartesian
  2.6237379999999999  1.3118690000000000  0.0000000000000000
  0.0000000000000000  2.6237379999999999  3.9356070000000001
  3.9356070000000001  0.0000000000000000  2.6237379999999999
  2.6237379999999999  3.9356070000000001  0.0000000000000000
  0.0000000000000000  2.6237379999999999  1.3118690000000000
  1.3118690000000000  0.0000000000000000  2.6237379999999999
  0.0000000000000000  0.0000000000000000  0.0000000000000000
  2.6237379999999999  2.6237379999999999  2.6237379999999999
