Ba Br Cl
 1.0000000000000000
     8.2584459999999993    0.0000000000000000    0.0000000000000000
     0.0000000000000000    4.8528909999999996    0.0000000000000000
     0.0000000000000000    0.0000000000000000    9.5775869999999994
 Ba  Br  Cl 
   4   4   4
Cartesian
  2.1817080058339999  1.2132227499999999  1.1595967684380000
  6.0767379941659989  3.6396682499999997  8.4179902315619994
  6.3109310058340000  1.2132227499999999  3.6291967315619997
  1.9475149941659999  3.6396682499999997  5.9483902684379997
  0.2353987447840000  1.2132227499999999  7.9428557180789996
  8.0230472552159995  3.6396682499999997  1.6347312819209998
  4.3646217447839994  1.2132227499999999  6.4235247819209995
  3.8938242552159998  3.6396682499999997  3.1540622180789999
  1.1784967610919999  1.2132227499999999  4.1371919460419999
  7.0799492389079992  3.6396682499999997  5.4403950539580004
  5.3077197610919997  1.2132227499999999  0.6516015539579999
  2.9507262389079996  3.6396682499999997  8.9259854460419987
