Lu Ru
 1.0000000000000000
     5.1715910000000003    0.0000000000000000    0.0000000000000000
    -2.5857960000000002    4.4787270000000001    0.0000000000000000
     0.0000000000000000    0.0000000000000000    8.8002979999999997
 Lu  Ru 
   4   8
Cartesian
 -0.0000029191290002  2.9858194929090001  3.8080209490699999
  2.5857979191290004  1.4929075070910001  4.9922770509300003
  2.5857979191290004  1.4929075070910001  8.2081699490699993
 -0.0000029191290002  2.9858194929090001  0.5921280509300000
  0.0000101716660000  1.5363466802640000  6.6002235000000002
 -1.2552644965340003  3.7105447024140004  6.6002235000000002
  1.3305106455839999  0.7681822975860000  2.2000744999999999
  2.5857848283340004  2.9423803197359999  2.2000744999999999
  1.2552843544159999  3.7105447024140004  6.6002235000000002
  0.0000000000000000  0.0000000000000000  0.0000000000000000
  3.8410594965340006  0.7681822975860000  2.2000744999999999
  0.0000000000000000  0.0000000000000000  4.4001489999999999
