Pr Ni Sb
 1.0000000000000000
    -2.1781290000000002   -3.7726299999999999    0.0000000000000000
    -2.1781290000000002    3.7726299999999999    0.0000000000000000
     0.0000000000000000    0.0000000000000000   -8.4348080000000003
 Pr  Ni  Sb 
   2   2   2
Cartesian
  0.0000000000000000  0.0000000000000000  0.0000000000000000
  0.0000000000000000  0.0000000000000000 -4.2174040000000002
 -2.1781290000000002 -1.2575458484199999 -6.3260975651919997
 -2.1781290000000002  1.2575458484199999 -2.1087104348079997
 -2.1781290000000002 -1.2575458484199999 -2.1087104348079997
 -2.1781290000000002  1.2575458484199999 -6.3260975651919997
