Li Rh O 
 1.0000000000000000
     2.8680249999999998   -0.0212360000000000    4.0942179999999997
     1.2758160000000001    2.5687190000000002    4.0942179999999997
    -0.0345430000000000   -0.0212360000000000    4.9986990000000002
 Li  Rh  O  
   1   1   2
Cartesian
  2.0546489999999999  1.2631235000000001  6.5935674999999998
  0.0000000000000000  0.0000000000000000  0.0000000000000000
  3.0569930774579999  1.8793281944870002  9.8101866563350004
  1.0523049225419998  0.6469188055130000  3.3769483436649996
