Na Al As
 1.0000000000000000
     5.7009169999999996    0.0000000000000000   -2.3276059999999998
    -1.1839590000000000    6.1799309999999998   -2.8998279999999999
     0.0244160000000000   -0.0289350000000000    8.2051210000000001
 Na  Al  As 
   6   2   4
Cartesian
  1.0462733502739998  3.8422519898040002  2.5626025409050004
  3.4951006497260000  2.3087440101960000  0.4150844590950002
  1.0849624216209999  0.0103967716410000  2.6573479914350004
  3.4564115783789990  6.1405992283590001  0.3203390085650011
  0.8332497499999999  3.0899654999999999 -2.0318155000000000
  3.6837082499999996  3.0899654999999999 -3.1956185000000001
  4.2756877499999995  0.0000000000000000 -1.7457045000000000
  1.4252292499999999  0.0000000000000000 -0.5819015000000000
  4.3078939745669995  4.2692271183089998  2.4058426605170000
  0.2334800254329999  1.8817688816909999  0.5718443394830000
  2.3782030607540001  5.5655083321019996 -2.3204910345849994
  2.1631709392459997  0.5854876678980000  5.2981780345849998
