Sr Ho Ru O 
 1.0000000000000000
     5.8629110000000004    0.0000000000000000    0.0000000000000000
     0.0000000000000000    5.8052089999999996    0.0000000000000000
     0.0000000000000000    5.7525690000000003    8.2323789999999999
 Sr  Ho  Ru  O  
   4   2   2  12
Cartesian
  0.2095287133180000  5.7178772774670001  6.1796352963499999
  3.1409842133180006  8.7161852225329994  6.1689332036500000
  2.7219267866820003  2.8415927774670000  2.0634457963499999
  5.6533822866820005  5.8399007225329997  2.0527437036500000
  2.9314555000000002  5.7788889999999995  4.1161894999999999
  0.0000000000000000  2.9026044999999998  0.0000000000000000
  0.0000000000000000  2.8762845000000001  4.1161894999999999
  2.9314555000000002  0.0000000000000000  0.0000000000000000
  0.1106038160150000  3.3171322323790000  2.1832927698320002
  3.0420593160150005  5.3643612676209997  1.9328967301680000
  5.7523071839850006  8.2406457676210003  6.0490862301680002
  2.8208516839850000  6.1934167323790001  6.2994822698319997
  4.2693248869120000  7.5337675500810004  3.7850173575880000
  1.3378693869120002  1.1477259499190000  0.3311721424120000
  1.5935861130880000  4.0240104499190004  4.4473616424119999
  4.5250416130880007 10.4100520500810010  7.9012068575879999
  1.7541946970220004  9.9898177263420003  7.9177127774829996
  4.6856501970220004  4.4442447736580002  4.4308557225170002
  4.1087163029780003  1.5679602736579998  0.3146662225170000
  1.1772608029780001  7.1135332263419997  3.8015232774829997
