Be Co Ge
 1.0000000000000000
     0.0000000000000000    2.7190740000000000    2.7190740000000000
     2.7190740000000000    0.0000000000000000    2.7190740000000000
     2.7190740000000000    2.7190740000000000    0.0000000000000000
 Be  Co  Ge 
   1   2   1
Cartesian
  1.3595370000000000  1.3595370000000000  1.3595370000000000
  0.0000000000000000  0.0000000000000000  0.0000000000000000
  2.7190740000000000  2.7190740000000000  2.7190740000000000
  4.0786110000000004  4.0786110000000004  4.0786110000000004
