Sr Ga
 1.0000000000000000
     4.1541839999999999    0.0000000000000000   -1.5906190000000000
    -0.6090400000000000    4.1092950000000004   -1.5906190000000000
    -0.0181420000000000   -0.0210280000000000    6.1726239999999999
 Sr  Ga 
   1   4
Cartesian
  0.0000000000000000  0.0000000000000000  0.0000000000000000
  2.1877999839620004  2.5359523825710006 -0.5061837212540001
  0.5726950000000000  3.0714572500000004  1.4956929999999999
  2.9543069999999996  1.0168097500000002  1.4956929999999999
  1.3392020160379998  1.5523146174290001  3.4975697212540000
