Hf Cu
 1.0000000000000000
     3.1799650000000002    0.0000000000000000    0.0000000000000000
     0.0000000000000000    3.1799650000000002    0.0000000000000000
     0.0000000000000000    0.0000000000000000   11.1780749999999998
 Hf  Cu 
   4   2
Cartesian
  1.5899825000000001  1.5899825000000001  9.4287174405749994
  1.5899825000000001  1.5899825000000001  1.7493575594249999
  0.0000000000000000  0.0000000000000000  3.8396799405750000
  0.0000000000000000  0.0000000000000000  7.3383950594250003
  0.0000000000000000  0.0000000000000000  0.0000000000000000
  1.5899825000000001  1.5899825000000001  5.5890374999999999
