Sc Al Ni
 1.0000000000000000
     3.9925150000000000   -0.0000000000000000    0.0000000000000000
    -1.9962590000000000    4.7420190000000000    0.0000000000000000
     0.0000000000000000    0.0000000000000000    6.6653570000000002
 Sc  Al  Ni 
   2   4   2
Cartesian
  0.0000006952399998  4.1129664695550003  4.9990177500000001
  1.9962553047600000  0.6290525304450000  1.6663392500000000
  0.0000035474800000  1.4069096171100000  6.3219644727170001
  1.9962524525200003  3.3351093828899998  0.3433925272830000
  1.9962524525200003  3.3351093828899998  2.9892859727170000
  0.0000035474800000  1.4069096171100000  3.6760710272830002
  1.9962588656860001  1.9934546892389999  4.9990177500000001
 -0.0000028656860000  2.7485643107610001  1.6663392500000000
