Ho Ni Bi
 1.0000000000000000
     3.2072129999999999    3.2072129999999999    0.0000000000000000
     3.2072129999999999    0.0000000000000000   -3.2072129999999999
     0.0000000000000000    3.2072129999999999   -3.2072129999999999
 Ho  Ni  Bi 
   1   1   1
Cartesian
  3.2072129999999999  3.2072129999999999 -3.2072129999999999
  4.8108195000000000  4.8108195000000000 -4.8108195000000000
  0.0000000000000000  0.0000000000000000  0.0000000000000000
