Lu Tl Cd
 1.0000000000000000
     0.0000000000000000    3.6700879999999998    3.6700879999999998
     3.6700879999999998    0.0000000000000000    3.6700879999999998
     3.6700879999999998    3.6700879999999998    0.0000000000000000
 Lu  Tl  Cd 
   2   1   1
Cartesian
  0.0000000000000000  0.0000000000000000  0.0000000000000000
  3.6700953401760001  3.6700953401760001  3.6700953401760001
  5.5051319999999997  5.5051319999999997  5.5051319999999997
  1.8350439999999999  1.8350439999999999  1.8350439999999999
