Ac Ir Au
 1.0000000000000000
     0.0000010000000000    3.7948000000000000    3.7947970000000000
     3.7948000000000000   -0.0000010000000000    3.7948000000000000
     3.7947980000000001    3.7948000000000000    0.0000010000000000
 Ac  Ir  Au 
   2   1   1
Cartesian
  0.0000000000000000  0.0000000000000000  0.0000000000000000
  3.7947994999999999  3.7947994999999999  3.7947989999999998
  5.6921992499999998  5.6921992499999998  5.6921984999999999
  1.8974073395989999  1.8974073395989997  1.8974070895979995
