Zn N 
 1.0000000000000000
     7.9456619999999996    0.0000000000000000   -2.8092160000000002
    -3.9728300000000001    6.8811439999999999   -2.8092160000000002
     0.0000000000000000    0.0000000000000000    8.4276459999999993
 Zn  N  
  24  16
Cartesian
 -0.7151688960720001  1.9019000335920000 -0.7087652449880001
 -0.8108818692159998  5.1450382499439993 -0.9795094544460005
  5.8817882380879993  0.1658011646800000  1.8297088501719994
  1.6992478327320000  3.2747708353200000 -0.6829405305180006
  0.0182556102559996  3.1089765517840000  2.1004526606059999
  2.1004039911460000  0.1657942835360000 -0.4380130550980000
  0.6969023673239999  1.8702742957680001  4.9096624985819988
 -1.6992429080900000  3.2747777164640000  4.9354988489379998
  0.7926321836019996  5.1766777500560002 -3.2472290069100005
  5.0526268252519992  1.5386719664080000 -0.4380050746660004
 -0.0000039246420000  0.3315954482160000  2.1262838007499996
  2.8747685496200002  1.5702977042319999  1.8297117075779996
  5.6720749080899999  3.6063662835359995 -2.1262848489380004
  3.2759296326759992  5.0108697042320003 -2.1004484985820002
  1.8724280088539991  6.7153497164639999  3.2472270550979987
  3.9545763897439987  3.7721674482160004  0.7087613393939993
  2.2735841672680004  3.6063731646799999  3.4921545305179986
 -1.9089562380880003  6.7153428353200004  0.9795051498279991
  4.7837138692160002  1.7361057500560000  3.7887234544459991
  4.6880008960719994  4.9792439664080002  3.5179792449879996
  3.1801998163979990  1.7044662499440000  6.0564430069099995
 -1.0797948252520002  5.3424720335920002  3.2472190746659999
  3.9728359246419997  6.5495485517839995  0.6829301992499986
  1.0980634503799998  5.3108462957680000  0.9795022924219999
 -0.9102622552600004  5.0171934755679999  1.2873054184599995
 -2.8137329687640000  5.1608580000000002  4.3311240815399987
  6.0421912864959992  0.1436645244320000  4.0965208767040000
  2.8137339687639997  1.7202860000000000  4.0965209184600004
  3.8898867135040001  3.2969074755680001 -1.2873068767040006
  2.8966792552600000  5.3045225244319996 -4.0965224184600002
  4.8830942552599996  1.8639505244320000  1.5219085815399986
  6.7865649687639991  1.7202860000000000 -1.5219100815400006
 -2.0693592864960002  6.7374794755680005 -1.2873068767040006
  1.1590980312359993  5.1608580000000002 -1.2873069184600001
  0.0829452864960003  3.5842365244319998  4.0965208767040000
  1.0761527447399999  1.5766214755679999  6.9057364184600001
 -1.9864150000000000  3.4405720000000000 -1.4046080000000001
  3.9728309999999998  0.0000000000000000 -1.4046080000000001
  0.0000000000000000  0.0000000000000000  4.2138229999999997
  1.9864159999999997  3.4405720000000000  1.4046069999999995
