Ti Cu
 1.0000000000000000
     3.1260180000000002    0.0000000000000000    0.0000000000000000
     0.0000000000000000    3.1260180000000002    0.0000000000000000
     0.0000000000000000    0.0000000000000000    5.9230140000000002
 Ti  Cu 
   2   2
Cartesian
  0.0000000000000000  1.5630090000000001  2.1087351363360001
  1.5630090000000001  0.0000000000000000  3.8142788636640002
  0.0000000000000000  1.5630090000000001  5.2661695164419999
  1.5630090000000001  0.0000000000000000  0.6568444835580000
