Mg Ni Bi
 1.0000000000000000
     3.8002570000000002    0.0000000000000000    2.1940800000000000
     1.2667520000000001    3.5829179999999998    2.1940800000000000
     0.0000000000000000    0.0000000000000000    4.3881600000000001
 Mg  Ni  Bi 
   1   1   1
Cartesian
  1.2667522500000001  0.8957295000000000  2.1940800000000000
  0.0000000000000000  0.0000000000000000  0.0000000000000000
  3.8002567500000004  2.6871885000000000  6.5822400000000005
