Li F 
 1.0000000000000000
     4.0814859999999999    0.0000000000000000    0.0000000000000000
     0.0000000000000000    4.0814859999999999    0.0000000000000000
     0.0000000000000000    0.0000000000000000    4.0814859999999999
 Li  F  
   4   4
Cartesian
  0.0000000000000000  0.0000000000000000  0.0000000000000000
  0.0000000000000000  2.0407430000000000  2.0407430000000000
  2.0407430000000000  0.0000000000000000  2.0407430000000000
  2.0407430000000000  2.0407430000000000  0.0000000000000000
  0.0000000000000000  2.0407430000000000  0.0000000000000000
  0.0000000000000000  0.0000000000000000  2.0407430000000000
  2.0407430000000000  2.0407430000000000  2.0407430000000000
  2.0407430000000000  0.0000000000000000  0.0000000000000000
