Ca Mg N 
 1.0000000000000000
     3.5366580000000001    0.0000000000000000    0.0000000000000000
    -1.7683300000000000    3.0628350000000002    0.0000000000000000
     0.0000000000000000    0.0000000000000000    6.0585089999999999
 Ca  Mg  N  
   1   2   2
Cartesian
  0.0000000000000000  0.0000000000000000  3.0292545000000000
 -0.0000024349960000  2.0418910209450001  5.2097421816449998
  1.7683304349960001  1.0209439790550001  0.8487668183550000
 -0.0000024349960000  2.0418910209450001  1.4086396935540000
  1.7683304349960001  1.0209439790550001  4.6498693064459999
