Mo
 1.0000000000000000
     3.1697639999999998    0.0000000000000000    0.0000000000000000
     0.0000000000000000    3.1697639999999998    0.0000000000000000
     0.0000000000000000    0.0000000000000000    3.1697639999999998
 Mo 
   2
Cartesian
  0.0000000000000000  0.0000000000000000  0.0000000000000000
  1.5848819999999999  1.5848819999999999  1.5848819999999999
