Hf Al
 1.0000000000000000
     5.2548740000000000    0.0000000000000000    0.0000000000000000
    -2.6274370000000000    4.5508530000000000    0.0000000000000000
     0.0000000000000000    0.0000000000000000    8.7011679999999991
 Hf  Al 
   4   8
Cartesian
 -0.0000026274370001  3.0339035169510002  3.7938571678559994
  2.6274396274370000  1.5169494830490000  8.1444411678559998
  2.6274396274370000  1.5169494830490000  4.9073108321439998
 -0.0000026274370001  3.0339035169510002  0.5567268321440000
  0.0000000000000000  1.5548080291560000  6.5258759999999993
  3.9083703411140003  0.7774040145780000  2.1752919999999998
  1.3465036588860002  0.7774040145780000  2.1752919999999998
  1.2809333411140005  3.7734489854219997  6.5258759999999993
  0.0000000000000000  0.0000000000000000  0.0000000000000000
  0.0000000000000000  0.0000000000000000  4.3505839999999996
  2.6274370000000000  2.9960449708440002  2.1752919999999998
 -1.2809333411139998  3.7734489854219997  6.5258759999999993
