Sn Se
 1.0000000000000000
     3.8418980000000000   -0.0000000000000000    0.0000000000000000
    -1.9209499999999999    3.3271829999999998    0.0000000000000000
     0.0000000000000000    0.0000000000000000    6.4858799999999999
 Sn  Se 
   1   2
Cartesian
  0.0000000000000000  0.0000000000000000  0.0000000000000000
  1.9209505876160000  1.1090598909389999  4.9104532621199999
 -0.0000025876160000  2.2181231090610001  1.5754267378800000
