Th Si Ru
 1.0000000000000000
     3.9184679999999998   -0.0000000000000000   -1.5487120000000001
    -0.6121040000000000    3.8703639999999999   -1.5487120000000001
    -0.0099890000000000   -0.0116920000000000    5.7062350000000004
 Th  Si  Ru 
   1   2   2
Cartesian
  0.0000000000000000  0.0000000000000000  0.0000000000000000
  2.0914380150190000  2.4481960295919998 -0.4398647469050000
  1.2049369849809999  1.4104759704079999  3.0486757469050003
  2.7808304999999995  0.9617450000000000  1.3044055000000001
  0.5155445000000000  2.8969269999999998  1.3044055000000001
