Al P 
 1.0000000000000000
     5.5078139999999998    0.0000000000000000    0.0000000000000000
     0.0000000000000000    5.5078139999999998    0.0000000000000000
     0.0000000000000000    0.0000000000000000    5.5078139999999998
 Al  P  
   4   4
Cartesian
  0.0000000000000000  0.0000000000000000  0.0000000000000000
  0.0000000000000000  2.7539069999999999  2.7539069999999999
  2.7539069999999999  0.0000000000000000  2.7539069999999999
  2.7539069999999999  2.7539069999999999  0.0000000000000000
  1.3769534999999999  4.1308604999999998  4.1308604999999998
  1.3769534999999999  1.3769534999999999  1.3769534999999999
  4.1308604999999998  4.1308604999999998  1.3769534999999999
  4.1308604999999998  1.3769534999999999  4.1308604999999998
