Ni B 
 1.0000000000000000
     4.3386350000000000    0.0000000000000000    0.0000000000000000
     0.0000000000000000    5.1500610000000000    0.0000000000000000
     0.0000000000000000    0.0000000000000000    6.5481769999999999
 Ni  B  
  12   4
Cartesian
  2.8377406240049998  4.2209487951120002  6.1407428788830005
  0.6684231240050000  3.5041427048880003  0.4074341211170000
  3.6702118759950002  1.6459182951119999  3.6815226211169998
  1.5008943759950000  0.9291122048880001  2.8666543788829997
  3.7667681979199998  0.1450411679430000  1.6370442500000000
  1.5974506979200001  2.4299893320570001  4.9111327500000002
  2.7411843020800002  2.7200716679430004  1.6370442500000000
  0.5718668020800001  5.0050198320570001  4.9111327500000002
  2.8377406240049998  4.2209487951120002  3.6815226211169998
  0.6684231240050000  3.5041427048880003  2.8666543788829997
  3.6702118759950002  1.6459182951119999  6.1407428788830005
  1.5008943759950000  0.9291122048880001  0.4074341211170000
  2.4380178428199999  0.6055750727460000  4.9111327500000002
  0.2687003428200000  1.9694554272539999  1.6370442500000000
  4.0699346571800001  3.1806055727459999  4.9111327500000002
  1.9006171571800001  4.5444859272540006  1.6370442500000000
