Ga Ru Rh
 1.0000000000000000
     0.0000000000000000    2.9976630000000002    2.9976630000000002
     2.9976630000000002    0.0000000000000000    2.9976630000000002
     2.9976630000000002    2.9976630000000002    0.0000000000000000
 Ga  Ru  Rh 
   2   1   1
Cartesian
  0.0000000000000000  0.0000000000000000  0.0000000000000000
  2.9976630000000002  2.9976630000000002  2.9976630000000002
  4.4964945000000007  4.4964945000000007  4.4964945000000007
  1.4988315000000001  1.4988315000000001  1.4988315000000001
