Rb Na Tl F 
 1.0000000000000000
     0.0000000000000000    4.4971139999999998    4.4971139999999998
     4.4971139999999998    0.0000000000000000    4.4971139999999998
     4.4971139999999998    4.4971139999999998    0.0000000000000000
 Rb  Na  Tl  F  
   2   1   1   6
Cartesian
  6.7456709999999998  6.7456709999999998  6.7456709999999998
  2.2485569999999999  2.2485569999999999  2.2485569999999999
  4.4971139999999998  4.4971139999999998  4.4971139999999998
  0.0000000000000000  0.0000000000000000  0.0000000000000000
  2.1962015988119998  4.4971139999999998  4.4971139999999998
  4.4971139999999998  4.4971139999999998  2.1962015988119998
  6.7980264011879994  4.4971139999999998  4.4971139999999998
  4.4971139999999998  2.1962015988119998  4.4971139999999998
  4.4971139999999998  6.7980264011879994  4.4971139999999998
  4.4971139999999998  4.4971139999999998  6.7980264011879994
