Re Te S 
 1.0000000000000000
     6.2119980000000004    0.0000000000000000    3.5864989999999999
     2.0706660000000001    5.8567270000000002    3.5864989999999999
     0.0000000000000000    0.0000000000000000    7.1729950000000002
 Re  Te  S  
   4   4   4
Cartesian
  2.0706660000000001  4.1429315452600006  3.5864987073800001
  4.5962159068800004  0.5712651515800000  3.5864987073799997
  0.8078910465600000  0.5712651515800000  5.7736874280200006
  0.8078910465600000  0.5712651515800000  1.3993081572199999
  3.0824348209200001  2.1796102366850003  5.3389330249150007
  3.0824348209200001  2.1796102366850003  9.0070520350200010
  6.2591201461620001  2.1796102366850003  7.1729932970360002
  4.1413299293340007  5.1746174332180006  7.1729932970360002
  6.2119917880019999  2.2564680651060001 10.7594836257840001
  4.1980827430619998  5.1045651215710004 10.7594836257840001
  7.2189463104720000  5.1045651215710004  9.0153885534639997
  7.2189463104720000  5.1045651215710004 12.5035801569890008
