Ce P  Ru O 
 1.0000000000000000
     4.0208680000000001    0.0000000000000000    0.0000000000000000
     0.0000000000000000    4.0208680000000001    0.0000000000000000
     0.0000000000000000    0.0000000000000000    8.0192119999999996
 Ce  P   Ru  O  
   2   2   2   2
Cartesian
  0.0000000000000000  2.0104340000000001  6.8088161983559994
  2.0104340000000001  0.0000000000000000  1.2103958016439997
  2.0104340000000001  0.0000000000000000  5.1888311246000001
  0.0000000000000000  2.0104340000000001  2.8303808753999999
  0.0000000000000000  0.0000000000000000  4.0096059999999998
  2.0104340000000001  2.0104340000000001  4.0096059999999998
  2.0104340000000001  2.0104340000000001  0.0000000000000000
  0.0000000000000000  0.0000000000000000  0.0000000000000000
