Ti Mn Co
 1.0000000000000000
     0.0000000000000000    2.9557449999999998    2.9557449999999998
     2.9557449999999998    0.0000000000000000    2.9557449999999998
     2.9557449999999998    2.9557449999999998    0.0000000000000000
 Ti  Mn  Co 
   2   1   1
Cartesian
  0.0000000000000000  0.0000000000000000  0.0000000000000000
  2.9557390885100001  2.9557390885100001  2.9557390885100001
  4.4336174999999995  4.4336174999999995  4.4336174999999995
  1.4778784114899997  1.4778784114899997  1.4778784114899997
