Ce Zn
 1.0000000000000000
    -2.2677719999999999    3.6471269999999998    3.8018239999999999
     2.2964959999999999   -3.6635080000000002    3.8082780000000001
     2.2963119999999999    3.6812670000000001   -3.8097439999999998
 Ce  Zn 
   2   4
Cartesian
  2.3046284497439999  1.8365114001240002  0.2528574389419998
  0.0205581639240000  1.8284197951459997  3.5472036711819999
  2.2951310745959996  3.2683382349370000 -2.5508661967119997
  0.0298197211639998  0.3969061421849996  6.3513988688319998
  2.3071474366119999 -0.3938895241050001  2.5496085840760001
  0.0178254789960000  4.0583756165989993  1.2508754340379999
