Ti Mn Ru
 1.0000000000000000
     0.0000000000000000    3.0433919999999999    3.0433919999999999
     3.0433919999999999    0.0000000000000000    3.0433919999999999
     3.0433919999999999    3.0433919999999999    0.0000000000000000
 Ti  Mn  Ru 
   2   1   1
Cartesian
  0.0000000000000000  0.0000000000000000  0.0000000000000000
  3.0433980867840003  3.0433980867840003  3.0433980867840003
  1.5216959999999999  1.5216959999999999  1.5216959999999999
  4.5650819132159999  4.5650819132159999  4.5650819132159999
