Cs Pt C 
 1.0000000000000000
     5.7565480000000004    0.0000000000000000    0.0000000000000000
    -2.8782730000000001    4.9853160000000001    0.0000000000000000
     0.0000000000000000    0.0000000000000000    5.2556060000000002
 Cs  Pt  C  
   2   1   2
Cartesian
 -0.0000022116069999  3.3235456617720001  1.4167589650260002
  2.8782772116070006  1.6617703382280000  3.8388470349740000
  0.0000000000000000  0.0000000000000000  0.0000000000000000
  0.0000000000000000  0.0000000000000000  1.9901666020500000
  0.0000000000000000  0.0000000000000000  3.2654393979500003
