Ca Cu
 1.0000000000000000
     5.0456289999999999    0.0000000000000000    0.0000000000000000
    -2.5228139999999999    4.3696419999999998    0.0000000000000000
     0.0000000000000000    0.0000000000000000    4.0173730000000001
 Ca  Cu 
   1   5
Cartesian
  0.0000000000000000  0.0000000000000000  0.0000000000000000
 -0.0000021894810000  2.9130961232139998  0.0000000000000000
  2.5228171894810001  1.4565458767859998  0.0000000000000000
  2.5228145000000000  0.0000000000000000  2.0086865000000000
  1.2614075000000000  2.1848209999999999  2.0086865000000000
 -1.2614069999999999  2.1848209999999999  2.0086865000000000
