Sc S 
 1.0000000000000000
     6.2906659999999999    0.0084080000000000   -1.1795880000000001
    -2.3600500000000002    5.8311849999999996   -1.1795880000000001
    -0.0004420000000000   -0.0006580000000000   11.6788969999999992
 Sc  S  
   8  12
Cartesian
 -1.6074929294080003  4.6148753463789998  5.8244759011479994
 -0.9505910705920003  5.5908134036209995  9.3346935988519988
  5.5376669294080001  1.2240596536209998  3.4952450988519992
  4.8807650705919992  0.2481215963790000 -0.0149725988520001
  2.0726227235260000  0.7448709523899999  2.3766428553289995
  4.0204512764739997  3.6386987976099996  1.1036296446709994
  1.8575512764739999  5.0940640476099990  6.9430781446709986
 -0.0902772764740001  2.2002362023899997  8.2160913553290005
  4.0669908485680004  3.7078405080889998  6.9669704405519992
  2.0256411514320001  0.6750712419109999  8.1921990594479990
 -0.1368168485680001  2.1310944919110000  2.3527505594479998
  1.9045328485680000  5.1638637580889997  1.1275219405519996
  5.5337096115119992  1.1315469876890001  9.2919086497419983
  0.4944304117259998  3.1555603911449999  5.9059666713019991
  4.9645417315360003  0.2859525373050000  5.8672608502579999
  1.1925735945099996  4.1927694066379999  9.2532028286979990
 -1.6035356115120003  4.7073880123110001  0.0278123502579999
  3.4357435882740002  2.6833746088549999  3.4137543286979994
 -1.0343677315360000  5.5529824626949997  3.4524601497419996
  2.7376004054900003  1.6461655933619999  0.0665181713019999
