Cs B  As
 1.0000000000000000
     6.8605200000000002   -0.0068560000000000    1.7613010000000000
    -0.3279220000000000    6.8526829999999999    1.7613010000000000
    -0.0084340000000000   -0.0088380000000000   10.1461210000000008
 Cs  B   As 
   6   2   4
Cartesian
  1.7199147388160001  1.0397009920040001  0.9120917665940000
  2.1423720453760002  4.4827512474080002  9.3708917500000002
  4.8042492611839993  5.7972880079960003 12.7566312334060008
  4.3817919546240010  2.3542377525919997  4.2978312500000007
  0.9538522787720000  1.7622696543019998  5.9851522665939996
  5.5703117212279993  5.0747193456979991  7.6835707334060004
  4.7912697917240008  1.9550522831420001  9.3708917500000002
  1.7328942082760002  4.8819367168580001  4.2978312499999998
  2.5052503803480000  5.7271352660890003  5.7784992845750009
  5.5993956511880008  2.7661177663090002 10.8515597845750005
  0.9247683488120000  4.0708712336910002  2.8171632154249999
  4.0189136196520003  1.1098537339110000  7.8902237154250008
