Na Al B  O 
 1.0000000000000000
     2.4362849999999998   -4.2197699999999996    0.0000000000000000
     2.4362849999999998    4.2197699999999996    0.0000000000000000
     0.0000000000000000    0.0000000000000000   15.5945090000000004
 Na  Al  B   O  
   4   4   4  14
Cartesian
  0.0000000000000000  0.0000000000000000  3.8986272500000001
  0.0000000000000000  0.0000000000000000  7.7972545000000002
  0.0000000000000000  0.0000000000000000  0.0000000000000000
  0.0000000000000000  0.0000000000000000 11.6958817499999999
  2.4362849999999998  1.4065928131800001  9.9618191327270011
  2.4362849999999998 -1.4065928131799998  2.1645646327270001
  2.4362849999999998  1.4065928131800001 13.4299443672730003
  2.4362849999999998 -1.4065928131799998  5.6326898672730001
  2.4362849999999998 -1.4065928131799998 13.9708243174290008
  2.4362849999999998  1.4065928131800001  6.1735698174289997
  2.4362849999999998  1.4065928131800001  1.6236846825710001
  2.4362849999999998 -1.4065928131799998  9.4209391825709989
  3.8159190875100002 -1.4985078433199996 13.9715884483700012
  1.0566509124900001 -1.4985078433199999  9.4201750516300002
  3.2057052198450000 -2.5554294154499999  9.4201750516300002
  1.8260711323349998  0.1658327412300000  6.1743339483700002
  1.6668647801549998  2.5554294154499999  6.1743339483700002
  1.6668647801549998 -2.5554294154499999 13.9715884483700012
  3.0464988676650000  0.1658327412299999  1.6229205516300000
  1.0566509124899999  1.4985078433199999  1.6229205516300000
  3.2057052198450000  2.5554294154499999  1.6229205516300000
  3.0464988676650000 -0.1658327412300000  9.4201750516300002
  1.8260711323349998 -0.1658327412300001 13.9715884483700012
  3.8159190875099998  1.4985078433199999  6.1743339483700002
  2.4362849999999998 -1.4065928131799998  3.8986272500000001
  2.4362849999999998  1.4065928131800001 11.6958817499999999
