Co Si
 1.0000000000000000
     3.7149369999999999    0.0000000000000000    0.0000000000000000
     0.0000000000000000    4.8826060000000000    0.0000000000000000
     0.0000000000000000    0.0000000000000000    7.0453029999999996
 Co  Si 
   8   4
Cartesian
  2.7862027500000002  4.0344289813160001  3.9809414148469999
  0.9287342500000000  0.8481770186840001  3.0643615851529997
  2.7862027500000002  1.5931259813160001  6.5870130851529991
  0.9287342500000000  3.2894800186840003  0.4582899148469999
  0.9287342500000000  2.6194741755460003  5.0559207918899993
  2.7862027500000002  2.2631318244540002  1.9893822081099999
  0.9287342500000000  0.1781711755460000  5.5120337081099997
  2.7862027500000002  4.7044348244540002  1.5332692918899999
  0.9287342500000000  0.9905147487960000  0.7433640101360000
  2.7862027500000002  3.8920912512040000  6.3019389898639995
  0.9287342500000000  3.4318177487960000  2.7792874898640001
  2.7862027500000002  1.4507882512040000  4.2660155101360004
