Cs H  Se O 
 1.0000000000000000
     8.6861590000000000    0.0000000000000000    0.0000000000000000
     0.0000000000000000    7.9639800000000003    0.0000000000000000
     0.0000000000000000    2.8542740000000002    7.6406239999999999
 Cs  H   Se  O  
   4   4   4  16
Cartesian
  5.4302739050760005  4.3546818180039999  5.3948612314240005
  1.0871944050760001  2.4815821819960000  2.2457627685760002
  3.2558850949239999  6.4635721819960006  2.2457627685760002
  7.5989645949239994  8.3366718180040014  5.3948612314240005
  2.5400326732570000  2.8451664857700001  6.7973665322399999
  6.8831121732569995  3.9910975142300007  0.8432574677600000
  6.1461263267430004  7.9730875142300004  0.8432574677600000
  1.8030468267430000  6.8271564857699998  6.7973665322399999
  1.1085536700569998  4.3818594013599999  5.7748600254399998
  5.4516331700570007  2.4544045986400000  1.8657639745599999
  7.5776053299429993  6.4363945986399997  1.8657639745599999
  3.2345258299430002  8.3638494013600013  5.7748600254399998
  1.8419434467450000  3.5202924734260002  7.1426768932959996
  6.1850229467449998  3.3159715265740002  0.4979471067040001
  6.8442155532550002  7.2979615265739994  0.4979471067040001
  2.5011360532550002  7.5022824734260007  7.1426768932959996
  3.7141842160819998  9.7872453761199996  6.5111105540800001
  8.0572637160819998  5.0129986238799997  1.1295134459199998
  4.9719747839179993  1.0310086238800000  1.1295134459199998
  0.6288952839180000  5.8052553761199999  6.5111105540800001
  4.5211718179770006  7.4907247510020012  5.2287311437919994
  0.1780923179770000  7.3095192489979999  2.4118928562080000
  4.1649871820230002  3.3275292489980002  2.4118928562080000
  8.5080666820229993  3.5087347510020002  5.2287311437919994
  2.0531734613069998  8.5693095958700010  4.6384318148000006
  6.3962529613070007  6.2309344041300001  3.0021921852000002
  6.6329855386929992  2.2489444041300000  3.0021921852000002
  2.2899060386930001  4.5873195958700004  4.6384318148000006
