Li Ga Se
 1.0000000000000000
     6.5895739999999998    0.0000000000000000    0.0000000000000000
     0.0000000000000000    6.8695320000000004    0.0000000000000000
     0.0000000000000000    0.0000000000000000    8.2642799999999994
 Li  Ga  Se 
   4   4   8
Cartesian
  0.7881723565659999  6.2760662609880002  5.1369607480799990
  4.0829593565659996  0.5934657390120001  3.1273192519199995
  4.0829593565659996  4.0282317390119999  1.0048207480800000
  0.7881723565659999  2.8413002609880000  7.2594592519200001
  4.1035320065940004  3.9386118245400001  5.1718194811200000
  0.8087450065940001  2.9309201754600003  3.0924605188799994
  0.8087450065940001  6.3656861754600005  1.0396794811199999
  4.1035320065940004  0.5038458245399999  7.2246005188799991
  3.3332305747160000  6.2279726674560001  5.2431898031999999
  0.0384435747160000  0.6415593325440001  3.0210901967999999
  0.0384435747160000  4.0763253325440001  1.1110498032000000
  3.3332305747160000  2.7932066674560003  7.1532301967999992
  6.5225250845499998  0.4583283055080000  7.2824174217599991
  3.2277446741239997  6.4112036944920003  0.9818625782399999
  3.2277446741239997  2.9764376944920006  3.1502774217599994
  6.5225250845499998  3.8930943055079998  5.1140025782400000
