Lu Ag O 
 1.0000000000000000
    -1.6868030000000001   -2.9216280000000001    0.0000000000000000
    -3.3736039999999998    0.0000000000000000    0.0000000000000000
    -1.6868030000000001   -0.9738760000000000   -6.1966310000000000
 Lu  Ag  O  
   1   1   2
Cartesian
 -3.3736050000000000 -1.9477519999999999 -3.0983155000000000
  0.0000000000000000  0.0000000000000000  0.0000000000000000
 -5.0604038485959997 -2.9216260522480000 -2.0653433089310003
 -1.6868061514040000 -0.9738779477520000 -4.1312876910690006
