Zr Al
 1.0000000000000000
     3.8971610000000001   -0.0009900000000000   -0.8790140000000000
    -0.1995540000000000    3.8920499999999998   -0.8790160000000000
     0.0016090000000000    0.0016940000000000    9.0726630000000004
 Zr  Al 
   2   6
Cartesian
  0.4396283712200000  0.4626292329359999  1.9464982131720001
  3.2595876287799999  3.4301247670639996  5.3681347868280005
  1.9485805000000000 -0.0004950000000000 -0.4395070000000000
 -0.0997770000000000  1.9460249999999999 -0.4395080000000000
  2.8736187846850005  0.9732766146400000  3.6573169999180002
  0.8255972153150000  2.9194773853600000  3.6573160000820000
  1.3868840223310002  1.4594442338460001  6.1403135636670001
  2.3123319776689999  2.4333097661539997  1.1743194363330003
