La Si Pt
 1.0000000000000000
     4.2733480000000004    0.0000000000000000    0.0000000000000000
     0.0000000000000000    4.2120660000000001   -1.0853770000000000
     0.0000000000000000    0.0044460000000000    8.7328980000000005
 La  Si  Pt 
   2   4   2
Cartesian
  1.0683370000000001  3.7718171997600001  5.9217958024700010
  3.2050110000000003  0.4446948002400000  1.7257251975300001
  1.0683370000000001  1.0534118296320001  4.0880207614710002
  3.2050110000000003  3.1631001703680002  3.5595002385290004
  3.2050110000000003  1.9584738560580002  7.6003091180740006
  1.0683370000000001  2.2580381439420005  0.0472118819260000
  3.2050110000000003  1.3486593953699999  5.2337895767850000
  1.0683370000000001  2.8678526046300004  2.4137314232150002
