Lu Zn Rh
 1.0000000000000000
     0.0000000000000000    3.1564510000000001    3.1564510000000001
     3.1564510000000001    0.0000000000000000    3.1564510000000001
     3.1564510000000001    3.1564510000000001    0.0000000000000000
 Lu  Zn  Rh 
   1   1   2
Cartesian
  1.5782255000000001  1.5782255000000001  1.5782255000000001
  4.7346765000000000  4.7346765000000000  4.7346765000000000
  0.0000000000000000  0.0000000000000000  0.0000000000000000
  3.1564573129020004  3.1564573129020004  3.1564573129020004
