Ca S  O 
 1.0000000000000000
     4.6713240000000003   -0.0195410000000000    0.0000000000000000
    -0.5341350000000000    4.6407280000000002    0.0000000000000000
     0.0000000000000000    0.0000000000000000    7.0052009999999996
 Ca  S   O  
   2   2   8
Cartesian
  1.4519547539280000  1.6218148200239999  5.2539007499999997
  2.6852342460720000  2.9993721799760000  1.7513002499999999
  3.5069420393070008  3.9172092359810002  5.2539007499999997
  0.6302469606930000  0.7039777640190000  1.7513002499999999
  0.3033807458850000  3.7949158247270005  5.2539007499999997
  3.8338082541150000  0.8262711752730001  1.7513002499999999
  3.7383798526410006  0.7196788759310000  5.2539007499999997
  0.3988091473590000  3.9015081240690002  1.7513002499999999
  1.2197757072480000  1.3624738055840000  0.5711340375300000
  2.9174132927520002  3.2587131944160004  4.0737345375300000
  1.2197757072480000  1.3624738055840000  2.9314664624700000
  2.9174132927520002  3.2587131944160004  6.4340669624699993
