Nb Si Tc
 1.0000000000000000
     0.0000000000000000    3.0784600000000002    3.0784600000000002
     3.0784600000000002    0.0000000000000000    3.0784600000000002
     3.0784600000000002    3.0784600000000002    0.0000000000000000
 Nb  Si  Tc 
   1   1   2
Cartesian
  1.5392300000000001  1.5392300000000001  1.5392300000000001
  4.6176900000000005  4.6176900000000005  4.6176900000000005
  0.0000000000000000  0.0000000000000000  0.0000000000000000
  3.0784600000000002  3.0784600000000002  3.0784600000000002
