Ti Fe
 1.0000000000000000
     2.9559419999999998    0.0000000000000000    0.0000000000000000
     0.0000000000000000    2.9559419999999998    0.0000000000000000
     0.0000000000000000    0.0000000000000000    2.9559419999999998
 Ti  Fe 
   1   1
Cartesian
  0.0000000000000000  0.0000000000000000  0.0000000000000000
  1.4779709999999999  1.4779709999999999  1.4779709999999999
