Mn Co P 
 1.0000000000000000
     3.4540829999999998    0.0000000000000000    0.0000000000000000
     0.0000000000000000    5.9353340000000001    0.0000000000000000
     0.0000000000000000    0.0000000000000000    6.6334689999999998
 Mn  Co  P  
   4   4   4
Cartesian
  2.5905622499999996  0.1596901612700000  4.4343944248720000
  0.8635207499999999  5.7756438387300006  2.1990745751279999
  2.5905622499999996  3.1273571612700000  5.5158090751279998
  0.8635207499999999  2.8079768387300001  1.1176599248720001
  0.8635207499999999  2.1298530585620004  3.7532698279519998
  2.5905622499999996  3.8054809414379998  2.8801991720480000
  0.8635207499999999  5.0975200585620000  6.1969336720479999
  2.5905622499999996  0.8378139414380000  0.4365353279520000
  0.8635207499999999  4.3398628027940003  4.1468534441289995
  2.5905622499999996  1.5954711972060001  2.4866155558709999
  0.8635207499999999  1.3721958027940000  5.8033500558710003
  2.5905622499999996  4.5631381972059994  0.8301189441290000
