Al Cu
 1.0000000000000000
     5.8592769999999996    0.0000000000000000    0.0000000000000000
     0.0000000000000000    5.8592769999999996    0.0000000000000000
     0.0000000000000000    0.0000000000000000    5.8592769999999996
 Al  Cu 
   4  12
Cartesian
  0.0000000000000000  0.0000000000000000  0.0000000000000000
  0.0000000000000000  2.9296384999999998  2.9296384999999998
  2.9296384999999998  0.0000000000000000  2.9296384999999998
  2.9296384999999998  2.9296384999999998  0.0000000000000000
  2.9296384999999998  0.0000000000000000  0.0000000000000000
  4.3944577499999999  1.4648192499999999  1.4648192499999999
  1.4648192499999999  4.3944577499999999  4.3944577499999999
  2.9296384999999998  2.9296384999999998  2.9296384999999998
  4.3944577499999999  4.3944577499999999  4.3944577499999999
  1.4648192499999999  1.4648192499999999  1.4648192499999999
  0.0000000000000000  0.0000000000000000  2.9296384999999998
  1.4648192499999999  1.4648192499999999  4.3944577499999999
  4.3944577499999999  4.3944577499999999  1.4648192499999999
  0.0000000000000000  2.9296384999999998  0.0000000000000000
  1.4648192499999999  4.3944577499999999  1.4648192499999999
  4.3944577499999999  1.4648192499999999  4.3944577499999999
