Er B 
 1.0000000000000000
     3.2702439999999999    0.0000000000000000    0.0000000000000000
    -1.6351220000000000    2.8321139999999998    0.0000000000000000
     0.0000000000000000    0.0000000000000000    3.7909660000000001
 Er  B  
   1   2
Cartesian
  0.0000000000000000  0.0000000000000000  0.0000000000000000
 -0.0000016351220000  1.8880769440379999  1.8954830000000000
  1.6351236351220002  0.9440370559619999  1.8954830000000000
