Ti Ga N 
 1.0000000000000000
    -1.5004599999999999   -2.5988730000000002    0.0000000000000000
    -1.5004599999999999    2.5988730000000002    0.0000000000000000
     0.0000000000000000    0.0000000000000000  -13.2695190000000007
 Ti  Ga  N  
   4   2   2
Cartesian
 -1.5004599999999999 -0.8662927325820000 -5.4776043651239998
 -1.5004599999999999  0.8662927325820000 -7.7919146348760000
 -1.5004599999999999  0.8662927325820000 -12.1123638651240011
 -1.5004599999999999 -0.8662927325820000 -1.1571551348760001
 -1.5004599999999999 -0.8662927325820000 -9.9521392500000001
 -1.5004599999999999  0.8662927325820000 -3.3173797500000002
  0.0000000000000000  0.0000000000000000  0.0000000000000000
  0.0000000000000000  0.0000000000000000 -6.6347595000000004
