Tc Ru
 1.0000000000000000
    -1.3624639999999999   -2.3597809999999999    0.0000000000000000
    -1.3624639999999999    2.3597809999999999    0.0000000000000000
     0.0000000000000000    0.0000000000000000   -4.3128940000000000
 Tc  Ru 
   1   1
Cartesian
 -1.3624639999999999  0.7866707528460002 -1.0782235000000000
 -1.3624639999999999 -0.7866707528460002 -3.2346705000000000
