Li As
 1.0000000000000000
     4.3414710000000003    0.0000000000000000    0.0000000000000000
    -2.1707360000000002    3.7598250000000002    0.0000000000000000
     0.0000000000000000    0.0000000000000000    7.7456090000000000
 Li  As 
   6   2
Cartesian
  0.0000000000000000  0.0000000000000000  1.9364022500000000
  0.0000000000000000  0.0000000000000000  5.8092067499999995
 -0.0000025040690002  2.5065512532750001  4.5328465709349999
  2.1707375040690002  1.2532737467250001  0.6600420709350000
  2.1707375040690002  1.2532737467250001  3.2127624290650001
 -0.0000025040690002  2.5065512532750001  7.0855669290650001
 -0.0000025040690002  2.5065512532750001  1.9364022500000000
  2.1707375040690002  1.2532737467250001  5.8092067499999995
