Li Al F 
 1.0000000000000000
     8.1363009999999996   -0.0294470000000000    0.5569269999999999
     3.8866160000000001    7.1480410000000001    0.5569269999999999
     0.0714470000000000    0.0423030000000000    9.7376909999999999
 Li  Al  F  
  18   6  36
Cartesian
  4.7336174395000006  5.8397312404000008  7.8601952500000003
  7.3607465605000000  1.3211657596000002  2.9913497499999999
  9.0215424540709996  6.7076327360289998  5.0986728781209996
  1.8392988305690001  2.4551308216990000  0.8840266218789999
  3.0728215459290000  0.4532642639710000  5.7528721218790002
 10.2550651694309991  4.7057661783010003  9.9675183781209995
  4.8852034439839995  0.8715468464250000  0.8752377581190000
  8.9453644651910000  3.2755091445350000  5.1074617418810000
  7.2091605560159993  6.2893501535749996  9.9763072418809990
  3.1489995348089996  3.8853878554649999  5.7440832581189998
  5.6652754600869990  4.8209689482840004  5.0898313051080004
  5.1074188582829994  4.4906700655399998  0.8928681948919999
  6.4290885399129989  2.3399280517159999  5.7617136948920002
  6.9869451417169994  2.6702269344600000  9.9586768051079986
  9.2624596782869997  2.0758848629910003  7.8384612395909992
  5.8559978143429996  0.0589684303850000  7.8819292604090005
  2.8319043217130004  5.0850121370090005  3.0130837604089997
  6.2383661856570001  7.1019285696149996  2.9696157395910001
  0.0000000000000000  0.0000000000000000  0.0000000000000000
  4.1064610884409998  2.4579027151860000  8.1230034385080003
  8.0003678855540006  4.7634281766379996  7.5973870614920003
  7.9879029115589990  4.7029942848140003  2.7285415614919999
  4.0939961144460000  2.3974688233620003  3.2541579385079999
  0.0357235000000000  0.0211515000000000  4.8688454999999999
  5.5591919012909994  1.7698051252190001  2.4116300946229998
  0.8589752302230000  0.5453597284880000  3.3728120460379998
 11.1674229096820010  6.6488413729680005  2.6098874539620001
 11.2353887697769999  6.6155372715120002  7.4787329539620000
  0.9269410903180000  0.5120556270320000  8.2416575460380006
  2.5981196061069998  3.0033464660299996  8.9728946884279992
  6.5351720987090003  5.3910918747809999  8.4399149053770000
  4.2606842986910003  4.0444007576990000  7.2804755946229998
  5.4678601596530001  6.5353075806289995  6.1211458121510001
  7.8336797013089985  3.1164962423010003  3.5710694053769996
  8.1298047848759989  6.3265649471000005  1.9259585590999999
  2.6022200480439999  3.0537626268839997  4.0567409408999993
  3.9645592865709998  0.8343320952030000  8.9255961785909985
  9.4921438805089995  4.1071343308130004  6.7947943214090003
  6.5947571027479999  5.3860309677490008  3.6270426330909995
  4.1650224229069996  3.9474204321070001  2.3556568669089999
  5.4996068972519998  1.7748660322510001  7.2245023669089994
  7.9293415770930000  3.2134765678930002  8.4958881330910003
  3.1155891328800003  1.6544907417090000  1.8914475423630002
  9.1098217555750001  5.2035885967070001  4.0912519576369997
  8.9787748671200003  5.5064062582909994  8.9600974576369996
  9.4962443938930008  4.1575505339700003  1.8786503115719999
  5.4709363986170008  6.5712553866399999  1.2458566580560000
  3.6662241506530004  5.5027116588639995  4.7368428419440001
  6.6234276013829998  0.5896416133600000  9.6056883419440009
  8.4281398493469997  1.6581853411360001  6.1147021580559997
  3.7706694217019998  5.5304257718670007  9.5992446878489996
  2.9845422444249996  1.9573084032930002  6.7602930423630001
  8.3236945782979994  1.6304712281330001  1.2523003121509999
  6.6265038403470005  0.6255894193710000  4.7303991878489997
  5.0344976789849998  3.0541757266170002  4.6539020818049996
  6.9598535863349991  4.1941508118469999  1.3287974181950000
  7.0598663210150008  4.1067212733830001  6.1976429181949992
  5.1345104136649997  2.9667461881530000  9.5227475818049996
  3.8469356420019993  0.8126772007340000  4.1040491884280001
  8.2474283579979986  6.3482197992660003  6.7474958115720005
