Al Co
 1.0000000000000000
     6.1779060000000001    0.0000000000000000   -0.5286250000000000
     0.0000000000000000    6.2817639999999999    0.0000000000000000
    -0.0026220000000000    0.0000000000000000    8.5496230000000004
 Al  Co 
  18   4
Cartesian
  0.0000000000000000  0.0000000000000000  0.0000000000000000
 -0.0013110000000000  3.1408820000000000  4.2748115000000002
  3.6711046557720004  0.2109479168840000  5.9460861807700001
  2.5028683442279998  3.3518299168839998  6.3497233192300007
  2.5041793442279996  6.0708160831160001  2.0749118192300000
  3.6724156557720002  2.9299340831159997  1.6712746807700001
  5.6346518466780005  4.4619055603800000  6.1048891629410003
  0.5393211533220000  1.3210235603800000  6.1909203370590005
  0.5406321533220000  1.8198584396199999  1.9161088370590000
  5.6359628466779998  4.9607404396199994  1.8300776629410003
  3.7656117156900000  5.0764128419160004 -0.2983165999650000
  2.4109832843099999  1.9355308419159998  4.0445030999650005
  2.4096722843100000  1.2053511580840000  8.3193145999650007
  3.7643007156900001  4.3462331580839999  3.9764949000350001
  4.8448943198040002  2.4245473240239996  7.7597135147540000
  1.3290786801960000  5.5654293240240005  4.5360959852460008
  1.3303896801960000  3.8572166759759998  0.2612844852460000
  4.8462053198040005  0.7163346759760000  3.4849020147540002
  4.5463647929400004  2.3963359219000000  5.3100102530499997
  1.6276082070600000  5.5372179219000000  6.9857992469500010
  1.6289192070599998  3.8854280780999999  2.7109877469499999
  4.5476757929399998  0.7445460781000001  1.0351987530500000
