Na Tl Bi
 1.0000000000000000
     0.0000000000000000    3.8161610000000001    3.8161610000000001
     3.8161610000000001    0.0000000000000000    3.8161610000000001
     3.8161610000000001    3.8161610000000001    0.0000000000000000
 Na  Tl  Bi 
   2   1   1
Cartesian
  3.8161686323220003  3.8161686323220003  3.8161686323220003
  0.0000000000000000  0.0000000000000000  0.0000000000000000
  5.7242414999999998  5.7242414999999998  5.7242414999999998
  1.9080728676780001  1.9080728676780001  1.9080728676780001
