Mg Ta Ru
 1.0000000000000000
     0.0000000000000000    3.1136930000000000    3.1136930000000000
     3.1136930000000000    0.0000000000000000    3.1136930000000000
     3.1136930000000000    3.1136930000000000    0.0000000000000000
 Mg  Ta  Ru 
   1   1   2
Cartesian
  1.5568465000000000  1.5568465000000000  1.5568465000000000
  4.6705332726139996  4.6705332726139996  4.6705332726139996
  0.0000000000000000  0.0000000000000000  0.0000000000000000
  3.1136930000000000  3.1136930000000000  3.1136930000000000
