Ca Au
 1.0000000000000000
     7.2899799999999999    0.0000000000000000   -2.5393550000000000
     0.0000000000000000    8.0602219999999996    0.0000000000000000
     0.0031680000000000    0.0000000000000000    8.0494400000000006
 Ca  Au 
  10   8
Cartesian
  0.5019705278200001  2.5879115979840002  5.3938680760650008
  4.1469605278200001  1.4421994020160001  4.1241905760650006
  3.1461874721799998  6.6180225979839999  1.3858944239350000
  1.8424004804679996  2.6525062170919997  1.4242867630950000
  0.0000000000000000  0.0000000000000000  0.0000000000000000
  6.7911774721800002  5.4723104020159994  0.1162169239350000
  1.8057575195319999  6.6826172170920000  5.3554757369050003
  5.4873904804680000  1.3776047829080000  0.1546092630949998
  5.4507475195319994  5.4077157829079994  4.0857982369050010
  3.6449900000000000  4.0301109999999998 -1.2696775000000000
  4.5859766115760001  7.0079358372339993 -1.4964861307900001
  6.2424118135360001  7.7948794917599997  2.4988660026400007
  2.7071713884239998  1.0522861627660001  7.0065711307900003
  2.5974218135359997  4.2954535082399996  3.7685435026400005
  6.3521613884239994  2.9778248372339999  5.7368936307900000
  4.6957261864640003  3.7647684917599999  1.7415414973600003
  1.0507361864639999  0.2653425082399999  3.0112189973600003
  0.9409866115759999  5.0823971627660001 -0.2268086307900000
