Hf Ga Co
 1.0000000000000000
     4.0961710000000000    0.0000000000000000    0.0000000000000000
     0.0000000000000000    4.0961710000000000    0.0000000000000000
     0.0000000000000000    0.0000000000000000    6.5239770000000004
 Hf  Ga  Co 
   1   5   1
Cartesian
  0.0000000000000000  0.0000000000000000  0.0000000000000000
  0.0000000000000000  2.0480855000000000  1.9801444510860002
  0.0000000000000000  2.0480855000000000  4.5438325489140006
  2.0480855000000000  0.0000000000000000  1.9801444510860002
  2.0480855000000000  0.0000000000000000  4.5438325489140006
  2.0480855000000000  2.0480855000000000  0.0000000000000000
  0.0000000000000000  0.0000000000000000  3.2619885000000002
