Pt
 1.0000000000000000
     3.9763579999999998    0.0000000000000000    0.0000000000000000
     0.0000000000000000    3.9763579999999998    0.0000000000000000
     0.0000000000000000    0.0000000000000000    3.9763579999999998
 Pt 
   4
Cartesian
  0.0000000000000000  0.0000000000000000  0.0000000000000000
  0.0000000000000000  1.9881789999999999  1.9881789999999999
  1.9881789999999999  0.0000000000000000  1.9881789999999999
  1.9881789999999999  1.9881789999999999  0.0000000000000000
