Ba Na Bi
 1.0000000000000000
     4.3483640000000001   -7.5315880000000002    0.0000000000000000
     4.3483640000000001    7.5315880000000002    0.0000000000000000
     0.0000000000000000    0.0000000000000000    5.1607250000000002
 Ba  Na  Bi 
   3   3   3
Cartesian
  1.8166856021040001 -3.1465920241680001  0.0000000000000000
  5.0633567957920000  0.0000000000000001  0.0000000000000000
  1.8166856021040001  3.1465920241680001  0.0000000000000000
  3.3041087337640005 -5.7228846733880001  2.5803625000000001
  3.3041087337640005  5.7228846733880001  2.5803625000000001
  2.0885105324720001 -0.0000000000000000  2.5803625000000001
  0.0000000000000000  0.0000000000000000  0.0000000000000000
  4.3483640000000001  2.5105343543920000  2.5803625000000001
  4.3483640000000001 -2.5105343543920005  2.5803625000000001
