Na Ga
 1.0000000000000000
     3.9561820000000001    0.0000000000000000   -1.3899729999999999
    -0.4883550000000000    3.9259249999999999   -1.3899729999999999
    -0.0072700000000000   -0.0082310000000000    6.3043969999999998
 Na  Ga 
   1   4
Cartesian
  0.0000000000000000  0.0000000000000000  0.0000000000000000
  0.6191442500000000  2.9403282499999999  1.7622255000000000
  1.3444820481280002  1.5220868758730000  3.8266984028350000
  2.1160784196989999  2.3956110500519996 -0.3022501827809997
  2.8414127499999999  0.9773657499999999  1.7622255000000000
