Sc B  O 
 1.0000000000000000
     4.3472910000000002   -0.0026050000000000    3.8393700000000002
     1.7299530000000001    3.9882590000000002    3.8393700000000002
    -0.0039710000000000   -0.0026050000000000    5.7999749999999999
 Sc  B   O  
   2   2   6
Cartesian
  3.0366365000000002  1.9915245000000001  6.7393575000000006
  0.0000000000000000  0.0000000000000000  0.0000000000000000
  4.5549547500000003  2.9872867500000000 10.1090362499999991
  1.5183182500000001  0.9957622500000001  3.3696787500000003
  3.3261768768840003  0.1525510714240000  5.7029710201950001
  3.3012326302580002  2.9898917500000004  4.8757564798050002
  5.1090912571420004  2.1466805714240000  7.2090487500000000
  2.7470961231160000  3.8304979285760004  7.7757439798050001
  2.7720403697420002  0.9931572500000001  8.6029585201949992
  0.9641817428580001  1.8363684285760002  6.2696662500000002
