Ti Cr
 1.0000000000000000
     4.8644489999999996    0.0000000000000000    0.0000000000000000
    -2.4322249999999999    4.2127369999999997    0.0000000000000000
     0.0000000000000000    0.0000000000000000   15.7728070000000002
 Ti  Cr 
   8  16
Cartesian
  2.4322267655580001  1.4042442624209999 13.3074857202859995
  0.0000000000000000  0.0000000000000000  1.4916185851829999
  0.0000000000000000  0.0000000000000000 14.2811884148170005
 -0.0000027655580000  2.8084927375789999  2.4653212797139998
  0.0000000000000000  0.0000000000000000  9.3780220851829998
 -0.0000027655580000  2.8084927375789999  5.4210822202860003
  0.0000000000000000  0.0000000000000000  6.3947849148169995
  2.4322267655580001  1.4042442624209999 10.3517247797140008
  2.4322244999999998  0.0000000000000000  7.8864035000000001
  1.2404243477699999  3.5246453893679996 11.8296052500000002
 -0.0000027655580000  2.8084927375789999  9.8385249583550003
  3.6726394555359989  0.6880916106320000  3.9432017500000001
  0.0000047011140000  1.3761747957899999 11.8296052500000002
 -1.2404154555359999  3.5246453893679996 11.8296052500000002
 -1.2161124999999999  2.1063684999999999  0.0000000000000000
  2.4322192988859994  2.8365622042099998  3.9432017500000001
 -1.2161124999999999  2.1063684999999999  7.8864035000000001
  1.1917996522300001  0.6880916106320000  3.9432017500000001
  2.4322267655580001  1.4042442624209999  5.9342820416449999
  2.4322244999999998  0.0000000000000000  0.0000000000000000
 -0.0000027655580000  2.8084927375789999 13.8206855416450001
  1.2161119999999999  2.1063684999999999  7.8864035000000001
  2.4322267655580001  1.4042442624209999  1.9521214583549999
  1.2161119999999999  2.1063684999999999  0.0000000000000000
