Zr Si
 1.0000000000000000
     3.7568450000000002    0.0000000000000000    0.0000000000000000
     0.0000000000000000    3.5259480000000001   -1.3382740000000000
     0.0000000000000000    0.0019100000000000    5.3190710000000001
 Zr  Si 
   2   2
Cartesian
  0.9392112500000001  1.2525417045680001  3.3000674596680004
  2.8176337500000002  2.2753162954319999  0.6807295403320001
  0.9392112500000001  0.2758513692000000  0.7267846842000000
  2.8176337500000002  3.2520066308000000  3.2540123158000003
