Gd Bi Br O 
 1.0000000000000000
     3.9446610000000000    0.0000000000000000    0.0000000000000000
     0.0000000000000000    3.9446610000000000    0.0000000000000000
     0.0000000000000000    0.0000000000000000    9.3724629999999998
 Gd  Bi  Br  O  
   1   2   1   4
Cartesian
  0.0000000000000000  0.0000000000000000  0.0000000000000000
  1.9723305000000000  1.9723305000000000  2.5293559622730002
  1.9723305000000000  1.9723305000000000  6.8431070377270000
  0.0000000000000000  0.0000000000000000  4.6862314999999999
  0.0000000000000000  1.9723305000000000  1.4209778603559999
  1.9723305000000000  0.0000000000000000  7.9514851396440003
  0.0000000000000000  1.9723305000000000  7.9514851396440003
  1.9723305000000000  0.0000000000000000  1.4209778603559999
