Mn Fe Si
 1.0000000000000000
     5.5925950000000002   -0.0000010000000000   -0.0000010000000000
    -0.0000010000000000    5.5925950000000002   -0.0000010000000000
    -0.0000010000000000   -0.0000010000000000    5.5925989999999999
 Mn  Fe  Si 
   4   8   4
Cartesian
  0.0000000000000000  0.0000000000000000  0.0000000000000000
 -0.0000010000000000  2.7962970000000000  2.7962989999999999
  2.7962970000000000 -0.0000010000000000  2.7962989999999999
  2.7962970000000000  2.7962970000000000 -0.0000010000000000
  1.3981472499999998  4.1944452500000002  4.1944482499999998
  4.1944457499999999  1.3981477499999999  1.3981487500000001
  1.3981482500000000  1.3981482500000000  1.3981492499999999
  4.1944447500000006  4.1944447500000006  4.1944477500000001
  4.1944452500000002  4.1944452500000002  1.3981482500000000
  1.3981477499999999  1.3981477499999999  4.1944487500000003
  4.1944452500000002  1.3981472499999998  4.1944482499999998
  1.3981477499999999  4.1944457499999999  1.3981487500000001
 -0.0000005000000000  2.7962975000000001 -0.0000005000000000
 -0.0000005000000000 -0.0000005000000000  2.7962994999999999
  2.7962965000000000  2.7962965000000000  2.7962984999999998
  2.7962975000000001 -0.0000005000000000 -0.0000005000000000
