Na Pm Au
 1.0000000000000000
     0.0000040000000000    3.5575700000000001    3.5575700000000001
     3.5575700000000001    0.0000040000000000    3.5575700000000001
     3.5575700000000001    3.5575700000000001    0.0000040000000000
 Na  Pm  Au 
   1   1   2
Cartesian
  1.7787788848560000  1.7787788848560000  1.7787788848560000
  5.3363508848559995  5.3363508848560004  5.3363508848560004
  3.5575862302879995  3.5575862302879999  3.5575862302879999
  7.1151368848559997  7.1151368848560006  7.1151368848560006
