Th Mn N 
 1.0000000000000000
     3.4206910000000001    0.0000000000000000   -0.9070800000000000
    -0.2815520000000000    3.7172839999999998   -1.0617660000000000
    -0.0039970000000000   -0.0537240000000000    6.8883599999999996
 Th  Mn  N  
   2   1   3
Cartesian
  2.0233945251550001  2.3818480200040000  0.7269984496860000
  1.1117474748450000  1.2817119799960000  4.1925155503139999
  0.0000000000000000  0.0000000000000000  0.0000000000000000
  2.6243583241440001  3.0746875607680000  2.9932817376599994
  0.5107836758560002  0.5888724392320001  1.9262322623399999
 -0.1407760000000000  1.8586419999999999 -0.5308830000000000
