Rb Cu F 
 1.0000000000000000
     4.1951599999999996    0.0000000000000000    0.0000000000000000
     0.0000000000000000    4.1952090000000002    0.0005780000000000
    -2.0975809999999999   -2.0970249999999999    6.6269890000000000
 Rb  Cu  F  
   2   1   4
Cartesian
 -0.0000007132320001  0.0006482496480001  4.7267867748640002
  2.0975797132319993  2.0975357503520002  1.9007802251360002
  0.0000000000000000  0.0000000000000000  0.0000000000000000
 -0.0000002887100000 -0.0000340625870000  1.9133614036360000
  2.0975792887099995  2.0982180625870006  4.7142055963639997
  0.0000000000000000  2.0976045000000001  0.0002890000000000
  2.0975799999999998  0.0000000000000000  0.0000000000000000
