Y  Ni Ge
 1.0000000000000000
     3.7797960000000002    0.0000000000000000   -1.4461690000000000
    -0.5533120000000000    3.7390770000000000   -1.4461690000000000
    -0.0115380000000000   -0.0133710000000000    5.6324790000000000
 Y   Ni  Ge 
   1   2   2
Cartesian
  0.0000000000000000  0.0000000000000000  0.0000000000000000
  2.6907500000000000  0.9280837500000000  1.3700705000000000
  0.5241960000000000  2.7976222499999999  1.3700705000000000
  2.0276604976820005  2.3497958676509998 -0.3630255283190001
  1.1872855023180002  1.3759101323489999  3.1031665283189995
