Cu Au F 
 1.0000000000000000
     3.7020849999999998    0.0417560000000000    0.5413050000000000
     1.6003430000000001    4.6915079999999998    0.0287260000000000
    -0.0113170000000000    0.0175740000000000    5.4982040000000003
 Cu  Au  F  
   1   1   5
Cartesian
  0.7945130000000000  2.3545409999999998  2.7634650000000001
  0.0000000000000000  0.0000000000000000  0.0000000000000000
  2.6455554999999999  2.3754189999999999  3.0341175000000002
  4.5673041088299993  4.0990135240199992  2.2615395510870000
  1.1243108289150001  1.2741410873420000  0.9629762625640000
  4.1668001710849998  3.4766969126579998  5.1052587374360003
  0.7238068911700000  0.6518244759800000  3.8066954489130005
