Ti Cd Hg
 1.0000000000000000
     4.4652729999999998    0.0000000000000000    0.0000000000000000
     0.0000000000000000    4.4652729999999998    0.0000000000000000
     0.0000000000000000    0.0000000000000000    4.1486989999999997
 Ti  Cd  Hg 
   1   1   2
Cartesian
  2.2326364999999999  2.2326364999999999  0.0000000000000000
  0.0000000000000000  0.0000000000000000  0.0000000000000000
  0.0000000000000000  2.2326364999999999  2.0743494999999998
  2.2326364999999999  0.0000000000000000  2.0743494999999998
