Mg Te
 1.0000000000000000
     7.0874480000000002    0.0000000000000000    0.0000000000000000
     0.0000000000000000    7.0874480000000002    0.0000000000000000
     0.0000000000000000    0.0000000000000000    7.0874480000000002
 Mg  Te 
   4   8
Cartesian
  0.0000000000000000  0.0000000000000000  0.0000000000000000
  3.5437240000000001  0.0000000000000000  3.5437240000000001
  3.5437240000000001  3.5437240000000001  0.0000000000000000
  0.0000000000000000  3.5437240000000001  3.5437240000000001
  2.7444370517999999  2.7444370517999999  2.7444370517999999
  0.7992869482000000  4.3430109481999999  6.2881610518000004
  6.2881610518000004  0.7992869482000000  4.3430109481999999
  4.3430109481999999  6.2881610518000004  0.7992869482000000
  4.3430109481999999  4.3430109481999999  4.3430109481999999
  6.2881610518000004  2.7444370517999999  0.7992869482000000
  0.7992869482000000  6.2881610518000004  2.7444370517999999
  2.7444370517999999  0.7992869482000000  6.2881610518000004
