Mg Si As
 1.0000000000000000
     5.9123120000000000    0.0000000000000000    0.0000000000000000
     0.0000000000000000    5.9123120000000000    0.0000000000000000
    -2.9561560000000000   -2.9561560000000000    5.3507179999999996
 Mg  Si  As 
   2   2   4
Cartesian
  2.9561560000000000  2.9561560000000000  0.0000000000000000
  2.9561560000000000  0.0000000000000000  2.6753589999999998
  0.0000000000000000  0.0000000000000000  0.0000000000000000
  0.0000000000000000  2.9561560000000000  2.6753589999999998
 -1.4780780000000000  1.6922633268239999  4.0130384999999995
  1.2638926731760001  1.4780780000000000  1.3376794999999999
  4.6484193268240004  4.4342340000000000  1.3376794999999999
  1.4780780000000000 -1.6922633268239999  4.0130384999999995
