Ti Re W 
 1.0000000000000000
     0.0000000000000000    3.1219310000000000    3.1219310000000000
     3.1219310000000000    0.0000000000000000    3.1219310000000000
     3.1219310000000000    3.1219310000000000    0.0000000000000000
 Ti  Re  W  
   1   2   1
Cartesian
  3.1219310000000000  3.1219310000000000  3.1219310000000000
  1.5609655000000000  1.5609655000000000  1.5609655000000000
  4.6828965000000000  4.6828965000000000  4.6828965000000000
  0.0000000000000000  0.0000000000000000  0.0000000000000000
