Tb Cu
 1.0000000000000000
     3.4555060000000002    0.0000000000000000    0.0000000000000000
     0.0000000000000000    3.4555060000000002    0.0000000000000000
     0.0000000000000000    0.0000000000000000    3.4555060000000002
 Tb  Cu 
   1   1
Cartesian
  1.7277530000000001  1.7277530000000001  1.7277530000000001
  0.0000000000000000  0.0000000000000000  0.0000000000000000
