Ti Al
 1.0000000000000000
     3.8445760000000000    0.0000000000000000    0.0000000000000000
     0.0000000000000000    3.8445760000000000    0.0000000000000000
     0.0000000000000000    0.0000000000000000    8.6210730000000009
 Ti  Al 
   2   6
Cartesian
  0.0000000000000000  0.0000000000000000  0.0000000000000000
  1.9222880000000000  1.9222880000000000  4.3105365000000004
  1.9222880000000000  1.9222880000000000  0.0000000000000000
  1.9222880000000000  0.0000000000000000  6.4658047500000002
  0.0000000000000000  1.9222880000000000  6.4658047500000002
  0.0000000000000000  0.0000000000000000  4.3105365000000004
  0.0000000000000000  1.9222880000000000  2.1552682500000002
  1.9222880000000000  0.0000000000000000  2.1552682500000002
