Li Mg Ag
 1.0000000000000000
     0.0000000000000000    3.3099500000000002    3.3099500000000002
     3.3099500000000002    0.0000000000000000    3.3099500000000002
     3.3099500000000002    3.3099500000000002    0.0000000000000000
 Li  Mg  Ag 
   1   2   1
Cartesian
  4.9649250000000000  4.9649250000000000  4.9649250000000000
  3.3099433801000004  3.3099433801000004  3.3099433801000004
  0.0000000000000000  0.0000000000000000  0.0000000000000000
  1.6549816198999998  1.6549816198999998  1.6549816198999998
