Os O 
 1.0000000000000000
     3.2091240000000001    0.0000000000000000    0.0000000000000000
     0.0000000000000000    4.4782099999999998    0.0000000000000000
     0.0000000000000000    0.0000000000000000    4.4782099999999998
 Os  O  
   2   4
Cartesian
  0.0000000000000000  0.0000000000000000  0.0000000000000000
  1.6045620000000000  2.2391049999999999  2.2391049999999999
  0.0000000000000000  1.3804306235499999  1.3804306235499999
  1.6045620000000000  0.8586743764500000  3.6195356235499996
  1.6045620000000000  3.6195356235499996  0.8586743764500000
  0.0000000000000000  3.0977793764500001  3.0977793764500001
