La N 
 1.0000000000000000
     3.2459419999999999    0.0000000000000000    1.8740460000000001
     1.0819810000000001    3.0603039999999999    1.8740460000000001
     0.0000000000000000    0.0000000000000000    3.7480899999999999
 La  N  
   1   1
Cartesian
  0.0000000000000000  0.0000000000000000  0.0000000000000000
  2.1639615000000001  1.5301520000000000  3.7480910000000001
