La Mn Ge
 1.0000000000000000
    -2.1199780000000001    2.1199780000000001    5.5915080000000001
     2.1199780000000001   -2.1199780000000001    5.5915080000000001
     2.1199780000000001    2.1199780000000001   -5.5915080000000001
 La  Mn  Ge 
   1   2   2
Cartesian
  0.0000000000000000  0.0000000000000000  0.0000000000000000
 -0.0000000000000002  2.1199780000000006  2.7957540000000001
  2.1199780000000001  0.0000000000000000  2.7957540000000001
 -0.0000000000000000  0.0000000000000000  6.9002675454959999
  0.0000000000000000 -0.0000000000000000  4.2827484545040004
