Cr Sb
 1.0000000000000000
     3.4330790000000002    0.0000000000000000    0.0000000000000000
     0.0000000000000000    6.0048870000000001    0.0000000000000000
     0.0000000000000000    0.0000000000000000    6.9046919999999998
 Cr  Sb 
   2   4
Cartesian
  0.0000000000000000  0.0000000000000000  0.0000000000000000
  1.7165395000000001  3.0024435000000000  3.4523459999999999
  0.0000000000000000  1.0891904236079999  2.4997885010639997
  0.0000000000000000  4.9156965763920004  4.4049034989360001
  1.7165395000000001  4.0916339236079997  0.9525574989359999
  1.7165395000000001  1.9132530763920002  5.9521345010640001
