Zr As Ru
 1.0000000000000000
     6.6013859999999998    0.0000000000000000    0.0000000000000000
    -3.3006929999999999    5.7169670000000004    0.0000000000000000
     0.0000000000000000    0.0000000000000000    3.9189110000000000
 Zr  As  Ru 
   3   3   3
Cartesian
  1.3798877155800000  2.3900352240200000  1.9594555000000000
  3.8416105688399997  0.0000000000000000  1.9594555000000000
 -1.9208052844199999  3.3269317759800003  1.9594555000000000
  0.0000000000000000  0.0000000000000000  1.9594555000000000
  3.3006963006930001  1.9056537610110000  0.0000000000000000
 -0.0000033006930002  3.8113132389890003  0.0000000000000000
 -0.8044911076619999  1.3934192347780001  0.0000000000000000
  1.6089822153239999  0.0000000000000000  0.0000000000000000
  2.4962018923380001  4.3235477652220000  0.0000000000000000
