Pr Sb Pt
 1.0000000000000000
     4.5406480000000000    0.0000000000000000    0.0000000000000000
    -2.2703250000000001    3.9274860000000000    0.0000000000000000
     0.0000000000000000    0.0000000000000000    8.3786310000000004
 Pr  Sb  Pt 
   2   2   2
Cartesian
  0.0000045401780000  0.0018459184200000  6.2794404106290003
  2.2703184598220001  3.9256400815800001  2.0901249106290001
  2.2703236671860001  1.3071223256040001  8.3046141737459998
 -0.0000006671860001  2.6203636743959997  4.1152986737460004
  2.2703213951249994  1.3139443687860000  4.4689439309940004
  0.0000016048750000  2.6135416312139998  0.2796284309940000
