K  Cu Se
 1.0000000000000000
     3.7867229999999998    0.0083690000000000   -1.0655570000000001
    -0.3098320000000000    3.7747830000000002   -1.0658820000000000
     0.0515450000000000    0.0554640000000000    7.4539850000000003
 K   Cu  Se 
   1   2   2
Cartesian
  1.7384454999999999  1.8915760000000001 -1.0657195000000002
  2.7871331444080001  0.9786676075780001  2.6607972781979998
  0.7413028555920000  2.8599483924219999  2.6617487218020002
  0.5148114704440001  0.5603453934630001  1.8416235144540001
  3.0136244780109998  3.2782705510730001  3.4809150315610005
