Si Mo
 1.0000000000000000
     3.2210120000000000    0.0000000000000000    0.0000000000000000
     0.0000000000000000    3.2210120000000000    0.0000000000000000
     0.0000000000000000    0.0000000000000000    7.8755980000000001
 Si  Mo 
   4   2
Cartesian
  1.6105060000000000  1.6105060000000000  1.2976622824599999
  1.6105060000000000  1.6105060000000000  6.5779357175399999
  0.0000000000000000  0.0000000000000000  5.2354612824600002
  0.0000000000000000  0.0000000000000000  2.6401367175399999
  0.0000000000000000  0.0000000000000000  0.0000000000000000
  1.6105060000000000  1.6105060000000000  3.9377990000000000
