Ti Te
 1.0000000000000000
     3.7515679999999998    0.0000000000000000   -1.0024400000000000
    -0.8609910000000000    6.2103130000000002   -3.2222080000000002
     0.0056960000000000   -0.0283890000000000    7.5425469999999999
 Ti  Te 
   3   4
Cartesian
  0.0000000000000000  0.0000000000000000  0.0000000000000000
  2.2133264043779999  4.3568919486619997  0.7619970566440001
  0.6829465956220000  1.8250320513380003  2.5559019433560000
  1.5532478726540002  5.9951359477370003 -1.7083001716210000
  1.3430251273459999  0.1867880522630000  5.0261991716209993
  0.0247460315650001  2.7988142800290001  0.0926254179199997
  2.8715269684350000  3.3831097199709999  3.2252735820799994
