Cs Au
 1.0000000000000000
     4.2828540000000004    0.0000000000000000    0.0000000000000000
     0.0000000000000000    4.2828540000000004    0.0000000000000000
     0.0000000000000000    0.0000000000000000    4.2828540000000004
 Cs  Au 
   1   1
Cartesian
  0.0000000000000000  0.0000000000000000  0.0000000000000000
  2.1414270000000002  2.1414270000000002  2.1414270000000002
