Li Al Rh
 1.0000000000000000
    -0.0000010000000000    2.9372189999999998    2.9372210000000001
     2.9372199999999999   -0.0000020000000000    2.9372210000000001
     2.9372210000000001    2.9372210000000001   -0.0000030000000000
 Li  Al  Rh 
   1   1   2
Cartesian
  4.4058358744400001  4.4058343744380002  4.4058351244390002
  1.4686100000000000  1.4686094999999999  1.4686097499999999
  0.0000000000000000  0.0000000000000000  0.0000000000000000
  2.9372258744400002  2.9372248744379998  2.9372253744390000
