Be W 
 1.0000000000000000
     7.2073770000000001    0.0000000000000000    0.0000000000000000
     0.0000000000000000    7.2073770000000001    0.0000000000000000
     0.0000000000000000    0.0000000000000000    4.2068560000000002
 Be  W  
  24   2
Cartesian
  2.5310506179750001  0.0000000000000000  0.0000000000000000
  1.8018442500000000  5.4055327499999999  1.0517140000000000
  0.0000000000000000  2.5310506179750001  0.0000000000000000
  5.6842059817049995  0.0000000000000000  2.1034280000000001
  4.6763263820249996  0.0000000000000000  0.0000000000000000
  5.4055327499999999  5.4055327499999999  3.1551420000000001
  0.0000000000000000  4.6763263820249996  0.0000000000000000
  0.0000000000000000  1.5231710182950000  2.1034280000000001
  1.5231710182950000  0.0000000000000000  2.1034280000000001
  5.4055327499999999  5.4055327499999999  1.0517140000000000
  0.0000000000000000  5.6842059817049995  2.1034280000000001
  1.8018442500000000  5.4055327499999999  3.1551420000000001
  6.1347391179750002  3.6036885000000001  2.1034280000000001
  5.4055327499999999  1.8018442500000000  3.1551420000000001
  3.6036885000000001  6.1347391179750002  2.1034280000000001
  2.0805174817050003  3.6036885000000001  0.0000000000000000
  1.0726378820250002  3.6036885000000001  2.1034280000000001
  1.8018442500000000  1.8018442500000000  1.0517140000000000
  3.6036885000000001  1.0726378820250002  2.1034280000000001
  3.6036885000000001  5.1268595182950003  0.0000000000000000
  5.1268595182950003  3.6036885000000001  0.0000000000000000
  1.8018442500000000  1.8018442500000000  3.1551420000000001
  3.6036885000000001  2.0805174817050003  0.0000000000000000
  5.4055327499999999  1.8018442500000000  1.0517140000000000
  0.0000000000000000  0.0000000000000000  0.0000000000000000
  3.6036885000000001  3.6036885000000001  2.1034280000000001
