Nb P 
 1.0000000000000000
     3.2246869999999999   -0.0001010000000000   -0.9071200000000000
    -0.2551690000000000    3.2145750000000000   -0.9071200000000000
     0.0062780000000000    0.0067960000000000    6.2100010000000001
 Nb  P  
   2   2
Cartesian
  2.3582098083059999  0.8073983517840001  2.1991236759970003
  0.0004034860020000  0.0003809169680000  0.0012431759970000
  0.3711391386580000  2.1471719160719998  1.3202832099430000
  1.2442630177939999  1.3468816280159999  4.4252837099429998
