Hf Tc Os
 1.0000000000000000
     0.0000000000000000    3.2396110000000000    3.2396110000000000
     3.2396110000000000    0.0000000000000000    3.2396110000000000
     3.2396110000000000    3.2396110000000000    0.0000000000000000
 Hf  Tc  Os 
   2   1   1
Cartesian
  0.0000000000000000  0.0000000000000000  0.0000000000000000
  3.2396174792220003  3.2396174792220003  3.2396174792220003
  4.8594165000000000  4.8594165000000000  4.8594165000000000
  1.6198055000000000  1.6198055000000000  1.6198055000000000
