Li In
 1.0000000000000000
     8.0929800000000007    0.0000000000000000    4.6724839999999999
     2.6976599999999999    7.6301340000000000    4.6724839999999999
    -0.0000000000000000    0.0000000000000000    9.3449700000000000
 Li  In 
  26   6
Cartesian
  9.4418100000000003  6.6763672500000002 16.3536957500000000
  1.3488300000000000  0.9537667500000000  2.3362422499999997
  5.3953199999999999  3.8150670000000000  9.3449689999999990
  5.3953199999999999  3.8150670000000000  4.6724839999999999
  1.3488300000000000  3.8150670000000000  7.0087270000000004
  4.0464900000000004  0.0000000000000000  7.0087270000000004
  2.6358512140800001  1.8638280924480000  4.5654285351359993
  8.1547887859199992  5.7663059075519998  9.2379218571939994
  3.9228805211400002  5.7663059075519998 11.6812161839399984
  6.7441526976599997  1.7764249074779999 11.6812161839399984
  6.8677594788600000  1.8638280924480000  7.0087218160599996
  4.0464873023400001  5.8537090925219992  7.0087218160599996
  2.6358512140800001  1.8638280924480000  9.4520161428059986
  8.1547887859199992  5.7663059075519998 14.1245094648639995
  5.3782653934800004  0.9778856035740000  4.7020237001699998
  9.4077007869600013  6.6522483964260006 11.6812107563220007
  4.0805992130400002  2.8854191035740002 11.6812117436780003
  8.0759253934800004  2.8854191035740002  9.3745082001700002
  8.0759253934800004  2.8854191035740002 13.9879142998300008
  5.4123746065200002  6.6522483964260006  9.3745082001700002
  2.7147146065200003  4.7447148964260002  4.7020237001699998
  1.3829392130400002  0.9778856035740000  7.0087272436779999
  6.7100407869600005  4.7447148964260002  7.0087262563220003
  5.3782653934800004  0.9778856035740000  9.3154297998299995
  5.4123746065200002  6.6522483964260006 13.9879142998300008
  2.7147146065200003  4.7447148964260002  9.3154297998299995
  4.0464900000000004  2.8613002500000002  7.0087267499999992
  6.7441500000000003  4.7688337499999998 11.6812112500000005
  0.0000000000000000  0.0000000000000000  0.0000000000000000
  0.0000000000000000  0.0000000000000000  4.6724850000000000
  4.0464900000000004  0.0000000000000000  2.3362419999999999
  1.3488300000000000  3.8150670000000000  2.3362419999999999
