Y  Ni P 
 1.0000000000000000
     3.6045440000000002    0.0000000000000000   -1.3774360000000001
    -0.5263710000000000    3.5659049999999999   -1.3774360000000001
    -0.0000410000000000   -0.0000480000000000    5.4048850000000002
 Y   Ni  P  
   1   2   2
Cartesian
  0.0000000000000000  0.0000000000000000  0.0000000000000000
  2.5717947500000000  0.8914522499999999  1.3250065000000000
  0.5063372500000001  2.6744047499999999  1.3250065000000000
  1.1579593656950000  1.3414359509939999  3.0301988933270003
  1.9201726343050001  2.2244210490059997 -0.3801858933270000
