Sr Al Ge
 1.0000000000000000
     4.2965200000000001    0.0000000000000000    0.0000000000000000
    -2.1482589999999999    3.7208950000000001    0.0000000000000000
     0.0000000000000000    0.0000000000000000    4.7790220000000003
 Sr  Al  Ge 
   1   1   1
Cartesian
  0.0000000000000000  0.0000000000000000  0.0000000000000000
  2.1482624815930005  1.2402970930349999  2.3895110000000002
 -0.0000014815929999  2.4805979069649999  2.3895110000000002
