Mg Br
 1.0000000000000000
     3.8574690000000000    0.0000000000000000    0.0000000000000000
    -1.9287350000000001    3.3406669999999998    0.0000000000000000
     0.0000000000000000    0.0000000000000000    6.4019219999999999
 Mg  Br 
   1   2
Cartesian
  0.0000000000000000  0.0000000000000000  0.0000000000000000
 -0.0000022620680000  2.2271124468890000  1.4946951408719999
  1.9287362620680000  1.1135545531109998  4.9072268591279995
