Na Sn Sb
 1.0000000000000000
     4.3261000000000003    0.0000000000000000    0.0000000000000000
    -2.1630500000000001    3.7465120000000001    0.0000000000000000
     0.0000000000000000    0.0000000000000000   11.7702799999999996
 Na  Sn  Sb 
   2   2   2
Cartesian
 -0.0000021630500000  2.4976759155040003 11.7468806833600006
  2.1630521630500001  1.2488360844960000  5.8617406833599999
  0.0000000000000000  0.0000000000000000  3.5979274201199996
  0.0000000000000000  0.0000000000000000  9.4830674201199994
 -0.0000021630500000  2.4976759155040003  8.0133007862399985
  2.1630521630500001  1.2488360844960000  2.1281607862400000
