Ce Pb
 1.0000000000000000
     4.8958519999999996    0.0000000000000000    0.0000000000000000
     0.0000000000000000    4.8958430000000002    0.0000000000000000
     0.0000000000000000    0.0000000000000000    4.8958519999999996
 Ce  Pb 
   1   3
Cartesian
  0.0000000000000000  0.0000000000000000  0.0000000000000000
  0.0000000000000000  2.4479215000000001  2.4479259999999998
  2.4479259999999998  2.4479215000000001  0.0000000000000000
  2.4479259999999998  0.0000000000000000  2.4479259999999998
