Er Fe Ge
 1.0000000000000000
     3.6635399999999998    0.0000000000000000   -1.2937440000000000
    -0.4568720000000000    3.6349380000000000   -1.2937440000000000
     0.0847930000000000    0.0961170000000000    6.0740689999999997
 Er  Fe  Ge 
   1   2   2
Cartesian
  0.0000000000000000  0.0000000000000000  0.0000000000000000
  0.6156274999999999  2.7742619999999998  1.7432904999999999
  2.6758335000000000  0.9567930000000000  1.7432904999999999
  1.9860290146459998  2.2512751190280005 -0.2100538831500001
  1.3054319853540000  1.4797798809720002  3.6966348831499998
