Mg Au
 1.0000000000000000
     3.3088760000000002    0.0000000000000000    0.0000000000000000
     0.0000000000000000    3.3088760000000002    0.0000000000000000
     0.0000000000000000    0.0000000000000000    3.3088760000000002
 Mg  Au 
   1   1
Cartesian
  1.6544380000000001  1.6544380000000001  1.6544380000000001
  0.0000000000000000  0.0000000000000000  0.0000000000000000
