Be Nb
 1.0000000000000000
     6.5423229999999997    0.0000000000000000    0.0000000000000000
     0.0000000000000000    6.5423229999999997    0.0000000000000000
     0.0000000000000000    0.0000000000000000    6.5423229999999997
 Be  Nb 
  16   8
Cartesian
  1.6355807499999999  0.0000000000000000  4.9067422499999997
  1.6355807499999999  1.6355807499999999  3.2711614999999998
  0.0000000000000000  0.0000000000000000  3.2711614999999998
  0.0000000000000000  1.6355807499999999  4.9067422499999997
  1.6355807499999999  3.2711614999999998  1.6355807499999999
  1.6355807499999999  4.9067422499999997  0.0000000000000000
  0.0000000000000000  3.2711614999999998  0.0000000000000000
  0.0000000000000000  4.9067422499999997  1.6355807499999999
  4.9067422499999997  0.0000000000000000  1.6355807499999999
  4.9067422499999997  1.6355807499999999  0.0000000000000000
  3.2711614999999998  0.0000000000000000  0.0000000000000000
  3.2711614999999998  1.6355807499999999  1.6355807499999999
  4.9067422499999997  3.2711614999999998  4.9067422499999997
  4.9067422499999997  4.9067422499999997  3.2711614999999998
  3.2711614999999998  3.2711614999999998  3.2711614999999998
  3.2711614999999998  4.9067422499999997  4.9067422499999997
  2.4533711249999999  5.7245326250000002  2.4533711249999999
  0.8177903750000000  0.8177903750000000  0.8177903750000000
  2.4533711249999999  2.4533711249999999  5.7245326250000002
  0.8177903750000000  4.0889518749999993  4.0889518749999993
  5.7245326250000002  5.7245326250000002  5.7245326250000002
  4.0889518749999993  0.8177903750000000  4.0889518749999993
  5.7245326250000002  2.4533711249999999  2.4533711249999999
  4.0889518749999993  4.0889518749999993  0.8177903750000000
