Al Pt
 1.0000000000000000
     4.9180970000000004    0.0000000000000000    0.0000000000000000
     0.0000000000000000    4.9180970000000004    0.0000000000000000
     0.0000000000000000    0.0000000000000000    4.9180970000000004
 Al  Pt 
   4   4
Cartesian
  4.1510558375890003  4.1510558375890003  4.1510558375890003
  3.2260896624110003  0.7670411624110001  1.6920073375890001
  1.6920073375890001  3.2260896624110003  0.7670411624110001
  0.7670411624110001  1.6920073375890001  3.2260896624110003
  0.7615820747410000  0.7615820747410000  0.7615820747410000
  1.6974664252589999  4.1565149252590006  3.2206305747410005
  3.2206305747410005  1.6974664252589999  4.1565149252590006
  4.1565149252590006  3.2206305747410005  1.6974664252589999
