Ba Zn O 
 1.0000000000000000
     5.9098069999999998    0.0000000000000000    0.0000000000000000
    -2.9549029999999998    5.1180420000000000    0.0000000000000000
     0.0000000000000000    0.0000000000000000    6.7526370000000000
 Ba  Zn  O  
   3   3   6
Cartesian
  3.8652265310519995  0.0000000000000000  5.6271952491209998
 -1.9326129385079998  3.3473837175119998  1.1254417508790000
  1.0222904074560000  1.7706582824879999  3.3763185000000000
  1.2299433311520001  2.1303235659960000  0.0000000000000000
 -1.7249600850859999  2.9877184340039999  4.5017602508790002
  3.4499207539339998  0.0000000000000000  2.2508767491209998
 -0.4917045945000000  2.1762989372820001  5.8967132497019996
  1.3160227689860005  3.6040688779379999  1.3949529988230001
 -0.8243260391960000  4.4557213028220000  3.6458365005809998
  2.4632048900859993  2.9417430627180003  5.3576840011770006
  2.1305830000200001  0.6623206971780000  0.8559237502980001
  4.2709319746040002  1.5139731220619999  3.1068004994190002
