Ba Al Pb
 1.0000000000000000
     6.0914940000000000   -0.0000000000000000    0.0000000000000000
    -3.0457470000000000    5.2753880000000004    0.0000000000000000
     0.0000000000000000    0.0000000000000000   11.3211940000000002
 Ba  Al  Pb 
   5   5   1
Cartesian
  3.0457500457470004  1.7584609082040001  2.2849113002440000
  3.0457500457470004  1.7584609082040001  9.0362826997560006
  0.0000000000000000  0.0000000000000000  3.7224765143639997
  0.0000000000000000  0.0000000000000000  7.5987174856359996
 -0.0000030457470003  3.5169270917960005  0.0000000000000000
 -0.0000030457470003  3.5169270917960005  3.6895318398240002
  3.0457500457469999  0.1109572358040000  5.6605970000000001
  1.6189698635970000  2.5822127444040004  5.6605970000000001
 -0.0000030457470003  3.5169270917960005  7.6316621601760009
  4.4725302278969998  2.5822127444040004  5.6605970000000001
  0.0000000000000000  0.0000000000000000  0.0000000000000000
