Zn Cu
 1.0000000000000000
     2.9205540000000001    0.0000000000000000    0.0000000000000000
     0.0000000000000000    2.9205540000000001    0.0000000000000000
     0.0000000000000000    0.0000000000000000    2.9205540000000001
 Zn  Cu 
   1   1
Cartesian
  1.4602770000000000  1.4602770000000000  1.4602770000000000
  0.0000000000000000  0.0000000000000000  0.0000000000000000
