Nd Ag Hg
 1.0000000000000000
     0.0000000000000000    3.5939480000000001    3.5939480000000001
     3.5939480000000001    0.0000000000000000    3.5939480000000001
     3.5939480000000001    3.5939480000000001    0.0000000000000000
 Nd  Ag  Hg 
   1   1   2
Cartesian
  5.3909219999999998  5.3909219999999998  5.3909219999999998
  1.7969740000000001  1.7969740000000001  1.7969740000000001
  0.0000000000000000  0.0000000000000000  0.0000000000000000
  3.5939480000000001  3.5939480000000001  3.5939480000000001
