Te
 1.0000000000000000
     4.5076739999999997    0.0000000000000000    0.0000000000000000
    -2.2538369999999999    3.9037609999999998    0.0000000000000000
     0.0000000000000000    0.0000000000000000    5.9597550000000004
 Te 
   3
Cartesian
  0.6077696854200000  1.0526881912599999  2.9798775000000002
 -1.6460673145799998  2.8510728087399997  0.9932944865850001
  3.2921346291599995  0.0000000000000000  4.9664605134149999
