Li Sb Pd
 1.0000000000000000
     6.3912430000000002    0.0000000000000000    0.0000000000000000
     0.0000000000000000    6.3912430000000002    0.0000000000000000
     0.0000000000000000    0.0000000000000000    6.3912430000000002
 Li  Sb  Pd 
   8   4   4
Cartesian
  3.1956215000000001  0.0000000000000000  0.0000000000000000
  1.5978107500000001  4.7934322500000004  4.7934322500000004
  3.1956215000000001  3.1956215000000001  3.1956215000000001
  1.5978107500000001  1.5978107500000001  1.5978107500000001
  0.0000000000000000  0.0000000000000000  3.1956215000000001
  4.7934322500000004  4.7934322500000004  1.5978107500000001
  0.0000000000000000  3.1956215000000001  0.0000000000000000
  4.7934322500000004  1.5978107500000001  4.7934322500000004
  0.0000000000000000  0.0000000000000000  0.0000000000000000
  0.0000000000000000  3.1956215000000001  3.1956215000000001
  3.1956215000000001  0.0000000000000000  3.1956215000000001
  3.1956215000000001  3.1956215000000001  0.0000000000000000
  4.7934322500000004  1.5978107500000001  1.5978107500000001
  4.7934322500000004  4.7934322500000004  4.7934322500000004
  1.5978107500000001  1.5978107500000001  4.7934322500000004
  1.5978107500000001  4.7934322500000004  1.5978107500000001
