Sc Tl Rh
 1.0000000000000000
     0.0000010000000000    3.2309299999999999    3.2309299999999999
     3.2309299999999999    0.0000010000000000    3.2309299999999999
     3.2309299999999999    3.2309299999999999    0.0000000000000000
 Sc  Tl  Rh 
   1   1   2
Cartesian
  1.6154717118609998  1.6154717118609998  1.6154714618599997
  4.8463957500000001  4.8463957499999992  4.8463949999999993
  6.4618609999999999  6.4618609999999999  6.4618599999999997
  3.2309240381389999  3.2309240381389999  3.2309235381399999
