Th S  O 
 1.0000000000000000
     3.9742160000000002    0.0000000000000000    0.0000000000000000
     0.0000000000000000    3.9742160000000002    0.0000000000000000
     0.0000000000000000    0.0000000000000000    6.7758630000000002
 Th  S   O  
   2   2   2
Cartesian
  0.9935540000000000  0.9935540000000000  5.4229670899680000
  2.9806620000000001  2.9806620000000001  1.3528959100320002
  2.9806620000000001  2.9806620000000001  4.3321818883650005
  0.9935540000000000  0.9935540000000000  2.4436811116350001
  2.9806620000000001  0.9935540000000000  0.0000000000000000
  0.9935540000000000  2.9806620000000001  0.0000000000000000
