Ba Br
 1.0000000000000000
     5.0136570000000003    0.0000000000000000    0.0000000000000000
     0.0000000000000000    8.3378169999999994    0.0000000000000000
     0.0000000000000000    0.0000000000000000   10.0433679999999992
 Ba  Br 
   4   8
Cartesian
  1.2534142500000001  6.2347610802729996  3.8506875514079999
  3.7602427500000002  2.1030559197269998  6.1926804485919993
  1.2534142500000001  2.0658525802729999  1.1709964485919999
  3.7602427500000002  6.2719644197269995  8.8723715514079995
  1.2534142500000001  4.3879679660409998  6.7204895670960001
  3.7602427500000002  3.9498490339589996  3.3228784329040000
  1.2534142500000001  0.2190594660410000  8.3445624329039987
  3.7602427500000002  8.1187575339590001  1.6988055670959998
  3.7602427500000002  7.1425659195989999  5.7378564853439995
  1.2534142500000001  1.1952510804009999  4.3055115146559997
  3.7602427500000002  2.9736574195989998  9.3271955146559993
  1.2534142500000001  5.3641595804009992  0.7161724853439999
