Al Ni
 1.0000000000000000
     4.0422640000000003    0.0000000000000000    0.0000000000000000
    -2.0211320000000002    3.5007030000000001    0.0000000000000000
     0.0000000000000000    0.0000000000000000    4.9101540000000004
 Al  Ni 
   3   2
Cartesian
  0.0000000000000000  0.0000000000000000  0.0000000000000000
 -0.0000020211320002  2.3338031669010002  3.1795456719300006
  2.0211340211320001  1.1668998330989999  1.7306083280700002
 -0.0000020211320002  2.3338031669010002  0.7202606699520001
  2.0211340211320001  1.1668998330989999  4.1898933300480001
