Ca Pm Cd
 1.0000000000000000
     0.0000000000000000    3.8114610000000000    3.8114610000000000
     3.8114610000000000    0.0000000000000000    3.8114610000000000
     3.8114610000000000    3.8114610000000000    0.0000000000000000
 Ca  Pm  Cd 
   1   1   2
Cartesian
  1.9057305000000000  1.9057305000000000  1.9057305000000000
  5.7171915000000002  5.7171915000000002  5.7171915000000002
  3.8114533770780001  3.8114533770780001  3.8114533770780001
  0.0000000000000000  0.0000000000000000  0.0000000000000000
