Sr Al O 
 1.0000000000000000
     8.8156130000000008    0.0000000000000000    0.0000000000000000
     0.0000000000000000    5.1620590000000002   -0.0046220000000000
     0.0000000000000000    0.5113040000000000    8.4380070000000007
 Sr  Al  O  
   4   8  16
Cartesian
  4.3376782985850006  1.5318436786980001  8.1854413324579998
  8.7454847985850002  4.1415193213019998  0.2479436675420000
  4.3982062974430001  1.5536699206140001  4.2958380120650004
  8.8060127974430014  4.1196930793859998  4.1375469879350000
  5.9002633340610009  4.2818310721059998  2.6919687370260004
  1.4924568340610003  1.3915319278939999  5.7414162629740000
  1.4763947871750003  1.2975165193780001  2.4693169426720005
  5.8842012871750011  4.3758464806220001  5.9640680573280003
  2.9724572069530004  3.8648643829589999  1.6878862984650000
  7.3802637069530004  1.8084986170410002  6.7454987015350012
  2.9134719403700005  4.0980320839530000  6.8309471426300004
  7.3212784403700004  1.5753309160470002  1.6024378573700002
  3.3901233196670000  3.3452685890109999  0.0665461047610000
  7.7979298196670008  2.3280944109890003  8.3668388952390007
  6.3130984908509999  4.8138352447380006  4.3180486762150005
  1.9052919908510002  0.8595277552620000  4.1153363237850007
  1.4602445841590002  5.0814742871480005  6.7060717870540003
  5.8680510841590001  0.5918887128520001  1.7273132129460000
  7.0097963862410007  5.2574796579530005  6.9683926434590013
  2.6019898862410002  0.4158833420470001  1.4649923565410001
  4.2624723040820003  5.0176348097380004  6.1805644822360000
  8.6702788040820007  0.6557281902620000  2.2528205177640004
  8.7251736262330013  2.1296823050820000  5.6773149600680002
  4.3173671262330000  3.5436806949180002  2.7560700399320002
  1.5020746678440002  3.0428247135250004  2.2304139688319999
  5.9098811678440004  2.6305382864750002  6.2029710311680004
  2.7793335729620003  2.4971218755329998  6.1584847644499998
  7.1871400729620012  3.1762411244670004  2.2749002355500001
