Sr Ru N 
 1.0000000000000000
     7.7801770000000001   -0.0002110000000000    0.0000000000000000
    -3.8900880000000000    6.7372980000000000    0.0000000000000000
     0.0000000000000000    0.0000000000000000    5.2968240000000000
 Sr  Ru  N  
   6   2   6
Cartesian
  4.5594874703540009  4.3312308784060001  1.3242060000000000
  5.3609854693460006  0.6231392359180000  1.3242060000000000
  1.7496296766319999  1.7831661349719998  1.3242060000000000
 -0.6701764879680000  2.4070149398039997  3.9726179999999998
 -1.4697683436710001  6.1140824773369999  3.9726179999999998
  2.1401286657730001  4.9529439810830000  3.9726179999999998
  3.8902442702260007  2.2458858338900001  3.9726179999999998
 -0.0001980612059997  4.4911135837679996  1.3242060000000000
  4.6712691330789999  3.9226508077010003  3.9726179999999998
  4.9517209365230004  0.7308982549090001  3.9726179999999998
  2.0475560168219999  2.0840275978139999  3.9726179999999998
 -0.7783714892680000  2.8132773190180003  1.3242060000000000
 -1.0640165609190004  6.0042282867450005  1.3242060000000000
  1.8421167439239996  4.6559631434420004  1.3242060000000000
