Na H  N 
 1.0000000000000000
     4.5002370000000003    5.0715240000000001    0.0000000000000000
     0.0000000000000000    5.0715240000000001    3.9054910000000000
     4.5002370000000003    0.0000000000000000    3.9054910000000000
 Na  H   N  
   4   8   4
Cartesian
  2.2501185000000006  4.0245991576320002  1.9527455000000002
  4.5002370000000003  8.6542108423680002  3.9054909999999996
  2.2501185000000001  1.0469248423680000  1.9527455000000002
  4.5002370000000003  1.4888371576320001  3.9054910000000000
  2.5590867714720003  6.8789441522640002  3.3218934798700004
  6.4413872285280007  6.8789441522640011  4.4890885201300001
  4.1912687285280006  5.7998658477360001  2.5363430201299999
  4.8092052714719999  5.7998658477360001  5.2746389798699997
  2.5590867714720003  3.2641038477360000  4.4890885201300001
  6.4413872285280007  3.2641038477360000  3.3218934798700004
  4.1912687285279997  4.3431821522640002  5.2746389798699997
  4.8092052714719999  4.3431821522640002  2.5363430201299999
  2.2501185000000001  2.5357620000000001  0.0683226595540000
  2.2501185000000001  2.5357620000000001  3.8371683404460000
  4.5002370000000003  5.0715240000000001  1.8844228404459999
  4.5002370000000003  5.0715240000000001  5.9265591595539995
