Nd In C 
 1.0000000000000000
     5.1311900000000001    0.0000000000000000    0.0000000000000000
     0.0000000000000000    5.1311950000000000    0.0000000000000000
     0.0000000000000000    0.0000000000000000    5.1311950000000000
 Nd  In  C  
   3   1   1
Cartesian
  2.5655950000000001  2.5655975000000000  0.0000000000000000
  0.0000000000000000  2.5655975000000000  2.5655975000000000
  2.5655950000000001  0.0000000000000000  2.5655975000000000
  0.0000000000000000  0.0000000000000000  0.0000000000000000
  2.5655950000000001  2.5655975000000000  2.5655975000000000
