Ta Fe Mo
 1.0000000000000000
    -0.0053000000000000    3.1275179999999998    3.1279930000000000
     3.1286250000000000   -0.0058160000000000    3.1287460000000000
     3.1287259999999999    3.1286410000000000   -0.0052750000000000
 Ta  Fe  Mo 
   2   1   1
Cartesian
  0.0005751515920000  0.0005969241820000  0.0005970306390000
  3.1254377863089999  3.1246058812010000  3.1251474722930004
  1.5629908544200000  1.5625669909089999  1.5628566408900000
  4.6890820725560003  4.6877634652459994  4.6886104863460005
