Gd Ge
 1.0000000000000000
     4.0018019999999996    0.0000000000000000    0.0000000000000000
     0.0000000000000000    3.9953069999999999   -1.5721400000000001
     0.0000000000000000   -0.0072120000000000    5.8444140000000004
 Gd  Ge 
   2   2
Cartesian
  1.0004504999999999  3.4272721838430003  2.8470451112480002
  3.0013514999999997  0.5608228161570000  1.4252288887520002
  1.0004504999999999  2.3178956329350000  0.0277669661600001
  3.0013514999999997  1.6701993670650002  4.2445070338400006
