Br F 
 1.0000000000000000
     4.6224800000000004   -0.0763410000000000    0.0000000000000000
    -1.5010990000000000    4.3726260000000003    0.0000000000000000
     0.0000000000000000    0.0000000000000000    6.2236969999999996
 Br  F  
   2   6
Cartesian
  3.6353896830950005  0.6408102355650001  1.6017306599199999
 -0.5140086830949999  3.6554747644350005  4.7135791599200001
 -1.0664902276329999  4.0568694651090009  0.5647631605680000
  4.1878712276330008  0.2394155348910000  3.6766116605680002
  0.1212697731020002  3.1939255809540001  3.1223789953240000
  3.0001112268980004  1.1023594190460002  0.0105304953240000
  0.8014279397900003  2.6997699183300004  5.4781229941879994
  2.3199530602100005  1.5965150816700002  2.3662744941879996
