Ta Ru
 1.0000000000000000
     3.0645560000000001    0.0000000000000000    0.0000000000000000
     0.0000000000000000    3.0645560000000001    0.0000000000000000
     0.0000000000000000    0.0000000000000000    3.4262800000000002
 Ta  Ru 
   1   1
Cartesian
  1.5322780000000000  1.5322780000000000  1.7131400000000001
  0.0000000000000000  0.0000000000000000  0.0000000000000000
