Li Si
 1.0000000000000000
     8.5387979999999999    0.0000000000000000    0.0000000000000000
     0.0000000000000000   14.3046799999999994    0.0000000000000000
     0.0000000000000000    0.0000000000000000   19.6398590000000013
 Li  Si 
  96  56
Cartesian
  5.6642970412799993 11.9256400598399992 14.7298942500000010
  1.3948980412800001  9.5313799401599990 14.7298942500000010
  7.1438999587200005  4.7733000598399995  4.9099647500000003
  2.8745009587200001  2.3790399401599998  4.9099647500000003
  5.2314397542659998  9.0296575938399997 14.7298942500000010
  0.9620407542660000 12.4273624061600003 14.7298942500000010
  7.5767572457340000  1.8773175938399997  4.9099647500000003
  3.3073582457339996  5.2750224061599997  4.9099647500000003
  4.2497853809940001  6.7545411538800000 12.2788005670820013
  8.5191843809940000  0.3977988461200000 17.1809879329180006
  0.0196136190060000 13.9068811538800006  7.3610584329180009
  4.2890126190059998  7.5501388461199994  2.4588710670820002
  4.2890126190059998  7.5501388461199994  7.3610584329180009
  0.0196136190060000 13.9068811538800006  2.4588710670820002
  8.5191843809940000  0.3977988461200000 12.2788005670820013
  4.2497853809940001  6.7545411538800000 17.1809879329180006
  7.1988556626480005  7.0855657537599992 12.0109914497580021
  2.9294566626480001  0.0667742462400000 17.4487970502419998
  5.6093413373519994 14.2379057537599998  7.6288675502420009
  1.3399423373520001  7.2191142462400002  2.1910619497580002
  1.3399423373520001  7.2191142462400002  7.6288675502420009
  5.6093413373519994 14.2379057537599998  2.1910619497580002
  2.9294566626480001  0.0667742462400000 12.0109914497580021
  7.1988556626480005  7.0855657537599992 17.4487970502419998
  7.4891577170520005  9.4397870741199998 16.3797209654360003
  3.2197587170520001 12.0172329258800001 13.0800675345640016
  5.3190392829479993  2.2874470741199997  3.2601380345640001
  1.0496402829479998  4.8648929258799996  6.5597914654360006
  1.0496402829479998  4.8648929258799996  3.2601380345640001
  5.3190392829479993  2.2874470741199997  6.5597914654360006
  3.2197587170520001 12.0172329258800001 16.3797209654360003
  7.4891577170520005  9.4397870741199998 13.0800675345640016
  3.1605165365280001 13.3637467589599996  0.5464987165340001
  7.4299155365280001  8.0932732410400003  9.2734307834660008
  1.1088824634720000  6.2114067589599999 19.0933602834660014
  5.3782814634719998  0.9409332410400000 10.3664282165340005
  5.3782814634719998  0.9409332410400000 19.0933602834660014
  1.1088824634720000  6.2114067589599999 10.3664282165340005
  7.4299155365280001  8.0932732410400003  0.5464987165340001
  3.1605165365280001 13.3637467589599996  9.2734307834660008
  5.3826106340580004  3.7651777368399997 17.4285287157540019
  1.1132116340579998  3.3871622631600000 12.0312597842460001
  7.4255863659419994 10.9175177368400007  2.2113302842460003
  3.1561873659419999 10.5395022631599993  7.6085992157540003
  3.1561873659419999 10.5395022631599993  2.2113302842460003
  7.4255863659419994 10.9175177368400007  7.6085992157540003
  1.1132116340579998  3.3871622631600000 17.4285287157540019
  5.3826106340580004  3.7651777368399997 12.0312597842460001
  3.1348830649320001  8.1116547548400000  0.0919341799790000
  7.4042820649319996 13.3453652451600000  9.7279953200210016
  1.1345159350680001  0.9593147548400000 19.5479248200209987
  5.4039149350680002  6.1930252451600003  9.9118636799790014
  5.4039149350680002  6.1930252451600003 19.5479248200209987
  1.1345159350680001  0.9593147548400000  9.9118636799790014
  7.4042820649319996 13.3453652451600000  0.0919341799790000
  3.1348830649320001  8.1116547548400000  9.7279953200210016
  3.1776368265179999  9.1334952659599988 16.7943969483620030
  7.4470358265180003 12.3235247340399994 12.6653915516380007
  1.0917621734820000  1.9811552659600000  2.8454620516380005
  5.3611611734819995  5.1711847340399997  6.9744674483620006
  5.3611611734819995  5.1711847340399997  2.8454620516380005
  1.0917621734820000  1.9811552659600000  6.9744674483620006
  7.4470358265180003 12.3235247340399994 16.7943969483620030
  3.1776368265179999  9.1334952659599988 12.6653915516380007
  7.4337323792339998 10.6357584548799995 19.0162934767500040
  3.1643333792339998 10.8212615451200005 10.4434950232499997
  5.3744646207660001  3.4834184548799998  0.6235655232500000
  1.1050656207660001  3.6689215451199999  9.1963639767499998
  1.1050656207660001  3.6689215451199999  0.6235655232500000
  5.3744646207660001  3.4834184548799998  9.1963639767499998
  3.1643333792339998 10.8212615451200005 19.0162934767500040
  7.4337323792339998 10.6357584548799995 10.4434950232499997
  1.1769281447340001  6.8366929311200000 13.1840213082510012
  5.4463271447340000  0.3156470688800000 16.2757671917490008
  3.0924708552660003 13.9890329311199988  6.4558376917490001
  7.3618698552659998  7.4679870688800003  3.3640918082510001
  7.3618698552659998  7.4679870688800003  6.4558376917490001
  3.0924708552660003 13.9890329311199988  3.3640918082510001
  5.4463271447340000  0.3156470688800000 13.1840213082510012
  1.1769281447340001  6.8366929311200000 16.2757671917490008
  7.3632787569359994  2.3201046585600000 13.5247139423240021
  3.0938797569359999  4.8322353414399997 15.9350745576759998
  5.4449182430640004  9.4724446585599988  6.1151450576760000
  1.1755192430640000 11.9845753414399994  3.7047844423240002
  1.1755192430640000 11.9845753414399994  6.1151450576760000
  5.4449182430640004  9.4724446585599988  3.7047844423240002
  3.0938797569359999  4.8322353414399997 13.5247139423240021
  7.3632787569359994  2.3201046585600000 15.9350745576759998
  5.2020662891459999 12.0701316325199990  3.6710824442800001
  0.9326672891460001  9.3868883674799992  6.1488470557200010
  7.6061307108539999  4.9177916325200002 15.9687765557200017
  3.3367317108540000  2.2345483674800000 13.4910119442800003
  3.3367317108540000  2.2345483674800000 15.9687765557200017
  7.6061307108539999  4.9177916325200002 13.4910119442800003
  0.9326672891460001  9.3868883674799992  3.6710824442800001
  5.2020662891459999 12.0701316325199990  6.1488470557200010
  5.2587126750779998  7.0428805886400001  4.9099647500000003
  0.9893136750780001  0.1094594113600000  4.9099647500000003
  7.5494843249220001 14.1952205886399998 14.7298942500000010
  3.2800853249220001  7.2617994113599993 14.7298942500000010
  1.0479239845499999  6.9835161666400003  4.9099647500000003
  5.3173229845499996  0.1688238333600000  4.9099647500000003
  3.2214750154500003 14.1358561666400000 14.7298942500000010
  7.4908740154500002  7.3211638333599991 14.7298942500000010
  3.1763474680199999 10.5321639623199985  4.9099647500000003
  7.4457464680200003 10.9248560376799997  4.9099647500000003
  1.0930515319800000  3.3798239623200002 14.7298942500000010
  5.3624505319799995  3.7725160376800000 14.7298942500000010
  3.1380851141819996  8.1518652103199987  4.9099647500000003
  7.4074841141820000 13.3051547896799995  4.9099647500000003
  1.1313138858180001  0.9995252103200001 14.7298942500000010
  5.4007128858179998  6.1528147896799998 14.7298942500000010
  1.0588792623840000 10.7540724631600000 12.4167509366979996
  5.3282782623839999 10.7029475368400000 17.0430375633020006
  3.2105197376160000  3.6017324631599994  7.2231080633019999
  7.4799187376159999  3.5506075368399999  2.5968214366980003
  7.4799187376159999  3.5506075368399999  7.2231080633019999
  3.2105197376160000  3.6017324631599994  2.5968214366980003
  5.3282782623839999 10.7029475368400000 12.4167509366979996
  1.0588792623840000 10.7540724631600000 17.0430375633020006
  0.9093392930100000  8.7810708647999984 11.0985432404770012
  5.1787382930100003 12.6759491351999998 18.3612452595230025
  3.3600597069900000  1.6287308648000001  8.5413157595230000
  7.6294587069899995  5.5236091351999992  1.2786137404769999
  7.6294587069899995  5.5236091351999992  8.5413157595230000
  3.3600597069900000  1.6287308648000001  1.2786137404769999
  5.1787382930100003 12.6759491351999998 11.0985432404770012
  0.9093392930100000  8.7810708647999984 18.3612452595230025
  1.0090809924480000  9.5300782142799996  8.8296092497839993
  5.2784799924479993 11.9269417857200004  0.9903202502160000
  3.2603180075519997  2.3777382142799999 10.8102497502160020
  7.5297170075520006  4.7746017857199998 18.6495387497839999
  7.5297170075520006  4.7746017857199998 10.8102497502160020
  3.2603180075519997  2.3777382142799999 18.6495387497839999
  5.2784799924479993 11.9269417857200004  8.8296092497839993
  1.0090809924480000  9.5300782142799996  0.9903202502160000
  1.0201558134539999 11.8928680379599996  8.7784474170890014
  5.2895548134540000  9.5641519620399986  1.0414820829110001
  3.2492431865459999  4.7405280379599999 10.8614115829109998
  7.5186421865459998  2.4118119620399998 18.5983769170890021
  7.5186421865459998  2.4118119620399998 10.8614115829109998
  3.2492431865459999  4.7405280379599999 18.5983769170890021
  5.2895548134540000  9.5641519620399986  8.7784474170890014
  1.0201558134539999 11.8928680379599996  1.0414820829110001
  1.1179079729580002 12.6724444886000001 11.0169592661910016
  5.3873069729579992  8.7845755113999999 18.4428292338090003
  3.1514910270419998  5.5201044885999995  8.6228997338090014
  7.4208900270420006  1.6322355114000000  1.1970297661910001
  7.4208900270420006  1.6322355114000000  8.6228997338090014
  3.1514910270419998  5.5201044885999995  1.1970297661910001
  5.3873069729579992  8.7845755113999999 11.0169592661910016
  1.1179079729580002 12.6724444886000001 18.4428292338090003
