Mg Si O 
 1.0000000000000000
     4.7509410000000001    0.0000000000000000    0.0000000000000000
     0.0000000000000000    5.9698680000000000    0.0000000000000000
     0.0000000000000000    0.0000000000000000   10.1828800000000008
 Mg  Si  O  
   8   4  16
Cartesian
  0.0000000000000000  0.0000000000000000  0.0000000000000000
  2.3754705000000000  0.0000000000000000  5.0914400000000004
  0.0000000000000000  2.9849340000000000  0.0000000000000000
  2.3754705000000000  2.9849340000000000  5.0914400000000004
  0.0393187877160000  4.4774010000000004  7.3611530376000003
  2.4147892877159998  1.4924670000000000  7.9131669624000009
  4.7116222122840004  1.4924670000000000  2.8217269624000001
  2.3361517122839999  4.4774010000000004  2.2697130376000003
  4.4009391765299997  4.4774010000000004  4.1356952489600003
  2.0254686765300001  1.4924670000000000  0.9557447510400000
  0.3500018234700000  1.4924670000000000  6.0471847510400005
  2.7254723234700000  4.4774010000000004  9.2271352489600016
  1.3151697404430001  2.7923579980560000  1.6604204128000002
  3.6906402404430003  3.1775100019439999  3.4310195872000007
  3.4357712595569998  5.7772919980559996  8.5224595872000002
  1.0603007595570000  0.1925760019440000  6.7518604128000002
  3.4357712595569998  3.1775100019439999  8.5224595872000002
  1.0603007595570000  2.7923579980560000  6.7518604128000002
  1.3151697404430001  0.1925760019440000  1.6604204128000002
  3.6906402404430003  5.7772919980559996  3.4310195872000007
  3.6975243539519997  4.4774010000000004  5.6369572473599998
  1.3220538539520001  1.4924670000000000  9.6373627526400014
  1.0534166460480001  1.4924670000000000  4.5459227526400001
  3.4288871460480004  4.4774010000000004  0.5455172473600001
  1.2663728254320001  4.4774010000000004  4.1597472115200000
  3.6418433254320002  1.4924670000000000  0.9316927884800000
  3.4845681745679999  1.4924670000000000  6.0231327884800008
  1.1090976745679999  4.4774010000000004  9.2511872115200013
