Dy Sb
 1.0000000000000000
     3.7908759999999999    0.0000000000000000    2.1886630000000000
     1.2636259999999999    3.5740710000000000    2.1886630000000000
     0.0000000000000000    0.0000000000000000    4.3773260000000001
 Dy  Sb 
   1   1
Cartesian
  0.0000000000000000  0.0000000000000000  0.0000000000000000
  2.5272509999999997  1.7870355000000000  4.3773260000000001
