Zr Fe P 
 1.0000000000000000
     3.7474470000000002   -0.0000000000000000    0.0000000000000000
    -0.0000000000000000    6.3049549999999996   -0.0000620000000000
     0.0000000000000000   -0.0000690000000000    7.0032389999999998
 Zr  Fe  P  
   4   4   4
Cartesian
  0.9368617500000000  3.2298807907649993  2.1878851508250001
  2.8105852499999999  3.0750871732359997  4.8153338678029991
  0.9368617500000000  0.0773236401850000  1.3131415682030001
  2.8105852499999999  6.2273164669840000  5.6899934147810001
  2.8105852499999999  5.3927806946050003  3.0611327688920000
  0.9368617500000000  0.9124835996589998  3.9423523699040004
  2.8105852499999999  2.2399002770509999  0.4405937587420000
  0.9368617500000000  4.0648470164920001  6.5623241227789997
  0.9368617500000000  1.7901927004349998  6.2361216116069995
  2.8105852499999999  4.5146743855970000  0.7669643464720000
  0.9368617500000000  4.9425887041519996  4.2687897353919997
  2.8105852499999999  1.3622405508390001  2.7344292846000000
