Lu In N 
 1.0000000000000000
     4.6482640000000002    0.0000000000000000    0.0000000000000000
     0.0000000000000000    4.6482640000000002    0.0000000000000000
     0.0000000000000000    0.0000000000000000    4.6482640000000002
 Lu  In  N  
   3   1   1
Cartesian
  2.3241320000000001  2.3241320000000001  0.0000000000000000
  0.0000000000000000  2.3241320000000001  2.3241320000000001
  2.3241320000000001  0.0000000000000000  2.3241320000000001
  0.0000000000000000  0.0000000000000000  0.0000000000000000
  2.3241320000000001  2.3241320000000001  2.3241320000000001
