Re Ir
 1.0000000000000000
     3.8819650000000001    0.0000000000000000    0.0000000000000000
     0.0000000000000000    3.8819650000000001    0.0000000000000000
     0.0000000000000000    0.0000000000000000    3.8819650000000001
 Re  Ir 
   3   1
Cartesian
  0.0000000000000000  1.9409786180350002  1.9409786180350002
  1.9409786180350002  0.0000000000000000  1.9409786180350002
  1.9409786180350002  1.9409786180350002  0.0000000000000000
  0.0000000000000000  0.0000000000000000  0.0000000000000000
