Sm Ho Mg
 1.0000000000000000
    -0.0007140000000000    3.8187709999999999    3.8060040000000002
     3.8100200000000002   -0.0002390000000000    3.8055020000000002
     3.8096410000000001    3.8183460000000000    0.0005600000000000
 Sm  Ho  Mg 
   1   1   2
Cartesian
  5.7142026314320002  5.7276470445370000  5.7090456928759998
  1.9047519885640001  1.9092347733840001  1.9030165022400001
  3.8098807470430001  3.8176893823210003  0.0093924133280000
  3.8092185143490003  3.8190841626940002  3.7971891685440000
