Li Sn Ru
 1.0000000000000000
     6.7143309999999996    0.0000000000000000    0.0000000000000000
     0.0000000000000000    6.7143309999999996    0.0000000000000000
     0.0000000000000000    0.0000000000000000   11.3166039999999999
 Li  Sn  Ru 
   4  16   4
Cartesian
  0.0000000000000000  0.0000000000000000  0.0000000000000000
  3.3571654999999998  3.3571654999999998  0.0000000000000000
  3.3571654999999998  3.3571654999999998  5.6583019999999999
  0.0000000000000000  0.0000000000000000  5.6583019999999999
  4.4309884568299998  5.6405080431699997  9.7605935832079993
  1.0738229568300000  4.4309884568299998  9.7605935832079993
  5.6405080431699997  2.2833425431699998  9.7605935832079993
  1.0738229568300000  4.4309884568299998  1.5560104167920001
  5.6405080431699997  2.2833425431699998  1.5560104167920001
  2.2833425431699998  1.0738229568300000  1.5560104167920001
  4.4309884568299998  5.6405080431699997  1.5560104167920001
  2.2833425431699998  1.0738229568300000  9.7605935832079993
  1.0738229568300000  2.2833425431699998  4.1022915832080002
  4.4309884568299998  1.0738229568300000  4.1022915832080002
  2.2833425431699998  5.6405080431699997  4.1022915832080002
  4.4309884568299998  1.0738229568300000  7.2143124167919996
  2.2833425431699998  5.6405080431699997  7.2143124167919996
  5.6405080431699997  4.4309884568299998  7.2143124167919996
  1.0738229568300000  2.2833425431699998  7.2143124167919996
  5.6405080431699997  4.4309884568299998  4.1022915832080002
  3.3571654999999998  3.3571654999999998  8.4874530000000004
  0.0000000000000000  0.0000000000000000  8.4874530000000004
  0.0000000000000000  0.0000000000000000  2.8291510000000000
  3.3571654999999998  3.3571654999999998  2.8291510000000000
