Li Zr Rh
 1.0000000000000000
     0.0000000000000000    3.1143860000000001    3.1143860000000001
     3.1143860000000001    0.0000000000000000    3.1143860000000001
     3.1143860000000001    3.1143860000000001    0.0000000000000000
 Li  Zr  Rh 
   1   1   2
Cartesian
  1.5571930000000000  1.5571930000000000  1.5571930000000000
  4.6715790000000004  4.6715790000000004  4.6715790000000004
  0.0000000000000000  0.0000000000000000  0.0000000000000000
  3.1143797712280001  3.1143797712280001  3.1143797712280001
