Th Bi Te
 1.0000000000000000
     0.0000000000000000    3.9026429999999999    3.9026429999999999
     3.9026429999999999    0.0000000000000000    3.9026429999999999
     3.9026429999999999    3.9026429999999999    0.0000000000000000
 Th  Bi  Te 
   2   1   1
Cartesian
  0.0000000000000000  0.0000000000000000  0.0000000000000000
  3.9026429999999999  3.9026429999999999  3.9026429999999999
  1.9513293052859997  1.9513293052859997  1.9513293052859997
  5.8539645000000000  5.8539645000000000  5.8539645000000000
