Sm O 
 1.0000000000000000
     8.9310349999999996    0.0000000000000000   -3.1575970000000000
    -4.4655180000000003    7.7345040000000003   -3.1575970000000000
     0.0000000000000000    0.0000000000000000    9.4727929999999994
 Sm  O  
  16  24
Cartesian
  2.2327584999999996  3.8672520000000001  1.5787994999999997
  0.0000000000000000  0.0000000000000000  4.7363964999999997
  4.4655174999999998  0.0000000000000000 -1.5787985000000000
 -2.2327590000000002  3.8672520000000001 -1.5787985000000000
  1.2551720149579999  1.6932298811760000  7.6977118931239996
  0.1387924838769998  4.1076481188240006  4.5401144552860000
  1.3939644988349997  5.8008780000000000 -1.3825153931239997
 -2.3715519838770001  7.4941078811760002 -1.3825154552860002
  7.5370700011649996  1.9336260000000001 -1.7750806068759999
  5.4431039850419989  2.1740221188240003  1.7750821068759999
  3.2103449850419987  6.0412741188240000 -4.5401128931240002
  4.3267245161229990  3.6268558811760001 -1.3825154552860002
  3.0715525011649998  1.9336260000000001  4.5401143931239991
  6.8370689838770007  0.2403961188240000  4.5401144552860000
 -3.0715530011650003  5.8008780000000000  4.9326796068759995
 -0.9775869850420003  5.5604818811760000  1.3825168931239995
  1.2860284654949992  5.9532090562800004  1.0259611843499998
  4.5393588179559998  7.4162136913920005  0.7549481662189996
 -1.1304863305109998  5.9668372523280002  3.6637896780829995
  3.4999162029619995  1.8628630229040002  6.8213966325779998
  5.3101831674059996  5.6349187476720006  4.0281011043289991
  5.3651449914929996  2.0043889770960002  4.1835554873629990
 -2.1856703535410005  7.5114177011280008  1.0259548114679991
  2.4714895166459998  4.0903382988720001  3.9125484061200000
  4.4576489875889997  4.1855423086079995  0.8704937138399995
  2.0960866275489995  7.6393077247680008  3.6637901351689992
  3.6287193450049995  5.6485469437200004 -2.2870943527569993
  6.3857165619509999  3.9624482752320001 -2.4026529667620005
  3.1794885345049999  1.7812949437200001  2.1316378156499995
 -0.0738418179560000  0.3182903086080000  2.4026508337809998
  5.5960033305109995  1.7676667476720000 -0.5061906780829998
  0.9656007970379998  5.8716409770959999 -3.6637976325779995
 -0.8446661674060001  2.0995852523280001 -0.8705021043290000
 -0.8996279914930003  5.7301150229040001 -1.0259564873630003
  6.6511873535409993  0.2230862988720000  2.1316441885319999
  1.9940274833539997  3.6441657011280002 -0.7549494061200002
  0.0078680124110001  3.5489616913919999  2.2871052861599996
  2.3694303724510002  0.0951962752320000 -0.5061911351690001
  0.8367976549949995  2.0859570562800003  5.4446933527569996
 -1.9201995619510002  3.7720557247680002  5.5602519667619994
