Be B 
 1.0000000000000000
     3.3569969999999998    0.0000000000000000    0.0000000000000000
     0.0000000000000000    3.3569969999999998    0.0000000000000000
     0.0000000000000000    0.0000000000000000    7.0065359999999997
 Be  B  
   8   2
Cartesian
  2.5177477499999998  0.8392492499999999  0.0000000000000000
  0.8392492499999999  2.5177477499999998  0.0000000000000000
  0.8392492499999999  0.8392492499999999  3.3646506917759997
  2.5177477499999998  2.5177477499999998  3.6418853082239999
  0.8392492499999999  2.5177477499999998  2.1367202250959996
  2.5177477499999998  0.8392492499999999  2.1367202250959996
  2.5177477499999998  0.8392492499999999  4.8698157749039996
  0.8392492499999999  2.5177477499999998  4.8698157749039996
  2.5177477499999998  2.5177477499999998  5.8188650891759996
  0.8392492499999999  0.8392492499999999  1.1876709108239998
