Nd S 
 1.0000000000000000
     3.5229729999999999   -0.0000000000000000    2.0339900000000002
     1.1743239999999999    3.3214920000000001    2.0339900000000002
     0.0000000000000000    0.0000000000000000    4.0679790000000002
 Nd  S  
   1   1
Cartesian
  0.0000000000000000  0.0000000000000000  0.0000000000000000
  2.3486484999999999  1.6607460000000001  4.0679794999999999
