Mn V  Cr
 1.0000000000000000
     0.0000000000000000    2.9436849999999999    2.9436849999999999
     2.9436849999999999    0.0000000000000000    2.9436849999999999
     2.9436849999999999    2.9436849999999999    0.0000000000000000
 Mn  V   Cr 
   1   2   1
Cartesian
  4.4155274999999996  4.4155274999999996  4.4155274999999996
  0.0000000000000000  0.0000000000000000  0.0000000000000000
  2.9436908873699998  2.9436908873699998  2.9436908873699998
  1.4718424999999999  1.4718424999999999  1.4718424999999999
