Dy P  Ru
 1.0000000000000000
     3.7599279999999999    0.0000000000000000   -1.4617940000000000
    -0.5683190000000000    3.7167289999999999   -1.4617940000000000
    -0.0077650000000000   -0.0090420000000000    5.5464409999999997
 Dy  P   Ru 
   1   2   2
Cartesian
  0.0000000000000000  0.0000000000000000  0.0000000000000000
  1.1897210804520000  1.3854680332599998  3.0601195008719997
  1.9941229195479997  2.3222189667399999 -0.4372665008720001
  2.6739837499999997  0.9246612500000000  1.3114264999999998
  0.5098602500000000  2.7830257499999997  1.3114264999999998
