Li In Rh
 1.0000000000000000
     3.8351229999999998    0.0000000000000000    2.2142089999999999
     1.2783739999999999    3.6157879999999998    2.2142089999999999
     0.0000000000000000    0.0000000000000000    4.4284179999999997
 Li  In  Rh 
   2   1   1
Cartesian
  2.5567484999999999  1.8078939999999999  4.4284179999999997
  1.2783742499999999  0.9039469999999999  2.2142089999999999
  3.8351227500000000  2.7118409999999997  6.6426269999999992
  0.0000000000000000  0.0000000000000000  0.0000000000000000
