Ca Ir O 
 1.0000000000000000
     3.1820020000000002   -0.0000980000000000    0.0000000000000000
    -1.5911489999999999    4.8989320000000003    0.0000010000000000
     0.0000010000000000    0.0000050000000000    7.3272310000000003
 Ca  Ir  O  
   2   2   6
Cartesian
 -0.0001848356880000  2.4320701121820001  0.0701514060480000
  1.5910351722390002  2.4667860791730001  3.7337449314510001
  3.1819725288660003 -0.0000403137910000  5.5651271985140003
 -1.5911089632569999  4.8988598130200005  1.9014027900230002
 -0.0001913276340000  3.6706826876309999  5.1890651439479996
  1.5910420611090004  1.2281852875900001  1.5253538913730000
 -0.0001964933619999  3.6705288358399999  2.2778610136139998
  1.5910522074540003  1.2282666829589999  5.9415273057060007
  1.5908479961900004  4.1168449509240004  0.0700491687340000
 -0.0000008410720000  0.7819916448820000  3.7336786424480000
