Ir W 
 1.0000000000000000
     2.7897900000000000    0.0000000000000000    0.0000000000000000
     0.0000000000000000    4.4900450000000003    0.0000000000000000
     0.0000000000000000    0.0000000000000000    4.8627789999999997
 Ir  W  
   2   2
Cartesian
  1.3948950000000000  1.1225112500000001  3.2916296934370002
  1.3948950000000000  3.3675337500000002  1.5711493065630000
  0.0000000000000000  1.1225112500000001  0.8394177737590000
  0.0000000000000000  3.3675337500000002  4.0233612262409997
