Nd In
 1.0000000000000000
     4.9928039999999996    0.0000000000000000    0.0000000000000000
     0.0000000000000000    4.9928280000000003    0.0000000000000000
     0.0000000000000000    0.0000000000000000    4.9928189999999999
 Nd  In 
   3   1
Cartesian
  0.0000000000000000  2.4964140000000001  2.4964094999999999
  2.4964019999999998  2.4964140000000001  0.0000000000000000
  2.4964019999999998  0.0000000000000000  2.4964094999999999
  0.0000000000000000  0.0000000000000000  0.0000000000000000
