Sr Si Ag
 1.0000000000000000
     4.0899590000000003    0.0000000000000000   -1.5771520000000001
    -0.6081730000000000    4.0444899999999997   -1.5771520000000001
     0.0040030000000000    0.0046480000000000    6.1021130000000001
 Sr  Si  Ag 
   1   2   2
Cartesian
  0.0000000000000000  0.0000000000000000  0.0000000000000000
  2.1266581014750003  2.4703545628739998 -0.5767584700850000
  1.3591308985250001  1.5787834371259999  3.5245674700849996
  0.5683615000000001  3.0356915000000000  1.4739045000000000
  2.9174275000000001  1.0134464999999999  1.4739045000000000
