Mn Nb Ge
 1.0000000000000000
     3.3118080000000001   -5.7360030000000002   -0.0000000000000000
     3.3116979999999998    5.7359390000000001    0.0000000000000000
     0.0000010000000000    0.0000000000000000    3.6891910000000001
 Mn  Nb  Ge 
   3   3   3
Cartesian
  5.7991912504899998 -1.4277621606640001  0.0000000000000000
  1.6486479431459997 -0.0000101941730000  3.6891910000000001
  5.7991516237080001  1.4276845068580000  3.6891910000000001
  1.3769581652879999  2.3848543014020001  1.8445955000000001
  3.8696381638079997 -0.0000832783600003  1.8445955000000001
  4.6886323532299992  3.3510982407629997  1.8445955000000001
  3.3118184605100001  1.9119564205430004  3.6891910000000001
  3.3117855814820003 -1.9121408768620003  3.6891910000000001
  6.6234104583379994  0.0000220404929995  1.8445955000000001
