Ta Pt
 1.0000000000000000
     4.6169209999999996    0.0000000000000000    0.0000000000000000
     0.0000000000000000    4.9351209999999996    0.0000000000000000
     0.0000000000000000    0.0000000000000000    5.6103059999999996
 Ta  Pt 
   2   6
Cartesian
  3.4626907499999997  1.6769393104370001  4.2077294999999992
  1.1542302499999999  3.2581816895629996  1.4025764999999999
  1.1542302499999999  0.8197038576160000  2.8057364718239999
  3.4626907499999997  4.1154171423839996  2.8045695281759997
  1.1542302499999999  0.8197038576160000  5.6097225281759995
  3.4626907499999997  4.1154171423839996  0.0005834718240000
  1.1542302499999999  3.2480301456659997  4.2077294999999992
  3.4626907499999997  1.6870908543339997  1.4025764999999999
