Ca Cd As
 1.0000000000000000
     4.4138789999999997    0.0000000000000000    0.0000000000000000
    -2.2069390000000002    3.8225310000000001    0.0000000000000000
     0.0000000000000000    0.0000000000000000    7.2060589999999998
 Ca  Cd  As 
   1   2   2
Cartesian
  0.0000000000000000  0.0000000000000000  0.0000000000000000
 -0.0000018736060003  2.5483552741770001  4.5632656859859999
  2.2069418736059996  1.2741757258230000  2.6427933140139999
 -0.0000018736060003  2.5483552741770001  1.7125919819400000
  2.2069418736059996  1.2741757258230000  5.4934670180599996
