Al Pd
 1.0000000000000000
     4.1066289999999999    0.0000000000000000    0.0000000000000000
     0.0000000000000000    5.4847720000000004    0.0000000000000000
     0.0000000000000000    0.0000000000000000    7.8774709999999999
 Al  Pd 
   4   8
Cartesian
  3.0799717499999999  1.6603666341560002  3.1075599023770000
  1.0266572500000000  3.8244053658440005  4.7699110976229999
  3.0799717499999999  4.4027526341560002  0.8311755976230000
  1.0266572500000000  1.0820193658440000  7.0462954023769999
  3.0799717499999999  5.2587061524760008  6.2159154293249994
  1.0266572500000000  0.2260658475240000  1.6615555706750000
  3.0799717499999999  2.5163201524760002  5.6002910706750004
  1.0266572500000000  2.9684518475239998  2.2771799293250004
  3.0799717499999999  4.5778375259400006  3.4145055598920000
  1.0266572500000000  0.9069344740600001  4.4629654401080003
  3.0799717499999999  1.8354515259400004  0.5242299401079999
  1.0266572500000000  3.6493204740600005  7.3532410598919995
