Ti Sn Pt
 1.0000000000000000
     3.7922140000000000    0.0000000000000000    2.1894360000000002
     1.2640720000000001    3.5753339999999998    2.1894360000000002
     0.0000000000000000    0.0000000000000000    4.3788729999999996
 Ti  Sn  Pt 
   1   1   1
Cartesian
  0.0000000000000000  0.0000000000000000  0.0000000000000000
  2.5281430000000000  1.7876669999999999  4.3788724999999999
  1.2640715000000000  0.8938334999999999  2.1894362500000000
