Sm Ge Ru
 1.0000000000000000
     4.2049149999999997    0.0000000000000000    0.9962800000000001
     2.0392160000000001    5.5063630000000003    0.7650570000000000
     0.0017320000000000   -0.0142990000000000    9.3644870000000004
 Sm  Ge  Ru 
   4   4   2
Cartesian
  1.8556961722080001  1.4289192171890002  1.5396329485510001
  4.3901668277919992  4.0631447828109994  9.5861910514490010
  2.7695353903039996  1.8072018323570003  7.0544505872950012
  3.4763276096960003  3.6848621676430002  4.0713734127050003
  1.7813144942630001  4.7474619745490001  1.8535686441350001
  4.4645485057369987  0.7446020254510001  9.2722553558650009
  5.0714072711580007  4.0558595572940002  6.7109489172500005
  1.1744557288419999  1.4362044427060001  4.4148750827500001
  2.8344332115639999  5.0627312025219995  6.7805509554140002
  3.4114297884360001  0.4293327974780000  4.3452730445860004
