Pd S 
 1.0000000000000000
     5.4829710000000000    0.0000000000000000    0.0000000000000000
     0.0000000000000000    5.5653629999999996    0.0000000000000000
     0.0000000000000000    0.0000000000000000    7.8802190000000003
 Pd  S  
   4   8
Cartesian
  2.7414855000000000  0.0000000000000000  3.9401095000000002
  0.0000000000000000  2.7826814999999998  3.9401095000000002
  2.7414855000000000  2.7826814999999998  0.0000000000000000
  0.0000000000000000  0.0000000000000000  0.0000000000000000
  3.3159418546409998  0.6144884249189999  0.6169896268240000
  0.5744563546410000  2.1681930750810001  7.2632293731760003
  2.1670291453589998  3.3971699249189995  3.3231198731760001
  4.9085146453590003  4.9508745750809995  4.5570991268240002
  0.5744563546410000  0.6144884249189999  3.3231198731760001
  3.3159418546409998  2.1681930750810001  4.5570991268240002
  4.9085146453590003  3.3971699249189995  0.6169896268240000
  2.1670291453589998  4.9508745750809995  7.2632293731760003
