Ho S 
 1.0000000000000000
     3.3505150000000001    0.0000000000000000    1.9344220000000001
     1.1168380000000000    3.1588949999999998    1.9344220000000001
     0.0000000000000000    0.0000000000000000    3.8688410000000002
 Ho  S  
   1   1
Cartesian
  0.0000000000000000  0.0000000000000000  0.0000000000000000
  2.2336765000000001  1.5794474999999999  3.8688425000000004
