Cs Au Cl
 1.0000000000000000
     6.4925249999999997   -0.0000000000000000   -3.6841789999999999
    -2.0905860000000001    6.1467340000000004   -3.6841789999999999
     0.0298650000000000    0.0417030000000000    7.6155169999999996
 Cs  Au  Cl 
   2   2   6
Cartesian
  4.3616797499999995  1.5575350000000001  0.1235795000000000
  0.0701242499999999  4.6309019999999999  0.1235795000000000
  2.2009694999999998  3.0733670000000002 -3.6841789999999999
  0.0000000000000000  0.0000000000000000  0.0000000000000000
  1.2942364519859997  1.8072327393569998  2.2807895758870003
  3.1375675480140002  4.3812042606429999 -2.0336305758869995
  3.4271912355960001  4.7856258099760005 -5.7367382779120000
 -0.1899762326040002  4.7856258099760005 -3.6841789999999999
  0.9747477644039999  1.3611081900240001 -1.6316197220880000
  4.5919152326040003  1.3611081900240001 -3.6841789999999999
