Li Pm Hg
 1.0000000000000000
     0.0000000000000000    3.5921650000000001    3.5921650000000001
     3.5921650000000001    0.0000000000000000    3.5921650000000001
     3.5921650000000001    3.5921650000000001    0.0000000000000000
 Li  Pm  Hg 
   1   1   2
Cartesian
  1.7960825000000000  1.7960825000000000  1.7960825000000000
  5.3882475000000003  5.3882475000000003  5.3882475000000003
  0.0000000000000000  0.0000000000000000  0.0000000000000000
  3.5921650000000001  3.5921650000000001  3.5921650000000001
