Sc S 
 1.0000000000000000
     3.1950959999999999    0.0000000000000000    1.8446890000000000
     1.0650320000000000    3.0123669999999998    1.8446890000000000
    -0.0000000000000000   -0.0000000000000000    3.6893799999999999
 Sc  S  
   1   1
Cartesian
  2.1300640000000000  1.5061834999999999  3.6893789999999997
  0.0000000000000000  0.0000000000000000  0.0000000000000000
