U  Si Pd
 1.0000000000000000
     3.8239939999999999    0.0000000000000000   -1.4440459999999999
    -0.5453110000000000    3.7849140000000001   -1.4440459999999999
     0.0456710000000000    0.0527230000000000    5.9061480000000000
 U   Si  Pd 
   1   2   2
Cartesian
  0.0000000000000000  0.0000000000000000  0.0000000000000000
  2.0230659352579998  2.3354288455940000 -0.4279122480399998
  1.3012880647420000  1.5022081544060000  3.4459682480400002
  2.7545032500000000  0.9725900000000001  1.5090280000000000
  0.5698507500000000  2.8650470000000001  1.5090280000000000
