Rb Mg F 
 1.0000000000000000
     4.0569340000000000    0.0000000000000000    0.0000000000000000
     0.0000000000000000    4.0569340000000000    0.0000000000000000
     0.0000000000000000    0.0000000000000000    4.0569340000000000
 Rb  Mg  F  
   1   1   3
Cartesian
  0.0000000000000000  0.0000000000000000  0.0000000000000000
  2.0284670000000000  2.0284670000000000  2.0284670000000000
  0.0000000000000000  2.0284670000000000  2.0284670000000000
  2.0284670000000000  0.0000000000000000  2.0284670000000000
  2.0284670000000000  2.0284670000000000  0.0000000000000000
