Mg As Pt
 1.0000000000000000
     3.9499089999999999    0.0000000000000000    0.0000000000000000
     0.0000000000000000    3.9499089999999999    0.0000000000000000
     0.0000000000000000    0.0000000000000000    7.1274170000000003
 Mg  As  Pt 
   1   1   5
Cartesian
  1.9749505500910001  1.9749505500910001  0.0000000000000000
  0.0000000000000000  0.0000000000000000  3.5637085000000002
  0.0000000000000000  0.0000000000000000  0.0000000000000000
  1.9749505500910001  0.0000000000000000  1.9892264476149999
  0.0000000000000000  1.9749505500910001  1.9892264476149999
  1.9749505500910001  0.0000000000000000  5.1381905523850007
  0.0000000000000000  1.9749505500910001  5.1381905523850007
