Eu Ni P 
 1.0000000000000000
     3.6765469999999998   -0.0000000000000000   -1.4104449999999999
    -0.5410940000000000    3.6365110000000000   -1.4104449999999999
    -0.0006550000000000   -0.0007610000000000    5.4952620000000003
 Eu  Ni  P  
   1   2   2
Cartesian
  0.0000000000000000  0.0000000000000000  0.0000000000000000
  2.6218092500000001  0.9087472500000000  1.3371860000000002
  0.5129887499999999  2.7270027500000000  1.3371860000000002
  1.9710248857869999  2.2860022480089999 -0.3591736759899999
  1.1637731142130001  1.3497477519909999  3.0335456759900001
