Zr Co As
 1.0000000000000000
     7.5097579999999997    0.0000000000000000    0.0000000000000000
    -3.7548800000000000    6.5036420000000001    0.0000000000000000
     0.0000000000000000    0.0000000000000000    3.5678000000000001
 Zr  Co  As 
   6   1   2
Cartesian
  1.8470324898579999  0.0000000000000000  0.0000000000000000
  2.8313620010219998  4.9040647464580003  0.0000000000000000
 -0.9235164908800000  1.5995772535420001  0.0000000000000000
 -2.2007539424000000  3.8118170944099998  1.7839000000000000
  1.5541252298099999  2.6918249055900003  1.7839000000000000
  4.4015067125899998  0.0000000000000000  1.7839000000000000
  0.0000000000000000  0.0000000000000000  1.7839000000000000
 -0.0000044215460004  4.3357635012140001  0.0000000000000000
  3.7548824215459997  2.1678784987860000  0.0000000000000000
