Ca Si Ir
 1.0000000000000000
     7.4779289999999996    0.0000000000000000    0.0000000000000000
     0.0000000000000000    7.4779289999999996    0.0000000000000000
     0.0000000000000000    0.0000000000000000    7.4779289999999996
 Ca  Si  Ir 
   6   8   8
Cartesian
  0.0000000000000000  0.0000000000000000  3.7389644999999998
  3.7389644999999998  0.0000000000000000  0.0000000000000000
  0.0000000000000000  3.7389644999999998  0.0000000000000000
  3.7389644999999998  3.7389644999999998  0.0000000000000000
  0.0000000000000000  3.7389644999999998  3.7389644999999998
  3.7389644999999998  0.0000000000000000  3.7389644999999998
  1.3669429874129999  1.3669429874129999  6.1109860125869995
  6.1109860125869995  6.1109860125869995  6.1109860125869995
  6.1109860125869995  1.3669429874129999  1.3669429874129999
  1.3669429874129999  6.1109860125869995  1.3669429874129999
  5.1059074874129999  5.1059074874129999  2.3720215125870001
  2.3720215125870001  2.3720215125870001  2.3720215125870001
  2.3720215125870001  5.1059074874129999  5.1059074874129999
  5.1059074874129999  2.3720215125870001  5.1059074874129999
  6.4334343110669989  6.4334343110669989  1.0444946889330000
  1.0444946889330000  6.4334343110669989  6.4334343110669989
  1.0444946889330000  1.0444946889330000  1.0444946889330000
  6.4334343110669989  1.0444946889330000  6.4334343110669989
  2.6944698110670000  2.6944698110670000  4.7834591889330005
  4.7834591889330005  2.6944698110670000  2.6944698110670000
  4.7834591889330005  4.7834591889330005  4.7834591889330005
  2.6944698110670000  4.7834591889330005  2.6944698110670000
