Rb Co N 
 1.0000000000000000
     3.4952570000000001    0.0000000000000000    0.0000000000000000
     0.0000000000000000    6.4844900000000001    0.0000000000000000
     0.0000000000000000    0.0000000000000000   10.8883449999999993
 Rb  Co  N  
   4   4   4
Cartesian
  0.8738142500000000  0.5107249168900000  7.2177423520149997
  0.8738142500000000  2.7315200831099999  1.7735698520149998
  2.6214427499999999  5.9737650831100000  3.6706026479849996
  2.6214427499999999  3.7529699168899997  9.1147751479850001
  0.8738142500000000  3.8472154945500003  5.9291829396799995
  0.8738142500000000  5.8795195054500002  0.4850104396800000
  2.6214427499999999  2.6372745054499998  4.9591620603199997
  2.6214427499999999  0.6049704945500001 10.4033345603199994
  0.8738142500000000  0.9182102684900001 10.1771836346699995
  0.8738142500000000  2.3240347315100003  4.7330111346699999
  2.6214427499999999  5.5662797315099999  0.7111613653300000
  2.6214427499999999  4.1604552684899998  6.1553338653299994
