Y  Al Fe
 1.0000000000000000
     8.6999960000000005    0.0000000000000000    0.0000000000000000
     0.0000000000000000    8.6999960000000005    0.0000000000000000
     0.0000000000000000    0.0000000000000000    5.0290549999999996
 Y   Al  Fe 
   2  16   8
Cartesian
  0.0000000000000000  0.0000000000000000  0.0000000000000000
  4.3499980000000003  4.3499980000000003  2.5145274999999998
  5.7382737617120005  0.0000000000000000  0.0000000000000000
  0.0000000000000000  5.7382737617120005  0.0000000000000000
  0.0000000000000000  2.9617222382880004  0.0000000000000000
  2.9617222382880004  0.0000000000000000  0.0000000000000000
  1.9259268145160002  0.0000000000000000  2.5145274999999998
  0.0000000000000000  1.9259268145160002  2.5145274999999998
  0.0000000000000000  6.7740691854840005  2.5145274999999998
  6.7740691854840005  0.0000000000000000  2.5145274999999998
  1.3882757617120001  4.3499980000000003  2.5145274999999998
  4.3499980000000003  1.3882757617120001  2.5145274999999998
  4.3499980000000003  7.3117202382880002  2.5145274999999998
  7.3117202382880002  4.3499980000000003  2.5145274999999998
  6.2759248145160003  4.3499980000000003  0.0000000000000000
  4.3499980000000003  6.2759248145160003  0.0000000000000000
  4.3499980000000003  2.4240711854840002  0.0000000000000000
  2.4240711854840002  4.3499980000000003  0.0000000000000000
  2.1749990000000001  2.1749990000000001  3.7717912499999997
  6.5249970000000008  2.1749990000000001  3.7717912499999997
  6.5249970000000008  2.1749990000000001  1.2572637499999999
  2.1749990000000001  2.1749990000000001  1.2572637499999999
  6.5249970000000008  6.5249970000000008  1.2572637499999999
  2.1749990000000001  6.5249970000000008  1.2572637499999999
  2.1749990000000001  6.5249970000000008  3.7717912499999997
  6.5249970000000008  6.5249970000000008  3.7717912499999997
