Zr Co
 1.0000000000000000
     7.0284899999999997    0.0000220000000000    4.0579830000000001
     2.3428510000000000    6.6265280000000004    4.0579799999999997
     0.0000330000000000    0.0000210000000000    8.1159070000000000
 Zr  Co 
   6  23
Cartesian
  6.0359802510720000  1.4036993344550002  5.7769882785859998
  7.3864206522610001  5.2229318804589999  8.1159633124359996
  1.9851290595330000  1.4035993607570001  8.1159107461550004
  6.0360109859389999  1.4037048120769999 10.4548875086740001
  3.3354309559419999  5.2228794410299999  5.7769703177840004
  3.3354499768419998  5.2229114247610005 10.4548979535640001
  4.6856471719470001  3.3132722468970002  8.1159309418460008
  5.8571360282619995  6.6265401203550001 14.2028338624909996
  9.3712895579930002  6.6265074877690004 12.1739124416279996
  4.6857105285199996  3.3133158795630004 12.1738925580329997
  8.1999226289829998  3.3133296327000004 10.1449833113930001
  8.1999321000309990  3.3133401323840004 14.2028191307119993
  5.8571171858039994  6.6265428735990000 10.1449655795380007
  3.5416202912010002  2.5043070860639998  6.1344538171350003
  5.8297258806049994  4.1222602860149999  6.1343741572439994
  2.3975874155079997  4.1222929302069993  8.1159193152300002
  4.6857325369009999  0.8863712552700000  8.1159329541100007
  6.9736905286480004  2.5042846961180003  8.1159385105229997
  4.6856039778669993  5.7401732386140001  8.1159370456659996
  3.5416551474559999  2.5043107137340002 10.0973943939479991
  5.8297466807380003  4.1222639141870001 10.0975176316730000
  1.6302465639930002  1.1527450382310001  2.8237326267579999
  7.7410424289530004  5.4737864421380005 10.9397654178639989
  5.6034988868809998  5.4737861379900004 12.1738815543049999
  7.0285469614700000  3.4583807235400004 12.1738824664980001
  3.7679079126850001  1.1527782355710001  4.0579965617229998
  2.3428340671400001  3.1682697946460001  4.0579915916850000
  1.6302776864100001  1.1527713049670001  5.2921897989000000
  7.7410876075940003  5.4737928289150002 13.4080521559679990
