Sr In Pt
 1.0000000000000000
     4.4285699999999997    0.0000000000000000   -1.1824060000000001
     0.0000000000000000    7.5350460000000004    0.0000000000000000
    -0.0011120000000000    0.0000000000000000    8.8803959999999993
 Sr  In  Pt 
   2   8   2
Cartesian
  3.8704598972860000  1.8837615000000001  5.6118245213139986
  0.5569981027140000  5.6512845000000000  2.0861654786859996
  3.0308794429219996  0.3738814474740000  2.4672516608139996
  2.2142849999999998  3.7675230000000002 -0.5912030000000000
  1.3965785570779998  4.1414044474739997  5.2307383391859998
  1.3965785570779998  7.1611645525260004  5.2307383391859998
  3.0308794429219996  3.3936415525260002  2.4672516608139996
  4.1270551782420002  5.6512845000000000  6.5728469165459993
  0.3004028217580000  1.8837615000000001  1.1251430834539999
  2.2142849999999998  0.0000000000000000 -0.5912030000000000
  0.9934579467079999  1.8837615000000001  3.7209038714039999
  3.4340000532919999  5.6512845000000000  3.9770861285959995
