Lu Rh
 1.0000000000000000
     3.3251369999999998    0.0000000000000000    0.0000000000000000
     0.0000000000000000    3.3251369999999998    0.0000000000000000
     0.0000000000000000    0.0000000000000000    3.3251369999999998
 Lu  Rh 
   1   1
Cartesian
  0.0000000000000000  0.0000000000000000  0.0000000000000000
  1.6625684999999999  1.6625684999999999  1.6625684999999999
