Ca Al N 
 1.0000000000000000
     6.1128470000000004    0.0000000000000000    0.0000000000000000
     0.0000000000000000    6.8630659999999999    0.0007540000000000
     0.0000000000000000    0.6486400000000000    9.7611100000000004
 Ca  Al  N  
  12   4  12
Cartesian
  4.7833394545820003  4.6369967291559995  2.9769039346640001
  1.7269159545819999  2.5503892708440001  1.9044050653360001
  1.3295075454180001  2.8747092708439999  6.7849600653359996
  4.3859310454180003  4.9613167291559996  7.8574589346640007
  4.8460939418840008  2.6077250086119999  0.7442045389780001
  1.7896704418839999  4.5796609913879998  4.1371044610220000
  1.2667530581160000  4.9039809913879999  9.0176594610220011
  4.3231765581159998  2.9320450086120000  5.6247595389780001
  3.9232435431410004  0.7446392405380000  3.4192760682220000
  0.8668200431410001  6.4427467594619996  1.4620329317780001
  2.1896034568589999  6.7670667594619998  6.3425879317780005
  5.2460269568590006  1.0689592405380000  8.2998310682219998
  5.5603006468230003  6.1305813041819999  5.4687098174579996
  2.5038771468230001  1.7054446958180001  9.1737091825419999
  0.5525463531770001  1.3811246958180001  4.2931541825419997
  3.6089698531770003  5.8062613041819997  0.5881548174580000
  3.4722743685630002  2.8582573490199996  8.0394664785799996
  0.4158508685630001  4.9777686509799999  6.6029525214200007
  2.6405726314370002  4.6534486509799997  1.7223975214200000
  5.6969961314370003  2.5339373490199999  3.1589114785799999
  3.8204988107650002  5.4337595255060007  5.1684910820640004
  0.7640753107650000  2.4022664744940001  9.4739279179360008
  2.2923481892350002  2.0779464744939999  4.5933729179360006
  5.3487716892350008  5.1094395255060006  0.2879360820640000
  3.2915969497840001  0.7849258402639999  1.1449877513660001
  0.2351734497840000  6.4024601597360000  3.7363212486340003
  2.8212500502160003  6.7267801597360002  8.6168762486340000
  5.8776735502160005  1.1092458402640000  6.0255427513660003
