Na Si N 
 1.0000000000000000
     4.8735070000000000    0.0000000000000000    0.0000000000000000
     0.0000000000000000    4.7473140000000003   -2.7086190000000001
     0.0000000000000000   -0.0028940000000000    5.4656739999999999
 Na  Si  N  
   2   4   6
Cartesian
  2.3571252691270002  3.1509590988000000  1.8310705076999998
  4.7938787691269997  1.5934609012000001  0.9259844922999999
  0.0594470383860000  0.0778194449660000  3.6456453171140000
  2.4962005383860002  4.6666005550340000 -0.8885903171140002
  2.4962005383860002  1.5384413305860001  4.4944350264689996
  0.0594470383860000  3.2059786694140002 -1.7373800264690000
  4.7250697237940003  3.6690972070000001  2.1321684842499997
  2.2883162237940002  1.0753227930000000  0.6248865157500000
  1.7530004679000002  3.1117399786540001 -1.2627941870090000
  1.7530004679000002  0.4434958927660000  3.3287961083139996
  4.1897539678999998  4.3009241072340005 -0.5717411083140002
  4.1897539678999998  1.6326800213460002  4.0198491870090001
