Tb Al C 
 1.0000000000000000
     4.9029309999999997    0.0000000000000000    0.0000000000000000
     0.0000000000000000    4.9029309999999997    0.0000000000000000
     0.0000000000000000    0.0000000000000000    4.9029309999999997
 Tb  Al  C  
   3   1   1
Cartesian
  2.4514654999999999  2.4514654999999999  0.0000000000000000
  2.4514654999999999  0.0000000000000000  2.4514654999999999
  0.0000000000000000  2.4514654999999999  2.4514654999999999
  0.0000000000000000  0.0000000000000000  0.0000000000000000
  2.4514654999999999  2.4514654999999999  2.4514654999999999
