Hf Ru
 1.0000000000000000
     3.2488510000000002    0.0000000000000000    0.0000000000000000
     0.0000000000000000    3.2488510000000002    0.0000000000000000
     0.0000000000000000    0.0000000000000000    3.2488510000000002
 Hf  Ru 
   1   1
Cartesian
  0.0000000000000000  0.0000000000000000  0.0000000000000000
  1.6244255000000001  1.6244255000000001  1.6244255000000001
