Sc Sn C 
 1.0000000000000000
     4.5353310000000002    0.0000000000000000    0.0000000000000000
     0.0000000000000000    4.5353310000000002    0.0000000000000000
     0.0000000000000000    0.0000000000000000    4.5353310000000002
 Sc  Sn  C  
   3   1   1
Cartesian
  0.0000000000000000  2.2676655000000001  2.2676655000000001
  2.2676655000000001  2.2676655000000001  0.0000000000000000
  2.2676655000000001  0.0000000000000000  2.2676655000000001
  0.0000000000000000  0.0000000000000000  0.0000000000000000
  2.2676655000000001  2.2676655000000001  2.2676655000000001
