Be Rh Au
 1.0000000000000000
     0.0000190000000000    2.8403960000000001    2.8406150000000001
     2.8403809999999998    0.0000130000000000    2.8406220000000002
     2.8403920000000000    2.8404129999999999    0.0000030000000000
 Be  Rh  Au 
   2   1   1
Cartesian
  2.8404130424330001  2.8404365636539994  2.8406455655650000
  5.6807721171669998  5.6807935959369997  5.6812087531979998
  4.2605883192459997  4.2606164999700002  4.2609299999900010
  1.4201980000000001  1.4202055000000000  1.4203100000000002
