Ca Ag As
 1.0000000000000000
     7.2032699999999998    0.0000000000000000    0.0000000000000000
    -3.6016349999999999    6.2382150000000003    0.0000000000000000
     0.0000000000000000    0.0000000000000000    4.2889249999999999
 Ca  Ag  As 
   3   3   3
Cartesian
 -2.1125930337750001  3.6591185814750000  2.1444624999999999
  1.4890419662249998  2.5790964185250003  2.1444624999999999
  4.2251860675500001  0.0000000000000000  2.1444624999999999
 -0.9007401004199999  1.5601276657800001  0.0000000000000000
  2.7008948995800002  4.6780873342200007  0.0000000000000000
  1.8014802008399997  0.0000000000000000  0.0000000000000000
  0.0000000000000000  0.0000000000000000  2.1444624999999999
 -0.0000036016350002  4.1588120794050001  0.0000000000000000
  3.6016386016349995  2.0794029205950002  0.0000000000000000
