Cs V  I 
 1.0000000000000000
     8.2311189999999996    0.0009900000000000    0.0000000000000000
    -4.1147020000000003    7.1288530000000003    0.0000000000000000
     0.0000000000000000    0.0000000000000000    6.9510579999999997
 Cs  V   I  
   2   2   6
Cartesian
  4.1157671219819996  2.3768136192150000  5.2132934999999998
  0.0004975705889995  4.7527655765940002  1.7377644999999999
  4.1163470209109994  7.1297217926689997  3.4755289999999999
  4.1163470209109994  7.1297217926689997  0.0000000000000000
  2.1396259537189999  5.9888668013520006  5.2132795978840001
  6.2541291321189991  1.1419683229190001  1.7377784021159999
 -2.1380908424830003  5.9872187315250001  5.2132795978840001
  1.9764084201549996  1.1419813906810001  1.7377784021159999
  4.1166980744799995  4.8474036926690003  1.7377784021159999
  0.0007725293320000  2.2826105384030000  5.2132795978840001
