Ba Nd O 
 1.0000000000000000
     3.6186460000000000    0.0000000000000000    0.0000000000000000
     0.0000000000000000   10.6652280000000008    0.0000000000000000
     0.0000000000000000    0.0000000000000000   12.5263109999999998
 Ba  Nd  O  
   4   8  16
Cartesian
  2.7139845000000000  7.9862613743640001 10.6761999179220002
  0.9046615000000000  2.6789666256360003  1.8501110820780000
  2.7139845000000000  2.6536473743640001  8.1132665820779994
  0.9046615000000000  8.0115806256360003  4.4130444179220003
  0.9046615000000000  4.5236457909720000 11.1201073271399995
  2.7139845000000000  6.1415822090280008  1.4062036728600000
  0.9046615000000000  9.8562597909720004  7.6693591728600001
  2.7139845000000000  0.8089682090280000  4.8569518271399996
  2.7139845000000000  0.8486428571880001 11.1343372164360002
  0.9046615000000000  9.8165851428120021  1.3919737835640000
  2.7139845000000000  6.1812568571880000  7.6551292835639995
  0.9046615000000000  4.4839711428119999  4.8711817164360003
  0.9046615000000000  4.5800008557240002  7.2222575543370002
  2.7139845000000000  6.0852271442760006  5.3040534456629995
  0.9046615000000000  9.9126148557239997 11.5672089456629994
  2.7139845000000000  0.7526131442760001  0.9591020543369999
  0.9046615000000000  5.4955893490680001  2.7239841163709997
  2.7139845000000000  5.1696386509320007  9.8023268836290001
  0.9046615000000000  0.1629753490680000  3.5391713836289997
  2.7139845000000000 10.5022526509320002  8.9871396163709996
  0.9046615000000000  1.3051039503600002  6.4900320448319997
  2.7139845000000000  9.3601240496400013  6.0362789551680001
  0.9046615000000000  6.6377179503599999 12.2994344551679990
  2.7139845000000000  4.0275100496400009  0.2268765448320000
  2.7139845000000000  3.0760970554439999  4.1321544200579998
  0.9046615000000000  7.5891309445560005  8.3941565799419990
  2.7139845000000000  8.4087110554439999  2.1310010799420001
  0.9046615000000000  2.2565169445560000 10.3953099200580006
