Sc Cu Si
 1.0000000000000000
     6.4253710000000002    0.0000000000000000    0.0000000000000000
    -3.2126860000000002    5.5645340000000001    0.0000000000000000
     0.0000000000000000    0.0000000000000000    3.9490219999999998
 Sc  Cu  Si 
   3   3   3
Cartesian
  1.3805325094049998  2.3911525987419999  1.9745109999999999
  3.6643055514770002  0.0000000000000000  1.9745109999999999
 -1.8321530608820000  3.1733814012580002  1.9745109999999999
 -0.7804802987820000  1.3518311963579999  0.0000000000000000
  1.5609603546269999  0.0000000000000000  0.0000000000000000
  2.4322049441550004  4.2127028036420002  0.0000000000000000
  3.2126885460189998  1.8548428118219999  0.0000000000000000
 -0.0000035460190000  3.7096911881780001  0.0000000000000000
  0.0000000000000000  0.0000000000000000  1.9745109999999999
