Sc Si Au
 1.0000000000000000
     4.2616310000000004    0.0000000000000000    0.0000000000000000
    -2.1308150000000001    3.6906800000000000    0.0000000000000000
     0.0000000000000000    0.0000000000000000    6.8694759999999997
 Sc  Si  Au 
   2   2   2
Cartesian
  0.0000000000000000  0.0000000000000000  0.0000000000000000
  0.0000000000000000  0.0000000000000000  3.4347379999999998
 -0.0000017974819999  2.4604545635599999  4.8353966784959992
 -0.0000017974819999  2.4604545635599999  2.0340793215039996
  2.1308177974820004  1.2302254364400000  1.4834702116759999
  2.1308177974820004  1.2302254364400000  5.3860057883239998
