Sr In Pt
 1.0000000000000000
     4.5660889999999998    0.0000000000000000    0.0000000000000000
     0.0000000000000000    7.6153149999999998   -0.0000060000000000
     0.0000000000000000   -0.0000070000000000    8.4871759999999998
 Sr  In  Pt 
   4   4   4
Cartesian
  3.4245667499999999  7.3879397910349995  5.7579489928219996
  1.1415222500000000  0.2273682089650000  2.7292210071780003
  3.4245667499999999  3.5801822902120000  6.9725008272039997
  1.1415222500000000  4.0351257097879998  1.5146691727960000
  3.4245667499999999  2.6928561123090002  3.6860463125420000
  1.1415222500000000  1.1147765767839999  7.9295931200059995
  1.1415222500000000  4.9224518876909995  4.8011236874579994
  3.4245667499999999  6.5005314232159996  0.5575768799940001
  1.1415222500000000  5.9297197951309997  7.4591791094040003
  1.1415222500000000  2.1220488688349999  5.2715106493040000
  3.4245667499999999  5.4932591311649999  3.2156593506960003
  3.4245667499999999  1.6855882048690001  1.0279908905960000
