Ca Te
 1.0000000000000000
     3.9141059999999999    0.0000000000000000    2.2598110000000000
     1.3047020000000000    3.6902550000000001    2.2598110000000000
     0.0000000000000000    0.0000000000000000    4.5196209999999999
 Ca  Te 
   1   1
Cartesian
  0.0000000000000000  0.0000000000000000  0.0000000000000000
  2.6094040000000001  1.8451275000000000  4.5196214999999995
