Pr Bi Br O 
 1.0000000000000000
     3.9934840000000000    0.0000000000000000    0.0000000000000000
     0.0000000000000000    3.9934840000000000    0.0000000000000000
     0.0000000000000000    0.0000000000000000    9.4653440000000000
 Pr  Bi  Br  O  
   1   2   1   4
Cartesian
  0.0000000000000000  0.0000000000000000  0.0000000000000000
  1.9967420000000000  1.9967420000000000  6.8920861148160002
  1.9967420000000000  1.9967420000000000  2.5732578851840002
  0.0000000000000000  0.0000000000000000  4.7326720000000000
  0.0000000000000000  1.9967420000000000  7.9777042795520003
  0.0000000000000000  1.9967420000000000  1.4876397204480001
  1.9967420000000000  0.0000000000000000  1.4876397204480001
  1.9967420000000000  0.0000000000000000  7.9777042795520003
