Sr Si Pd
 1.0000000000000000
     6.5311750000000002    0.0000000000000000    0.0000000000000000
     0.0000000000000000    6.5311750000000002    0.0000000000000000
     0.0000000000000000    0.0000000000000000    6.5311750000000002
 Sr  Si  Pd 
   4   4   4
Cartesian
  4.1107280761750005  2.4204469238250002  5.6860344238250002
  2.4204469238250002  5.6860344238250002  4.1107280761750005
  0.8451405761749999  0.8451405761749999  0.8451405761749999
  5.6860344238250002  4.1107280761750005  2.4204469238250002
  1.0540924579500002  2.2114950420500001  4.3196799579500000
  4.3196799579500000  1.0540924579500002  2.2114950420500001
  2.2114950420500001  4.3196799579500000  1.0540924579500002
  5.4770825420499998  5.4770825420499998  5.4770825420499998
  3.8501995054250000  5.9465629945750003  0.5846120054250000
  0.5846120054250000  3.8501995054250000  5.9465629945750003
  2.6809754945750002  2.6809754945750002  2.6809754945750002
  5.9465629945750003  0.5846120054250000  3.8501995054250000
