Hf Os
 1.0000000000000000
     5.2143639999999998    0.0000000000000000    0.0000000000000000
    -2.6071819999999999    4.5157710000000000    0.0000000000000000
     0.0000000000000000    0.0000000000000000    8.5728550000000006
 Hf  Os 
   4   8
Cartesian
 -0.0000026071820001  3.0105155052570001  3.7145237700950000
  2.6071846071820000  1.5052554947429999  4.8583312299049997
  2.6071846071820000  1.5052554947429999  8.0009512700950012
 -0.0000026071820001  3.0105155052570001  0.5719037299050000
  0.0000000000000000  1.5595666725599999  6.4296412500000004
 -1.2565574367200001  3.7359876637200000  6.4296412500000004
  1.3506245632800000  0.7797833362800000  2.1432137500000001
  2.6071819999999999  2.9562043274400001  2.1432137500000001
  1.2565574367200001  3.7359876637200000  6.4296412500000004
  0.0000000000000000  0.0000000000000000  0.0000000000000000
  3.8637394367200000  0.7797833362800000  2.1432137500000001
  0.0000000000000000  0.0000000000000000  4.2864275000000003
