Tm Ag Hg
 1.0000000000000000
     0.0000000000000000    3.6017739999999998    3.6017739999999998
     3.6017739999999998    0.0000000000000000    3.6017739999999998
     3.6017739999999998    3.6017739999999998    0.0000000000000000
 Tm  Ag  Hg 
   2   1   1
Cartesian
  0.0000000000000000  0.0000000000000000  0.0000000000000000
  3.6017812035480001  3.6017812035480001  3.6017812035480001
  1.8008869999999999  1.8008869999999999  1.8008869999999999
  5.4026682035480000  5.4026682035480000  5.4026682035480000
