Ca Ac Zn
 1.0000000000000000
     0.0040870000000000    3.8045049999999998    3.8045049999999998
     3.8045049999999998    0.0040870000000000    3.8045049999999998
     3.8045049999999998    3.8045049999999998    0.0040870000000000
 Ca  Ac  Zn 
   1   1   2
Cartesian
  5.7098227499999998  5.7098227499999998  5.7098227499999998
  1.9032742499999999  1.9032742499999999  1.9032742499999999
  0.0013246788780000  0.0013246788780000  0.0013246788780000
  3.8052162080250000  3.8052162080250000  3.8052162080250000
