Ca Zr N 
 1.0000000000000000
     5.9045259999999997    0.4083350000000000    0.2571040000000000
     4.7593319999999997    3.5183700000000000    0.2571040000000000
     4.7593319999999997    1.7525080000000000    3.0616590000000001
 Ca  Zr  N  
   1   1   2
Cartesian
  0.0000000000000000  0.0000000000000000  0.0000000000000000
  7.7115949999999991  2.8396064999999999  1.7879335000000001
 11.7505891508199998  4.3268674420140005  2.7243743982260002
  3.6726008491799997  1.3523455579860000  0.8514926017740000
