Ta Si
 1.0000000000000000
     4.7837909999999999    0.0000000000000000    0.0000000000000000
    -2.3918949999999999    4.1428839999999996    0.0000000000000000
     0.0000000000000000    0.0000000000000000    6.5528060000000004
 Ta  Si 
   3   6
Cartesian
 -1.1959474999999999  2.0714419999999998  2.1842664823980003
  1.1959480000000000  2.0714419999999998  4.3685395176020005
  2.3918955000000000  0.0000000000000000  0.0000000000000000
  2.3918982335049996  2.8304970635959998  0.0000000000000000
 -1.2553380944599999  3.4866926032399994  4.3685395176020005
  1.2553341522790002  3.4866926032399994  2.1842664823980003
 -0.0000022335050000  1.3123869364039997  0.0000000000000000
  3.6472340944599995  0.6561913967599999  4.3685395176020005
  1.1365618477210000  0.6561913967599999  2.1842664823980003
