Li Ge Pd
 1.0000000000000000
     3.6888480000000001    0.0000000000000000    2.1297579999999998
     1.2296160000000000    3.4778790000000002    2.1297579999999998
     0.0000000000000000    0.0000000000000000    4.2595150000000004
 Li  Ge  Pd 
   1   1   2
Cartesian
  2.4592320000000001  1.7389395000000001  4.2595155000000000
  0.0000000000000000  0.0000000000000000  0.0000000000000000
  1.2296160000000000  0.8694697500000000  2.1297577500000000
  3.6888480000000001  2.6084092500000002  6.3892732500000005
