Ho In
 1.0000000000000000
     4.6022650000000001    0.0000000000000000    0.0000000000000000
     0.0000000000000000    4.6022650000000001    0.0000000000000000
     0.0000000000000000    0.0000000000000000    4.6022650000000001
 Ho  In 
   1   3
Cartesian
  0.0000000000000000  0.0000000000000000  0.0000000000000000
  2.3011325000000000  0.0000000000000000  2.3011325000000000
  0.0000000000000000  2.3011325000000000  2.3011325000000000
  2.3011325000000000  2.3011325000000000  0.0000000000000000
