Al Fe
 1.0000000000000000
     7.4301250000000003    0.0000000000000000    0.0000000000000000
     0.0000000000000000    6.4684369999999998    0.0000000000000000
     0.0000000000000000    0.0000000000000000    8.7818590000000007
 Al  Fe 
  24   4
Cartesian
  5.0306552927500006  6.4681135781499997  4.3911841739110002
  0.0000000000000000  0.9453814728610000  0.8684204727920001
  5.0306552927500006  0.0003234218500000  0.0002546739110000
  0.0000000000000000  5.5237605867720001  7.9125252138720006
  6.0808663108749998  1.3567158501280001  6.5864381592950005
  2.3994697072500002  0.0003234218500000  0.0002546739110000
  0.0000000000000000  0.9446764132280000  3.5215957138720002
  1.3492586891250000  5.1117211498719994  2.1955086592950002
  6.0808663108749998  5.1117211498719994  2.1955086592950002
  1.3492586891250000  1.3567158501280001  6.5864381592950005
  0.0000000000000000  5.5230555271390003  5.2593499727920001
  2.3994697072500002  6.4681135781499997  4.3911841739110002
  1.3155927927500000  3.2338950781499998  4.3911841739110002
  3.7150625000000002  4.1795999728609994  0.8684204727920001
  1.3155927927500000  3.2345419218500000  0.0002546739110000
  3.7150625000000002  2.2895420867719998  7.9125252138720006
  2.3658038108750001  4.5909343501280002  6.5864381592950005
  6.1145322072499999  3.2345419218500000  0.0002546739110000
  3.7150625000000002  4.1788949132279996  3.5215957138720002
  5.0643211891250006  1.8775026498720000  2.1955086592950002
  2.3658038108750001  1.8775026498720000  2.1955086592950002
  5.0643211891250006  4.5909343501280002  6.5864381592950005
  3.7150625000000002  2.2888370271389999  5.2593499727920001
  6.1145322072499999  3.2338950781499998  4.3911841739110002
  0.0000000000000000  2.9799248362189998  2.1957808969240000
  0.0000000000000000  3.4885121637809999  6.5867103969240013
  3.7150625000000002  6.2141433362189993  2.1957808969240000
  3.7150625000000002  0.2542936637810000  6.5867103969240013
