Sc B  Rh
 1.0000000000000000
     4.0966709999999997    0.0000000000000000    0.0000000000000000
     0.0000000000000000    4.0966709999999997    0.0000000000000000
     0.0000000000000000    0.0000000000000000    4.0966709999999997
 Sc  B   Rh 
   1   1   3
Cartesian
  0.0000000000000000  0.0000000000000000  0.0000000000000000
  2.0483354999999999  2.0483354999999999  2.0483354999999999
  0.0000000000000000  2.0483354999999999  2.0483354999999999
  2.0483354999999999  0.0000000000000000  2.0483354999999999
  2.0483354999999999  2.0483354999999999  0.0000000000000000
