Zn O 
 1.0000000000000000
     3.2869299999999999    0.0000000000000000    0.0000000000000000
    -1.6434650000000000    2.8465650000000000    0.0000000000000000
     0.0000000000000000    0.0000000000000000    5.3035569999999996
 Zn  O  
   2   2
Cartesian
  1.6434666434650000  0.9488540511450000  2.6485963658000000
 -0.0000016434650001  1.8977109488550001  5.3003748657999994
  1.6434666434650000  0.9488540511450000  0.6379648715299999
 -0.0000016434650001  1.8977109488550001  3.2897433715299997
