Dy Al
 1.0000000000000000
     5.5980600000000003    0.0000000000000000    0.0000000000000000
     0.0000000000000000    5.8101799999999999   -0.0000390000000000
    -0.0000000000000000   -0.0000760000000000   11.3848020000000005
 Dy  Al 
   8   8
Cartesian
  1.3995150000000001  3.4727916923200000  9.4803859344090018
  4.1985450000000002  2.3372832559440000  1.9045022986080000
  4.1985450000000002  3.4727868358280003  7.5967932132300007
  1.3995150000000001  2.3372881142599997  3.7878217845390001
  1.3995150000000001  4.8653649362440001  5.8608178720650006
  4.1985450000000002  0.9447623068320000  5.5235921989170009
  4.1985450000000002  4.8652652734079993 11.2162970421060013
  1.3995150000000001  0.9448561550040000  0.1687847322330000
  2.7990132058200001  5.4137847089279996  2.8463577022530000
  5.5980432058200007  0.3963251013280000  8.5383939129060007
  2.7990467941800001  0.3963251013280000  8.5383939129060007
  0.0000167941800000  5.4137847089279996  2.8463577022530000
  1.3995150000000001  1.9590600445319999  6.8157034935210001
  4.1985450000000002  3.8510613860839999  4.5690481215599998
  4.1985450000000002  1.9589382696160000 10.2613821282960007
  1.3995150000000001  3.8511599195959993  1.1234719501590000
