Lu Ni Ge
 1.0000000000000000
     3.7250239999999999    0.0000000000000000   -1.4181779999999999
    -0.5399230000000000    3.6856870000000002   -1.4181779999999999
    -0.0016360000000000   -0.0018930000000000    5.5969189999999998
 Lu  Ni  Ge 
   1   2   2
Cartesian
  0.0000000000000000  0.0000000000000000  0.0000000000000000
  2.6579692499999998  0.9204752500000001  1.3802814999999999
  0.5254957499999999  2.7633187500000003  1.3802814999999999
  1.9969386930969999  2.3107873437929998 -0.3560005401739998
  1.1865263069029999  1.3730066562070000  3.1165635401739995
