Lu Ga
 1.0000000000000000
     4.1775180000000001    0.0000000000000000    0.0000000000000000
     0.0000000000000000    4.1775180000000001    0.0000000000000000
     0.0000000000000000    0.0000000000000000    4.1775180000000001
 Lu  Ga 
   1   3
Cartesian
  0.0000000000000000  0.0000000000000000  0.0000000000000000
  0.0000000000000000  2.0887590000000000  2.0887590000000000
  2.0887590000000000  2.0887590000000000  0.0000000000000000
  2.0887590000000000  0.0000000000000000  2.0887590000000000
