Li S 
 1.0000000000000000
     3.4723579999999998    0.0000000000000000    2.0047670000000002
     1.1574519999999999    3.2737690000000002    2.0047670000000002
     0.0000000000000000    0.0000000000000000    4.0095330000000002
 Li  S  
   2   1
Cartesian
  1.1574525000000000  0.8184422500000000  2.0047667499999999
  3.4723574999999998  2.4553267500000002  6.0143002500000007
  0.0000000000000000  0.0000000000000000  0.0000000000000000
