Li Zn Pt
 1.0000000000000000
     0.0000000000000000    3.0193740000000000    3.0193740000000000
     3.0193740000000000    0.0000000000000000    3.0193740000000000
     3.0193740000000000    3.0193740000000000    0.0000000000000000
 Li  Zn  Pt 
   1   2   1
Cartesian
  1.5096930387479999  1.5096930387479999  1.5096930387479999
  0.0000000000000000  0.0000000000000000  0.0000000000000000
  3.0193740000000000  3.0193740000000000  3.0193740000000000
  4.5290610000000004  4.5290610000000004  4.5290610000000004
