Al Fe
 1.0000000000000000
     2.8770630000000001    0.0000000000000000    0.0000000000000000
     0.0000000000000000    2.8770630000000001    0.0000000000000000
     0.0000000000000000    0.0000000000000000    2.8770630000000001
 Al  Fe 
   1   1
Cartesian
  0.0000000000000000  0.0000000000000000  0.0000000000000000
  1.4385315000000001  1.4385315000000001  1.4385315000000001
