Be Cr Ru
 1.0000000000000000
     0.0000000000000000    2.8682560000000001    2.8682560000000001
     2.8682560000000001    0.0000000000000000    2.8682560000000001
     2.8682560000000001    2.8682560000000001    0.0000000000000000
 Be  Cr  Ru 
   1   1   2
Cartesian
  1.4341222634880000  1.4341222634880000  1.4341222634880000
  4.3023782634880003  4.3023782634880003  4.3023782634880003
  0.0000000000000000  0.0000000000000000  0.0000000000000000
  2.8682560000000001  2.8682560000000001  2.8682560000000001
