Sc Pd
 1.0000000000000000
     3.3174299999999999    0.0000000000000000    0.0000000000000000
     0.0000000000000000    3.3174299999999999    0.0000000000000000
     0.0000000000000000    0.0000000000000000    3.3174299999999999
 Sc  Pd 
   1   1
Cartesian
  1.6587149999999999  1.6587149999999999  1.6587149999999999
  0.0000000000000000  0.0000000000000000  0.0000000000000000
