Ti Ni
 1.0000000000000000
     5.0536000000000003   -0.0000000000000000    0.0000000000000000
    -2.5268020000000000    4.3765479999999997    0.0000000000000000
     0.0000000000000000    0.0000000000000000    8.2314319999999999
 Ti  Ni 
   4  12
Cartesian
  2.5268018601340003  1.4588478744839999  6.1735740000000003
 -0.0000038601340001  2.9177001255159998  2.0578580000000000
  0.0000000000000000  0.0000000000000000  4.1157159999999999
  0.0000000000000000  0.0000000000000000  0.0000000000000000
  1.2633990000000002  2.1882739999999998  0.0000000000000000
  2.5268000000000002  0.0000000000000000  4.1157159999999999
  2.5268062690060007  2.8696893939559995  2.0578580000000000
 -1.2218357956999999  3.6231252617999998  6.1735740000000003
  1.2218173235000003  3.6231252617999998  6.1735740000000003
  1.3049806765000003  0.7534227381999999  2.0578580000000000
  3.7486337957000004  0.7534227381999999  2.0578580000000000
 -0.0000082690060000  1.5068586060439999  6.1735740000000003
 -1.2634010000000000  2.1882739999999998  0.0000000000000000
 -1.2634010000000000  2.1882739999999998  4.1157159999999999
  1.2633990000000002  2.1882739999999998  4.1157159999999999
  2.5268000000000002  0.0000000000000000  0.0000000000000000
