Zn Fe
 1.0000000000000000
     5.0147139999999997   -0.0004490000000000    0.7800990000000000
     0.6924140000000000    6.0611560000000004    2.2010090000000000
     0.0253960000000000   -0.0274100000000000    6.4853660000000000
 Zn  Fe 
  13   1
Cartesian
  5.0401106670179994 -0.0278529114340000  7.2654607156430000
  4.9844338835119997  2.3224681726530001  4.0764870971719995
  0.7480900910920001  3.7108288547570005  5.3899804174619996
  2.4413327496179993  4.6864287595280008  7.0400549165029993
  3.2911892239319998  1.3468500021840002  2.4264254512019998
  2.0245253490319999  3.8081439499480001  3.0452227909719998
  3.9823658546619995  4.7293133237520006  4.6591340127169998
  3.7080036656819995  2.2251530496029996  6.4212519891269997
  1.7501581453379997  1.3039836762480002  4.8073399872830000
  4.4661484796199993  3.8964963058870006  2.0808473357900001
  1.6911072602539998  6.0136768280170010  4.6575767577290001
  1.2663812275079998  2.1368067548199998  7.3856296453179997
  4.0414167143500004  0.0196201993930000  4.8088907569049999
  3.2251669999999999  6.0335215000000009  9.0764244999999999
