Ca Cd
 1.0000000000000000
     8.8763349999999992    0.0000000000000000    0.0000000000000000
     0.0000000000000000    8.8763349999999992    0.0000000000000000
     0.0000000000000000    0.0000000000000000    8.0304099999999998
 Ca  Cd 
  12   8
Cartesian
  1.2911428127650000  1.2911428127650000  4.0152049999999999
  3.1470246872349996  5.7293103127649996  0.0000000000000000
  5.7293103127649996  3.1470246872349996  0.0000000000000000
  7.5851921872349992  7.5851921872349992  4.0152049999999999
  1.7613311540499998  1.7613311540499998  0.0000000000000000
  2.6768363459500000  6.1994986540499992  4.0152049999999999
  6.1994986540499992  2.6768363459500000  4.0152049999999999
  7.1150038459499996  7.1150038459499996  0.0000000000000000
  0.0000000000000000  4.4381674999999996  6.0228074999999999
  0.0000000000000000  4.4381674999999996  2.0076025000000000
  4.4381674999999996  0.0000000000000000  2.0076025000000000
  4.4381674999999996  0.0000000000000000  6.0228074999999999
  3.3294688768249996  3.3294688768249996  2.4403853861300000
  1.1086986231750000  7.7676363768249992  6.4555903861299999
  7.7676363768249992  1.1086986231750000  6.4555903861299999
  5.5468661231749996  5.5468661231749996  2.4403853861300000
  3.3294688768249996  3.3294688768249996  5.5900246138699998
  1.1086986231750000  7.7676363768249992  1.5748196138699999
  7.7676363768249992  1.1086986231750000  1.5748196138699999
  5.5468661231749996  5.5468661231749996  5.5900246138699998
