Mg Si Ir
 1.0000000000000000
     0.0000000000000000    2.9911829999999999    2.9911829999999999
     2.9911829999999999    0.0000000000000000    2.9911829999999999
     2.9911829999999999    2.9911829999999999    0.0000000000000000
 Mg  Si  Ir 
   1   1   2
Cartesian
  1.4955915000000000  1.4955915000000000  1.4955915000000000
  4.4867745000000001  4.4867745000000001  4.4867745000000001
  0.0000000000000000  0.0000000000000000  0.0000000000000000
  2.9911829999999999  2.9911829999999999  2.9911829999999999
