Sr I 
 1.0000000000000000
     5.0154959999999997    0.0000000000000000    0.0000000000000000
     0.0000000000000000    8.5009770000000007    0.0000000000000000
     0.0000000000000000    0.0000000000000000   12.5362329999999993
 Sr  I  
   4   8
Cartesian
  1.2538739999999999  1.1213128702080000  2.1333534507749996
  3.7616220000000000  5.3718013702080007  4.1347630492249996
  1.2538739999999999  3.1291756297919999  8.4014699507749988
  3.7616220000000000  7.3796641297920003 10.4028795492250001
  1.2538739999999999  3.2046643055519999  4.9122852923510001
  1.2538739999999999  7.4856458100510004  4.7328792618879998
  3.7616220000000000  3.2351573100510000  1.5352372381119999
  1.2538739999999999  5.2658196899490006 11.0009957618879994
  1.2538739999999999  1.0458241944480000 11.1804017923509988
  3.7616220000000000  7.4551528055520002  1.3558312076490000
  3.7616220000000000  1.0153311899490001  7.8033537381119995
  3.7616220000000000  5.2963126944480008  7.6239477076490001
