Cs Si P 
 1.0000000000000000
     5.7795189999999996    0.0000000000000000   -2.2413889999999999
    -1.2728269999999999    6.6644340000000000   -3.2820399999999998
     0.0360370000000000    0.0122190000000000    8.6649879999999992
 Cs  Si  P  
   4   2   4
Cartesian
 -0.3804526385720000  6.5488790301809994 -0.9810053289950000
  4.9231816385719993  0.1277739698190000  4.1225643289949998
  1.1844338013020002  4.5730180921590007  3.0541053285949995
  3.3582951986980003  2.1036349078410002  0.0874536714049999
  3.6982257499999998  3.3322170000000000 -3.3220617499999996
  0.8084662499999999  3.3322170000000000 -2.2013672499999997
  2.4560611881929995  4.9075847424420003 -2.2390046274560000
  4.5943806507950002  3.7694381092620004  3.2747451292159990
 -0.0516516507950000  2.9072148907379995 -0.1331861292160000
  2.0866678118069997  1.7690682575580001  5.3805636274559996
