Sr Ru O 
 1.0000000000000000
     5.5432720000000000    0.0000000000000000    0.0000000000000000
     0.0000000000000000    5.5752129999999998    0.0000000000000000
     0.0000000000000000    0.0000000000000000    7.8765700000000001
 Sr  Ru  O  
   4   4  12
Cartesian
  2.6477106111680002  2.7688180321900000  1.9691425000000000
  5.4193466111679998  0.0187884678100000  1.9691425000000000
  2.8955613888320002  2.8063949678099998  5.9074274999999998
  0.1239253888320000  5.5564245321899994  5.9074274999999998
  2.7716360000000000  0.0000000000000000  0.0000000000000000
  0.0000000000000000  2.7876064999999999  3.9382850000000000
  2.7716360000000000  0.0000000000000000  3.9382850000000000
  0.0000000000000000  2.7876064999999999  0.0000000000000000
  1.2242205346560000  1.2318711884150000  0.2260654355700000
  3.9958565346560002  1.5557353115849999  3.7122195644300002
  4.3190514653439998  4.3433418115849998  4.1643504355700003
  1.5474154653440000  4.0194776884149999  7.6505045644300003
  4.3190514653439998  4.3433418115849998  7.6505045644300003
  1.5474154653440000  4.0194776884149999  4.1643504355700003
  1.2242205346560000  1.2318711884150000  3.7122195644300002
  3.9958565346560002  1.5557353115849999  0.2260654355700000
  0.0205267362160000  3.0953248063219996  1.9691425000000000
  2.7921627362160000  5.2674946936779996  1.9691425000000000
  5.5227452637839995  2.4798881936779997  5.9074274999999998
  2.7511092637840000  0.3077183063220000  5.9074274999999998
