Pm Ag Pt
 1.0000000000000000
     0.0000000000000000    3.6254879999999998    3.6254879999999998
     3.6254879999999998    0.0000000000000000    3.6254879999999998
     3.6254879999999998    3.6254879999999998    0.0000000000000000
 Pm  Ag  Pt 
   2   1   1
Cartesian
  0.0000000000000000  0.0000000000000000  0.0000000000000000
  3.6254879999999998  3.6254879999999998  3.6254879999999998
  1.8127439999999999  1.8127439999999999  1.8127439999999999
  5.4382392509760002  5.4382392509760002  5.4382392509760002
