Tb Mg Rh
 1.0000000000000000
     0.0000000000000000    3.2673540000000001    3.2673540000000001
     3.2673540000000001    0.0000000000000000    3.2673540000000001
     3.2673540000000001    3.2673540000000001    0.0000000000000000
 Tb  Mg  Rh 
   1   1   2
Cartesian
  4.9010244652920001  4.9010244652920001  4.9010244652920001
  1.6336704652920000  1.6336704652920000  1.6336704652920000
  0.0000000000000000  0.0000000000000000  0.0000000000000000
  3.2673540000000001  3.2673540000000001  3.2673540000000001
