Li P  N 
 1.0000000000000000
     3.9794060000000000    0.0000000000000000   -2.1516080000000000
    -1.1633439999999999    3.8055610000000000   -2.1516080000000000
     0.0346410000000000    0.0468130000000000    4.8198319999999999
 Li  P   N  
   2   2   4
Cartesian
  1.4080310000000000  1.9027805000000000 -2.1516080000000000
  2.7110389999999995  0.9747967500000000  0.2583080000000000
  0.0000000000000000  0.0000000000000000  0.0000000000000000
  0.1396640000000000  2.8775772499999999  0.2583080000000000
  0.7402664052560001  1.4387886249999999 -0.2333403094080000
  2.7971315947440001  3.3415691249999999 -2.7357636905920000
 -0.2985239562560000  2.7238299299640003  1.8257603094079999
  2.4625319562560000  0.2005603200360000  2.1765756905920002
