Rb Nd Te
 1.0000000000000000
     6.9822850000000001    0.0000000000000000    0.0000000000000000
     0.0000000000000000    6.9822850000000001    0.0000000000000000
     0.0000000000000000    0.0000000000000000    9.2316680000000009
 Rb  Nd  Te 
   2   2   8
Cartesian
  5.2367137499999998  5.2367137499999998  0.0000000000000000
  1.7455712500000000  1.7455712500000000  0.0000000000000000
  5.2367137499999998  5.2367137499999998  4.6158340000000004
  1.7455712500000000  1.7455712500000000  4.6158340000000004
  4.2449290417449994  0.7537865417450000  2.7123656067480000
  2.7373559582549998  4.2449290417449994  2.7123656067480000
  0.7537865417450000  6.2284984582550003  2.7123656067480000
  4.2449290417449994  2.7373559582549998  6.5193023932520004
  6.2284984582550003  0.7537865417450000  6.5193023932520004
  6.2284984582550003  2.7373559582549998  2.7123656067480000
  0.7537865417450000  4.2449290417449994  6.5193023932520004
  2.7373559582549998  6.2284984582550003  6.5193023932520004
