Na Br
 1.0000000000000000
     6.0569559999999996    0.0000000000000000    0.0000000000000000
     0.0000000000000000    6.0569559999999996    0.0000000000000000
     0.0000000000000000    0.0000000000000000    6.0569559999999996
 Na  Br 
   4   4
Cartesian
  0.0000000000000000  0.0000000000000000  0.0000000000000000
  0.0000000000000000  3.0284779999999998  3.0284779999999998
  3.0284779999999998  0.0000000000000000  3.0284779999999998
  3.0284779999999998  3.0284779999999998  0.0000000000000000
  0.0000000000000000  0.0000000000000000  3.0284779999999998
  0.0000000000000000  3.0284779999999998  0.0000000000000000
  3.0284779999999998  0.0000000000000000  0.0000000000000000
  3.0284779999999998  3.0284779999999998  3.0284779999999998
