Mg S 
 1.0000000000000000
     3.1897229999999999    0.0000000000000000    1.8415880000000000
     1.0632410000000001    3.0072990000000002    1.8415880000000000
     0.0000000000000000    0.0000000000000000    3.6831740000000002
 Mg  S  
   1   1
Cartesian
  0.0000000000000000  0.0000000000000000  0.0000000000000000
  2.1264820000000002  1.5036495000000001  3.6831750000000003
