Cs Mg Br
 1.0000000000000000
     7.6483470000000002   -0.0000000000000000    0.0000000000000000
    -3.8241740000000002    6.6236620000000004    0.0000000000000000
     0.0000000000000000    0.0000000000000000    6.5098849999999997
 Cs  Mg  Br 
   2   2   6
Cartesian
  3.8241771575070005  2.2078851254459999  1.6274712499999999
 -0.0000041575070000  4.4157768745540000  4.8824137499999996
  0.0000000000000000  0.0000000000000000  3.2549424999999998
  0.0000000000000000  0.0000000000000000  0.0000000000000000
  1.9867341967999992  5.5628162940800001  1.6274712499999999
  5.8109080366399999  1.0608457059200000  4.8824137499999996
 -1.9867350366400003  5.5628162940800001  1.6274712499999999
  1.8374388032000000  1.0608457059200000  4.8824137499999996
  3.8241731601600004  4.5019705881599998  4.8824137499999996
 -0.0000001601600001  2.1216914118400001  1.6274712499999999
