Li Al Ag
 1.0000000000000000
     3.8217370000000002    0.0000000000000000    2.2064810000000001
     1.2739119999999999    3.6031680000000001    2.2064810000000001
     0.0000000000000000    0.0000000000000000    4.4129610000000001
 Li  Al  Ag 
   2   1   1
Cartesian
  1.2739122500000000  0.9007920000000000  2.2064807499999999
  2.5478244999999999  1.8015840000000001  4.4129614999999998
  0.0000000000000000  0.0000000000000000  0.0000000000000000
  3.8217367499999999  2.7023760000000001  6.6194422500000005
