Mo Pt
 1.0000000000000000
     4.4766149999999998    0.0000000000000000    0.0000000000000000
     0.0000000000000000    2.7337349999999998    0.0000000000000000
     0.0000000000000000    0.0000000000000000    4.9584029999999997
 Mo  Pt 
   2   2
Cartesian
  1.1191537499999999  0.0000000000000000  0.8020216852499999
  3.3574612500000001  0.0000000000000000  4.1563813147499999
  1.1191537499999999  1.3668674999999999  3.2860774617869999
  3.3574612500000001  1.3668674999999999  1.6723255382129998
