Na O 
 1.0000000000000000
     6.2726179999999996    0.0000000000000000    0.0000000000000000
    -3.1363089999999998    5.4322460000000001    0.0000000000000000
     0.0000000000000000    0.0000000000000000    4.5074699999999996
 Na  O  
   6   6
Cartesian
 -2.1949364447230000  3.8017410663620002  2.2537349999999998
  0.9413725552769999  1.6305049336380000  2.2537349999999998
  4.3898728894460000  0.0000000000000000  2.2537349999999998
 -1.1463836656799999  1.9855945579200001  0.0000000000000000
  1.9899253343200001  3.4466514420800003  0.0000000000000000
  2.2927673313599999  0.0000000000000000  0.0000000000000000
  3.1363121363089999  1.8107468559180000  1.4768725454999998
  3.1363121363089999  1.8107468559180000  3.0305974544999996
 -0.0000031363090001  3.6214991440820001  3.0305974544999996
 -0.0000031363090001  3.6214991440820001  1.4768725454999998
  0.0000000000000000  0.0000000000000000  3.7390590517499995
  0.0000000000000000  0.0000000000000000  0.7684109482499999
