Ti Pd
 1.0000000000000000
     3.3054570000000001    0.0000000000000000    0.0000000000000000
     0.0000000000000000    3.3054570000000001    0.0000000000000000
     0.0000000000000000    0.0000000000000000   11.5304669999999998
 Ti  Pd 
   3   5
Cartesian
  1.6527285000000000  1.6527285000000000  1.5763416740370000
  1.6527285000000000  1.6527285000000000  9.9541253259630000
  0.0000000000000000  0.0000000000000000  5.7652334999999999
  0.0000000000000000  0.0000000000000000  2.7886549744170002
  1.6527285000000000  1.6527285000000000  7.1433318549060001
  1.6527285000000000  1.6527285000000000  4.3871351450939997
  0.0000000000000000  0.0000000000000000  8.7418120255830001
  0.0000000000000000  0.0000000000000000  0.0000000000000000
