Mg Tl Pb
 1.0000000000000000
     0.0000000000000000    3.6866810000000001    3.6866810000000001
     3.6866810000000001    0.0000000000000000    3.6866810000000001
     3.6866810000000001    3.6866810000000001    0.0000000000000000
 Mg  Tl  Pb 
   2   1   1
Cartesian
  0.0000000000000000  0.0000000000000000  0.0000000000000000
  3.6866736266380005  3.6866736266380005  3.6866736266380005
  5.5300215000000001  5.5300215000000001  5.5300215000000001
  1.8433405000000000  1.8433405000000000  1.8433405000000000
