Li Mg Pd
 1.0000000000000000
     0.0000000000000000    3.0646689999999999    3.0646689999999999
     3.0646689999999999    0.0000000000000000    3.0646689999999999
     3.0646689999999999    3.0646689999999999    0.0000000000000000
 Li  Mg  Pd 
   1   1   2
Cartesian
  1.5323344999999999  1.5323344999999999  1.5323344999999999
  4.5970034999999996  4.5970034999999996  4.5970034999999996
  0.0000000000000000  0.0000000000000000  0.0000000000000000
  3.0646628706620000  3.0646628706620000  3.0646628706620000
