Ca Si
 1.0000000000000000
     3.8896869999999999    0.0000000000000000    0.0000000000000000
    -1.9448430000000001    3.3685679999999998    0.0000000000000000
     0.0000000000000000    0.0000000000000000    4.9459239999999998
 Ca  Si 
   1   2
Cartesian
  0.0000000000000000  0.0000000000000000  0.0000000000000000
  1.9448456115099997  1.1228548771439999  2.9020110151520000
 -0.0000016115100002  2.2457131228559999  2.0439129848479998
