Li Cu Sb
 1.0000000000000000
     6.3544850000000004    0.0000000000000000    0.0000000000000000
     0.0000000000000000    6.3544850000000004    0.0000000000000000
     0.0000000000000000    0.0000000000000000    6.3544850000000004
 Li  Cu  Sb 
   8   4   4
Cartesian
  4.7658637500000003  1.5886212500000001  1.5886212500000001
  0.0000000000000000  3.1772425000000002  0.0000000000000000
  4.7658637500000003  4.7658637500000003  4.7658637500000003
  0.0000000000000000  0.0000000000000000  3.1772425000000002
  1.5886212500000001  1.5886212500000001  4.7658637500000003
  3.1772425000000002  3.1772425000000002  3.1772425000000002
  1.5886212500000001  4.7658637500000003  1.5886212500000001
  3.1772425000000002  0.0000000000000000  0.0000000000000000
  0.0000000000000000  0.0000000000000000  0.0000000000000000
  0.0000000000000000  3.1772425000000002  3.1772425000000002
  3.1772425000000002  0.0000000000000000  3.1772425000000002
  3.1772425000000002  3.1772425000000002  0.0000000000000000
  1.5886212500000001  4.7658637500000003  4.7658637500000003
  1.5886212500000001  1.5886212500000001  1.5886212500000001
  4.7658637500000003  4.7658637500000003  1.5886212500000001
  4.7658637500000003  1.5886212500000001  4.7658637500000003
