Cr B 
 1.0000000000000000
     2.9004690000000002    0.0001030000000000   -0.0001110000000000
     0.0001030000000000    2.9004940000000001   -0.0001110000000000
    -1.4505880000000000   -1.4505999999999999    7.8016290000000001
 Cr  B  
   4   4
Cartesian
  1.4503259170520000  2.1754014354479998  1.1324544240600001
  1.4500828080980004  0.7250384863160001  5.0333625424979997
 -0.0003433855539998 -0.7254001031499999  6.6694284684270002
 -0.0001060276120000  0.7249570948370002  2.7672252984450001
  1.4501268413630002  2.1751589976369998  3.3902995601699999
  1.4498561691860001  0.7248467956190002  7.2914807308500000
 -0.0001486388830000 -0.7251677952130000  4.4110138220580009
  0.0001379660000000  0.7251545388999999  0.5103553520850000
