Ta As
 1.0000000000000000
     3.3135580000000000   -0.0000420000000000   -0.9376860000000000
    -0.2655660000000000    3.3027940000000000   -0.9376750000000000
     0.0093260000000000    0.0101260000000000    6.3525739999999997
 Ta  As 
   2   2
Cartesian
  0.0000497991380000  0.0008259383780000  0.0019580385010000
  2.4241838286499999  0.8307568567699999  2.2407375969909999
  1.2804777692079998  1.3876681458080000  4.5214297623849999
  0.3811590006039999  2.2081626006439996  1.3453981619230000
