Ca Zn N 
 1.0000000000000000
     3.4462489999999999    0.0000030000000000    0.0000030000000000
    -1.7231230000000000    2.9845359999999999    0.0000000000000000
     0.0000050000000000    0.0000030000000000    5.9902790000000001
 Ca  Zn  N  
   1   2   2
Cartesian
  0.0000025000000000  0.0000015000000000  2.9951395000000001
  1.7231291360500001  0.9948497369080000  0.8264208908440001
  0.0000018639500002  1.9896922630919998  5.1638611091560005
  1.7231219153000001  0.9948456386240000  4.5619588752320004
  0.0000090847000001  1.9896963613759999  1.4283231247680002
