Lu Al B 
 1.0000000000000000
     3.4929670000000002    0.0000000000000000    0.0000000000000000
     0.0000000000000000    5.8837489999999999    0.0000000000000000
     0.0000000000000000    0.0000000000000000   11.4062120000000000
 Lu  Al  B  
   4   4  16
Cartesian
  0.0000000000000000  2.1788699296799998  7.4160909181600001
  0.0000000000000000  3.7048790703200001  3.9901210818400004
  0.0000000000000000  5.1207444296800002  9.6932270818399999
  0.0000000000000000  0.7630045703199999  1.7129849181600001
  0.0000000000000000  2.1291404831320002 10.3800179187839987
  0.0000000000000000  3.7546085168680001  1.0261940812160000
  0.0000000000000000  5.0710149831319997  6.7293000812160004
  0.0000000000000000  0.8127340168680001  4.6769119187840005
  1.7464835000000001  0.1493766196120000  7.9072766255160003
  1.7464835000000001  5.7343723803879998  3.4989353744840002
  1.7464835000000001  3.0912511196119996  9.2020413744839988
  1.7464835000000001  2.7924978803879998  2.2041706255159998
  1.7464835000000001  0.6739481454560000  6.2461785657439997
  1.7464835000000001  5.2098008545440004  5.1600334342560004
  1.7464835000000001  3.6158226454559999 10.8631394342560004
  1.7464835000000001  2.2679263545440000  0.5430725657440000
  1.7464835000000001  1.7134183137880001  3.5666198364919999
  1.7464835000000001  4.1703306862120000  7.8395921635079997
  1.7464835000000001  4.6552928137879999  2.1364861635080001
  1.7464835000000001  1.2284561862120000  9.2697258364920003
  1.7464835000000001  2.1616128938629999  5.3543496618880004
  1.7464835000000001  3.7221361061370000  6.0518623381120005
  1.7464835000000001  5.1034873938630003  0.3487563381120000
  1.7464835000000001  0.7802616061370000 11.0574556618879996
