Ni B 
 1.0000000000000000
     3.9237229999999998    0.0082670000000000   -1.0858350000000001
    -2.2696149999999999    3.2007070000000000   -1.0858350000000001
    -0.0042600000000000   -0.0082670000000000    4.0711950000000003
 Ni  B  
   4   2
Cartesian
  2.2864314080460000  1.8676327345200001 -1.6287525000000003
  0.1313815039840000  0.2548787593210000  2.5200077121750004
  0.1947305919539999  2.9458282654799999 -1.6287525000000000
  0.6914124960159999  1.3413412406790000  0.4653522878250002
  1.9597315000000000  0.0000000000000000  1.4926800000000000
 -1.1369374999999999  1.5962200000000000  1.4926800000000000
