In P 
 1.0000000000000000
     3.6154180000000000    0.0000000000000000    2.0873629999999999
     1.2051390000000000    3.4086490000000000    2.0873629999999999
     0.0000000000000000    0.0000000000000000    4.1747249999999996
 In  P  
   1   1
Cartesian
  0.0000000000000000  0.0000000000000000  0.0000000000000000
  1.2051392500000000  0.8521622500000000  2.0873627499999996
