Hf Co As
 1.0000000000000000
     3.7951790000000001    0.0000000000000000    0.0000000000000000
     0.0000000000000000    6.4226470000000004    0.0000000000000000
     0.0000000000000000    0.0000000000000000    7.1876559999999996
 Hf  Co  As 
   4   4   4
Cartesian
  0.9487947500000000  3.3342914994620001  5.8391582948719991
  2.8463842499999998  3.0883555005380003  1.3484977051280000
  0.9487947500000000  0.1229679994620000  4.9423257051279998
  2.8463842499999998  6.2996790005380001  2.2453302948720002
  0.9487947500000000  4.1007445018539999  3.1349967915839998
  2.8463842499999998  2.3219024981460001  4.0526592084159994
  0.9487947500000000  0.8894210018540000  0.4588312084160000
  2.8463842499999998  5.5332259981460004  6.7288247915839996
  2.8463842499999998  4.6991425228440002  4.4184893358479993
  0.9487947500000000  1.7235044771560000  2.7691666641519999
  2.8463842499999998  1.4878190228440000  6.3629946641519997
  0.9487947500000000  4.9348279771560009  0.8246613358479999
