Sc Co Sn
 1.0000000000000000
     6.2137539999999998   -0.0000010000000000    0.0000000000000000
    -0.0000010000000000    6.2137539999999998   -0.0000010000000000
    -0.0000010000000000   -0.0000010000000000    6.2137560000000001
 Sc  Co  Sn 
   4   8   4
Cartesian
  6.2137472862459990  3.1068697862460000  0.0000057137570000
  6.2137472862459990  0.0000047137560000  3.1068717862430000
  3.1068822137560002  3.1068697862460000  3.1068712862450001
  3.1068832137519999  0.0000057137520000  0.0000062137550000
  1.5534369999999997  4.6603145000000001  4.6603162500000002
  4.6603149999999989  1.5534374999999998  1.5534387500000000
  1.5534379999999999  1.5534379999999999  1.5534387500000000
  4.6603139999999996  4.6603139999999996  4.6603162500000002
  4.6603144999999992  4.6603144999999992  1.5534382499999999
  1.5534374999999998  1.5534374999999998  4.6603167499999998
  4.6603144999999992  1.5534369999999997  4.6603167499999998
  1.5534374999999998  4.6603149999999998  1.5534382499999999
  0.0000000000000000  0.0000000000000000  0.0000000000000000
 -0.0000010000000000  3.1068764999999998  3.1068775000000000
  3.1068764999999998 -0.0000010000000000  3.1068780000000000
  3.1068764999999998  3.1068764999999998 -0.0000005000000000
