Ge
 1.0000000000000000
     6.0227339999999998    0.0000000000000000    0.0000000000000000
     0.0000000000000000    6.0227339999999998    0.0000000000000000
     0.0000000000000000    0.0000000000000000    7.1207580000000004
 Ge 
  12
Cartesian
  0.5260436557620000  0.5260436557620000  0.0000000000000000
  2.4853233442380001  3.5374106557619998  5.3405684999999998
  3.5374106557619998  2.4853233442380001  1.7801895000000001
  5.4966903442380000  5.4966903442380000  3.5603790000000002
  1.0289961493680000  2.2303870367520000  1.7980483610640001
  0.7809799632480000  4.0403631493679999  0.0178588610640000
  5.2417540367519999  1.9823708506319999  3.5782378610639998
  4.0403631493679999  0.7809799632480000  7.1028991389360003
  1.9823708506319999  5.2417540367519999  3.5425201389360002
  4.9937378506319998  3.7923469632479998  5.3584273610639999
  2.2303870367520000  1.0289961493680000  5.3227096389360007
  3.7923469632479998  4.9937378506319998  1.7623306389360001
