Ga S 
 1.0000000000000000
     6.4552310000000004    0.0000000000000000    0.0000000000000000
    -3.2276140000000000    4.8121619999999998   -2.8934129999999998
     0.0000000000000000    0.0000420000000000    7.0534390000000000
 Ga  S  
   4   6
Cartesian
 -0.4282071397660000  1.9525415080260000  3.1966515649349998
  0.4282083570040002  1.9525205080260000 -0.3300679350649999
  2.6022070320179997  0.4242088764540000  4.1819807147770005
  3.8530306876569997  0.4241878764540000  0.6552612147770001
  0.5717150085930002  3.2718004388399997  1.5795396617640001
 -0.5717129688989998  3.2717794388399999 -1.9471798382359999
  3.7894728714969999  1.6698032147400002  2.6063680159660003
  2.6657656247100006  1.6697822147400001 -0.9203514840339999
  5.8767745243000009  0.0058977961860000  6.9483199810230003
  0.5784435688890001  0.0058767961860000  3.4216004810230003
