Zr S  N 
 1.0000000000000000
     3.6193780000000002    0.0000000000000000    0.0000000000000000
    -1.8096900000000000    3.1344729999999998    0.0000000000000000
     0.0000000000000000    0.0000000000000000   12.8676940000000002
 Zr  S   N  
   4   2   4
Cartesian
 -0.0000024763560000  2.0896497114910000  7.7492084160680008
  1.8096904763560000  1.0448232885089999  1.3153614160679998
  1.8096904763560000  1.0448232885089999  5.1184855839320003
 -0.0000024763560000  2.0896497114910000 11.5523325839319995
  0.0000000000000000  0.0000000000000000  3.2169235000000000
  0.0000000000000000  0.0000000000000000  9.6507705000000001
  1.8096904763560000  1.0448232885089999  7.3058777546859996
 -0.0000024763560000  2.0896497114910000  0.8720307546860000
 -0.0000024763560000  2.0896497114910000  5.5618162453139997
  1.8096904763560000  1.0448232885089999 11.9956632453140006
