Tl Pt Se
 1.0000000000000000
     7.4656880000000001    0.0000000000000000    0.0000000000000000
    -3.7328450000000002    6.4654759999999998    0.0000000000000000
     0.0000000000000000    0.0000000000000000    6.0160619999999998
 Tl  Pt  Se 
   2   4   6
Cartesian
 -0.0000043995110001  4.3103194884919995  2.0762212050060000
  3.7328473995110003  2.1551565115079998  3.9398347789319996
  0.0000000000000000  0.0000000000000000  0.0000000000000000
  3.7328440000000001  0.0000000000000000  0.0000000000000000
 -1.8664225000000001  3.2327379999999999  0.0000000000000000
  1.8664215000000000  3.2327379999999999  0.0000000000000000
 -1.8353655684800001  5.3699657465599993  4.7608527761339996
 -0.0000040717250001  2.1910269723559996  4.7608527761339996
  1.8353564416720003  5.3699657465599993  4.7608527761339996
  1.8974865583279996  1.0955102534400001  1.2552092238660000
  3.7328470717249993  4.2744490276439997  1.2552092238660000
  5.5682085684799993  1.0955102534400001  1.2552092238660000
