Ac Cu Ir
 1.0000000000000000
     0.0000000000000000    3.7336529999999999    3.7336529999999999
     3.7336529999999999    0.0000000000000000    3.7336529999999999
     3.7336529999999999    3.7336529999999999    0.0000000000000000
 Ac  Cu  Ir 
   2   1   1
Cartesian
  3.7336529999999999  3.7336529999999999  3.7336529999999999
  0.0000000000000000  0.0000000000000000  0.0000000000000000
  1.8668264999999999  1.8668264999999999  1.8668264999999999
  5.6004720326939994  5.6004720326939994  5.6004720326939994
