Ba Er F 
 1.0000000000000000
     4.2120270000000000    0.0092670000000000   -0.3875560000000000
    -0.8028910000000000    5.7029189999999996   -2.4297789999999999
     0.0083710000000000   -0.0029750000000000    6.2507330000000003
 Ba  Er  F  
   1   2   8
Cartesian
  0.0000000000000000  0.0000000000000000  0.0000000000000000
  1.8512654617540001  1.8522682187019999  3.2415785015040002
  1.5662415382460000  3.8569427812979997  0.1918194984960000
 -0.5903160181400000  4.2078035951799997 -0.1552244406400001
 -0.2042039818600000  1.4921404048199998  3.9761784406400005
  0.6360986659230000  2.2487328220109997  1.4186935528440001
  1.3151244473269998  3.8315057061689997  4.1581219574370003
  2.3310310685390001  0.2695390111890000  1.7218175861790002
  2.1023825526729998  1.8777052938309999 -0.7247239574370000
  1.0864759314609997  5.4396719888109999  1.7115804138210002
  2.7814083340769997  3.4604781779890001  2.0147044471560003
