Cs Sn I 
 1.0000000000000000
     7.2134390000000002    0.0000000000000000    4.1646809999999999
     2.4044800000000000    6.8008949999999997    4.1646809999999999
     0.0000000000000000    0.0000000000000000    8.3293610000000005
 Cs  Sn  I  
   2   1   6
Cartesian
  2.4044797500000001  1.7002237499999999  4.1646807500000005
  7.2134392499999995  5.1006712499999995 12.4940422499999997
  0.0000000000000000  0.0000000000000000  0.0000000000000000
  7.2619905051120011  5.1350021679599998  8.3293617550479997
  3.5824441249680001  5.1350021679599998 10.4537483643279998
  6.0354748750320004  1.6658928320399999  6.2049746356720004
  2.3559284948879999  1.6658928320399999  8.3293612449520005
  6.0354748750320004  1.6658928320399999 10.4537483643279998
  3.5824441249680001  5.1350021679599998  6.2049746356720004
