Rb C  N 
 1.0000000000000000
     6.9482340000000002    0.2995830000000000   -1.1446470000000000
    -3.4006430000000001    4.5992819999999996    1.7618300000000000
    -3.6073960000000000   -0.0297330000000000   10.0349409999999999
 Rb  C   N  
   6   3   6
Cartesian
  3.9006335884670000  1.2607060548269999  2.7790254113649997
 -3.9604385884669999  3.6084259451729999  7.8730985886350000
  0.6938811624550001  2.1838783120229999  3.5586503678810000
 -0.7536861624549998  2.6852536879769997  7.0934736321189993
  1.7375938809319995  0.7312012989599999  9.2808470896959996
 -1.7973988809320001  4.1379307010399993  1.3712769103039999
  1.7737955000000001  2.4494324999999999  0.3085915000000000
  2.8170215862760002  0.9975671643209998  6.0298184289350001
 -2.8768265862760001  3.8715648356789996  4.6223055710649996
  2.9825167663180006  2.3083688063459999  0.0724683068060000
 -3.0423217663180000  2.5607631936540001 10.5796556931940007
  4.0253761149459999  0.8559628973640000  5.7927101337559996
 -4.0851811149459998  4.0131691026359997  4.8594138662440001
 -1.6682333874249997  3.7313788142489996  4.3846864609029996
  1.6084283874250005  1.1377531857509999  6.2674375390970001
