Er Sb Pt
 1.0000000000000000
     3.9999050000000000    0.0000000000000000    2.3093480000000000
     1.3333020000000000    3.7711480000000002    2.3093480000000000
     0.0000000000000000    0.0000000000000000    4.6186920000000002
 Er  Sb  Pt 
   1   1   1
Cartesian
  2.6666034999999999  1.8855740000000001  4.6186939999999996
  0.0000000000000000  0.0000000000000000  0.0000000000000000
  1.3333017500000000  0.9427870000000000  2.3093469999999998
