Ba S 
 1.0000000000000000
     6.4580209999999996    0.0000000000000000    0.0000000000000000
     0.0000000000000000    6.4580209999999996    0.0000000000000000
     0.0000000000000000    0.0000000000000000    6.4580209999999996
 Ba  S  
   4   4
Cartesian
  0.0000000000000000  0.0000000000000000  0.0000000000000000
  0.0000000000000000  3.2290104999999998  3.2290104999999998
  3.2290104999999998  0.0000000000000000  3.2290104999999998
  3.2290104999999998  3.2290104999999998  0.0000000000000000
  3.2290104999999998  0.0000000000000000  0.0000000000000000
  3.2290104999999998  3.2290104999999998  3.2290104999999998
  0.0000000000000000  0.0000000000000000  3.2290104999999998
  0.0000000000000000  3.2290104999999998  0.0000000000000000
