Sc Ni Bi
 1.0000000000000000
     3.8105370000000001    0.0000000000000000    2.2000150000000001
     1.2701789999999999    3.5926070000000001    2.2000150000000001
     0.0000000000000000    0.0000000000000000    4.4000279999999998
 Sc  Ni  Bi 
   1   1   1
Cartesian
  2.5403579999999999  1.7963035000000001  4.4000290000000000
  1.2701789999999999  0.8981517500000000  2.2000145000000000
  0.0000000000000000  0.0000000000000000  0.0000000000000000
