Li In Pt
 1.0000000000000000
     0.0000000000000000    3.2714880000000002    3.2714880000000002
     3.2714880000000002    0.0000000000000000    3.2714880000000002
     3.2714880000000002    3.2714880000000002    0.0000000000000000
 Li  In  Pt 
   1   2   1
Cartesian
  0.0000000000000000  0.0000000000000000  0.0000000000000000
  1.6357440000000001  1.6357440000000001  1.6357440000000001
  4.9072320000000005  4.9072320000000005  4.9072320000000005
  3.2714880000000002  3.2714880000000002  3.2714880000000002
