Th Mn Si
 1.0000000000000000
     3.7421730000000002    0.0000000000000000   -1.3416710000000001
    -0.4810260000000000    3.7111290000000001   -1.3416710000000001
     0.0330660000000000    0.0376280000000000    5.9818730000000002
 Th  Mn  Si 
   1   2   2
Cartesian
  0.0000000000000000  0.0000000000000000  0.0000000000000000
  0.5913067500000001  2.8021607500000001  1.6492655000000001
  2.7029062499999998  0.9465962500000000  1.6492655000000001
  1.2626791226130003  1.4369066404330002  3.5218543370449997
  2.0315338773870004  2.3118503595670004 -0.2233233370450002
