Th Si Os
 1.0000000000000000
     3.9349289999999999    0.0000000000000000   -1.5454969999999999
    -0.6070150000000000    3.8878260000000000   -1.5454969999999999
    -0.0252650000000000   -0.0295150000000000    5.7177049999999996
 Th  Si  Os 
   1   2   2
Cartesian
  0.0000000000000000  0.0000000000000000  0.0000000000000000
  2.0966404877990001  2.4493944472010005 -0.4438531375589999
  1.2060085122010000  1.4089165527990000  3.0705641375589998
  2.7868104999999996  0.9571990000000000  1.3133554999999999
  0.5158385000000000  2.9011119999999999  1.3133554999999999
