Pb O 
 1.0000000000000000
     3.4090009999999999    0.0000000000000000    0.0000000000000000
     0.0000000000000000    4.9949599999999998    0.0000000000000000
     0.0000000000000000    0.0000000000000000    4.9949599999999998
 Pb  O  
   2   4
Cartesian
  0.0000000000000000  0.0000000000000000  0.0000000000000000
  1.7045005000000000  2.4974799999999999  2.4974799999999999
  0.0000000000000000  1.5355955578400000  1.5355955578400000
  1.7045005000000000  0.9618844421599999  4.0330755578399993
  1.7045005000000000  4.0330755578399993  0.9618844421599999
  0.0000000000000000  3.4593644421600001  3.4593644421600001
