Tb Zn Ni
 1.0000000000000000
     6.9751960000000004    0.0000000000000000    0.0000000000000000
    -3.4875980000000002    6.0406969999999998    0.0000000000000000
     0.0000000000000000    0.0000000000000000    3.7509109999999999
 Tb  Zn  Ni 
   3   3   3
Cartesian
 -2.0591510987580000  3.5665543634369996  0.0000000000000000
  1.4284469012420002  2.4741426365630002  0.0000000000000000
  4.1183021975159999  0.0000000000000000  0.0000000000000000
  1.6684878087880002  0.0000000000000000  1.8754554999999999
  2.6533540956059998  4.5957441555089993  1.8754554999999999
 -0.8342439043940001  1.4449528444910000  1.8754554999999999
  0.0000000000000000  0.0000000000000000  0.0000000000000000
  3.4876014875980008  2.0135636531009999  1.8754554999999999
 -0.0000034875980000  4.0271333468990003  1.8754554999999999
