Ba Y  O 
 1.0000000000000000
     3.4610300000000001    0.0000000000000000    0.0000000000000000
     0.0000000000000000   10.4362460000000006    0.0000000000000000
     0.0000000000000000    0.0000000000000000   12.1404630000000004
 Ba  Y   O  
   4   8  16
Cartesian
  0.8652575000000000  7.8613945143880004  4.2564948896520001
  2.5957724999999998  2.5748514856120002  7.8839681103480004
  0.8652575000000000  2.6432715143880001  1.8137366103480002
  2.5957724999999998  7.7929744856120005 10.3267263896520003
  0.8652575000000000  4.4531774769380004  4.7226522474630004
  2.5957724999999998  5.9830685230619993  7.4178107525370001
  0.8652575000000000  9.6713004769380007  1.3475792525370001
  2.5957724999999998  0.7649455230620000 10.7928837474630015
  2.5957724999999998  0.8136201744060001  4.7493248446739997
  0.8652575000000000  9.6226258255940014  7.3911381553259998
  2.5957724999999998  6.0317431744059995  1.3209066553260000
  0.8652575000000000  4.4045028255940002 10.8195563446740017
  2.5957724999999998  3.0337749672160004  4.1418524975429998
  0.8652575000000000  7.4024710327840006  7.9986105024569998
  2.5957724999999998  8.2518979672159993  1.9283790024570002
  0.8652575000000000  2.1843480327839999 10.2120839975430009
  2.5957724999999998  4.0155230646820002  0.2157481679730000
  0.8652575000000000  6.4207229353180004 11.9247148320270000
  2.5957724999999998  9.2336460646820004  5.8544833320270007
  0.8652575000000000  1.2025999353180001  6.2859796679729998
  2.5957724999999998 10.2391053130600014  8.7060231410039997
  0.8652575000000000  0.1971406869400000  3.4344398589959999
  2.5957724999999998  5.0209823130600002  9.5046713589960010
  0.8652575000000000  5.4152636869399995  2.6357916410039999
  2.5957724999999998  0.7325201067400001  0.8982364359810000
  0.8652575000000000  9.7037258932600015 11.2422265640190009
  2.5957724999999998  5.9506431067400003  5.1719950640189998
  0.8652575000000000  4.4856028932600003  6.9684679359810007
