Rb Fe Se
 1.0000000000000000
     5.9552459999999998    3.7531240000000001   -0.0060020000000000
    -5.9552459999999998    3.7531240000000001   -0.0060020000000000
     0.0000000000000000    2.0806740000000001    5.2138900000000001
 Rb  Fe  Se 
   2   2   4
Cartesian
 -4.2989729824800005  4.2732925000000002  1.2974705000000000
  4.2989729824799996  5.3136295000000002  3.9044155000000003
  0.0313484149439999  4.2732925000000002  1.2974705000000000
 -0.0313484149440000  5.3136295000000002  3.9044155000000003
 -1.3149957349980002  2.5182955026300000  0.5056583601160001
 -1.3149957349979993  6.0282894973700003  2.0892826398840003
  1.3149957349979993  7.0686264973700004  4.6962276398840004
  1.3149957349980002  3.5586325026300001  3.1126033601160001
