Fe Pd
 1.0000000000000000
     2.7177889999999998    0.0000000000000000    0.0000000000000000
     0.0000000000000000    2.7177889999999998    0.0000000000000000
     0.0000000000000000    0.0000000000000000    3.7735479999999999
 Fe  Pd 
   1   1
Cartesian
  0.0000000000000000  0.0000000000000000  0.0000000000000000
  1.3588944999999999  1.3588944999999999  1.8867740000000000
