K  U  Se
 1.0000000000000000
    -2.0501250000000000    2.7608410000000001   11.0335260000000002
     2.0501250000000000   -2.7608410000000001   11.0335260000000002
     2.0501250000000000    2.7608410000000001  -11.0335260000000002
 K   U   Se 
   1   2   6
Cartesian
  0.0000000000000000  0.0000000000000000  0.0000000000000000
  2.0501250000000000  0.0000000000000000  7.0901217405480006
  0.0000000000000000  2.7608410000000001  3.9434042594519996
  0.0000000000000000  0.0000000000000001 17.0118213925799999
 -0.0000000000000001  1.3528120900000000 13.3545164623080002
  2.0501250000000000  1.4080289100000001 -2.3209904623080000
  0.0000000000000000 -0.0000000000000000  5.0552306074200004
  2.0501250000000000  1.4080289100000001  2.3209904623080009
 -0.0000000000000001  1.3528120900000002  8.7125355376919984
