Ce Cu Si
 1.0000000000000000
     4.1731049999999996    0.0000000000000000    0.0000000000000000
    -2.0865520000000002    3.6140150000000002    0.0000000000000000
     0.0000000000000000    0.0000000000000000    8.1394179999999992
 Ce  Cu  Si 
   2   2   2
Cartesian
  0.0000000000000000  0.0000000000000000  4.0697089999999996
  0.0000000000000000  0.0000000000000000  0.0000000000000000
 -0.0000017532190004  2.4093445380050000  2.0362870375680000
  2.0865547532189996  1.2046704619949999  6.1031309624320000
  2.0865547532189996  1.2046704619949999  2.0346265962960000
 -0.0000017532190004  2.4093445380050000  6.1047914037039996
