La Fe Si
 1.0000000000000000
     4.1404319999999997    0.0000000000000000    0.0000000000000000
     0.0000000000000000    4.1404319999999997    0.0000000000000000
     0.0000000000000000    0.0000000000000000    7.3062529999999999
 La  Fe  Si 
   2   2   2
Cartesian
  1.0351079999999999  1.0351079999999999  5.0276811019020000
  3.1053239999999995  3.1053239999999995  2.2785718980979999
  3.1053239999999995  1.0351079999999999  0.0000000000000000
  1.0351079999999999  3.1053239999999995  0.0000000000000000
  1.0351079999999999  1.0351079999999999  1.2104561595219998
  3.1053239999999995  3.1053239999999995  6.0957968404780001
