Hf Cr
 1.0000000000000000
     7.0941190000000001    0.0000000000000000    0.0000000000000000
     0.0000000000000000    7.0941190000000001    0.0000000000000000
     0.0000000000000000    0.0000000000000000    7.0941190000000001
 Hf  Cr 
   8  16
Cartesian
  4.4338243750000004  0.8867648750000000  4.4338243750000004
  6.2073541250000002  6.2073541250000002  6.2073541250000002
  4.4338243750000004  4.4338243750000004  0.8867648750000000
  6.2073541250000002  2.6602946250000001  2.6602946250000001
  0.8867648750000000  0.8867648750000000  0.8867648750000000
  2.6602946250000001  6.2073541250000002  2.6602946250000001
  0.8867648750000000  4.4338243750000004  4.4338243750000004
  2.6602946250000001  2.6602946250000001  6.2073541250000002
  1.7735297500000000  0.0000000000000000  5.3205892500000003
  0.0000000000000000  0.0000000000000000  3.5470595000000000
  5.3205892500000003  1.7735297500000000  0.0000000000000000
  0.0000000000000000  1.7735297500000000  5.3205892500000003
  1.7735297500000000  3.5470595000000000  1.7735297500000000
  0.0000000000000000  3.5470595000000000  0.0000000000000000
  5.3205892500000003  5.3205892500000003  3.5470595000000000
  0.0000000000000000  5.3205892500000003  1.7735297500000000
  5.3205892500000003  0.0000000000000000  1.7735297500000000
  3.5470595000000000  0.0000000000000000  0.0000000000000000
  1.7735297500000000  1.7735297500000000  3.5470595000000000
  3.5470595000000000  1.7735297500000000  1.7735297500000000
  5.3205892500000003  3.5470595000000000  5.3205892500000003
  3.5470595000000000  3.5470595000000000  3.5470595000000000
  1.7735297500000000  5.3205892500000003  0.0000000000000000
  3.5470595000000000  5.3205892500000003  5.3205892500000003
