Sr Fe As
 1.0000000000000000
     3.7571180000000002    0.0000000000000000   -1.1324920000000001
    -0.3413610000000000    3.7415790000000002   -1.1324920000000001
    -0.1020630000000000   -0.1117990000000000    6.4598880000000003
 Sr  Fe  As 
   1   2   2
Cartesian
  0.0000000000000000  0.0000000000000000  0.0000000000000000
  2.6814667499999998  0.8794952500000001  2.0974520000000001
  0.6322272500000000  2.7502847500000001  2.0974520000000001
  2.1864049936749996  2.3949615212389999  0.4550571583040002
  1.1272890063250001  1.2348184787609999  3.7398468416960005
