Rb H 
 1.0000000000000000
     3.6792330000000000    0.0000000000000000    2.1242060000000000
     1.2264109999999999    3.4688150000000002    2.1242060000000000
     0.0000000000000000    0.0000000000000000    4.2484120000000001
 Rb  H  
   1   1
Cartesian
  2.4528219999999998  1.7344075000000001  4.2484120000000001
  0.0000000000000000  0.0000000000000000  0.0000000000000000
