Nd Ge Pd
 1.0000000000000000
     4.0239909999999997    0.0000000000000000   -1.5802480000000001
    -0.6205740000000000    3.9758520000000002   -1.5802480000000001
    -0.0009220000000000   -0.0010780000000000    5.9111830000000003
 Nd  Ge  Pd 
   1   2   2
Cartesian
  0.0000000000000000  0.0000000000000000  0.0000000000000000
  1.2847265019220000  1.5008093496120001  3.2714552104540000
  2.1177684980780001  2.4739646503880000 -0.5207682104540002
  2.8623887500000000  0.9934240000000001  1.3753435000000001
  0.5401062499999999  2.9813500000000004  1.3753435000000001
