Al Ge Ru
 1.0000000000000000
     0.0000000000000000    2.9850050000000001    2.9850050000000001
     2.9850050000000001    0.0000000000000000    2.9850050000000001
     2.9850050000000001    2.9850050000000001    0.0000000000000000
 Al  Ge  Ru 
   1   1   2
Cartesian
  1.4925084700100000  1.4925084700100000  1.4925084700100000
  4.4775134700100008  4.4775134700100008  4.4775134700100008
  0.0000000000000000  0.0000000000000000  0.0000000000000000
  2.9850050000000001  2.9850050000000001  2.9850050000000001
