Cr Te Au
 1.0000000000000000
     4.0416429999999997    0.0000000000000000    0.0000000000000000
     0.0000000000000000    5.6073069999999996   -0.0815050000000000
     0.0000000000000000   -0.0348150000000000    7.5729889999999997
 Cr  Te  Au 
   1   4   1
Cartesian
  2.0208214999999998 -0.0174075000000000  3.7864944999999999
  2.0208214999999998  4.3966306785899993  1.2233770218300000
  0.0000000000000000  3.9187223903949997  4.6081432624150001
  2.0208214999999998  1.1758613214100000  6.2681069781699996
  0.0000000000000000  1.6537696096049999  2.8833407375849998
  0.0000000000000000  0.0000000000000000  0.0000000000000000
