Ce N 
 1.0000000000000000
     3.1161189999999999    0.0000000000000000    1.7990930000000001
     1.0387070000000000    2.9379050000000002    1.7990930000000001
     0.0000000000000000    0.0000000000000000    3.5981839999999998
 Ce  N  
   1   1
Cartesian
  0.0000000000000000  0.0000000000000000  0.0000000000000000
  2.0774130000000000  1.4689525000000001  3.5981850000000000
