Zn Sb
 1.0000000000000000
     6.2858400000000003    0.0000000000000000    0.0000000000000000
     0.0000000000000000    7.8241820000000004    0.0000000000000000
     0.0000000000000000    0.0000000000000000    8.2287809999999997
 Zn  Sb 
   8   8
Cartesian
  2.8889343489600003  0.8331580202700000  7.1812571787000001
  6.0318543489599996  3.0789329797300002  1.0475238213000000
  3.3969056510400004  4.7452490202700011  5.1619143212999994
  0.2539856510400000  6.9910239797299996  3.0668666786999998
  3.3969056510400004  6.9910239797299996  1.0475238213000000
  0.2539856510400000  4.7452490202700011  7.1812571787000001
  2.8889343489600003  3.0789329797300002  3.0668666786999998
  6.0318543489599996  0.8331580202700000  5.1619143212999994
  0.8908166731200001  0.6484056107040000  0.9002286413999999
  4.0337366731199999  3.2636853892960001  7.3285523585999996
  5.3950233268800005  4.5604966107039999  3.2141618585999998
  2.2521033268799999  7.1757763892960007  5.0146191413999999
  5.3950233268800005  7.1757763892960007  7.3285523585999996
  2.2521033268799999  4.5604966107039999  0.9002286413999999
  0.8908166731200001  3.2636853892960001  5.0146191413999999
  4.0337366731199999  0.6484056107040000  3.2141618585999998
