Li Ga Rh
 1.0000000000000000
     3.6396600000000001    0.0000000000000000    2.1013600000000001
     1.2132200000000000    3.4315050000000000    2.1013600000000001
     0.0000000000000000    0.0000000000000000    4.2027169999999998
 Li  Ga  Rh 
   2   1   1
Cartesian
  2.4264399999999999  1.7157525000000000  4.2027184999999996
  1.2132200000000000  0.8578762500000000  2.1013592499999998
  3.6396600000000001  2.5736287500000001  6.3040777500000003
  0.0000000000000000  0.0000000000000000  0.0000000000000000
