Cd Ni N 
 1.0000000000000000
     3.8215309999999998    0.0000000000000000    0.0000000000000000
     0.0000000000000000    3.8215420000000000    0.0000000000000000
     0.0000000000000000    0.0000000000000000    3.8215330000000001
 Cd  Ni  N  
   1   3   1
Cartesian
  0.0000000000000000  0.0000000000000000  0.0000000000000000
  1.9107654999999999  1.9107710000000000  0.0000000000000000
  1.9107654999999999  0.0000000000000000  1.9107665000000000
  0.0000000000000000  1.9107710000000000  1.9107665000000000
  1.9107654999999999  1.9107710000000000  1.9107665000000000
