Zn Cr Se
 1.0000000000000000
     6.4554390000000001   -0.0000060000000000    3.7270439999999998
     2.1518099999999998    6.0862679999999996    3.7270439999999998
    -0.0000160000000000   -0.0000110000000000    7.4541149999999998
 Zn  Cr  Se 
   2   4   8
Cartesian
  1.0759170358940000  0.7607813749990000  1.8635253749730001
  7.5313138122960011  5.3254635387329996 13.0446738979829995
  5.3795215000000001  6.0862594999999988  9.3176234999999998
  7.5313359999999996  3.0431225000000000  9.3176234999999998
  4.3036164999999995  3.0431254999999999  7.4541015000000002
  4.3036244999999997  3.0431309999999998  3.7270439999999998
  2.2343494626919997  1.5799238108439999  3.8700017814959997
  6.3728909236600009  4.5063322672729997  7.5970313910989997
  3.3927580965240001  4.5063360452999994  9.3176299911239990
  5.3795047544190000  1.6966319983020000  9.3176262640799994
  5.2144770552860003  1.5799210409680000  5.5905767359200000
  3.2277282455809999  4.3896190016979997  5.5905767359200000
  2.2343420763399999  1.5799187327269999  7.3111716089009997
  6.3728835373080006  4.5063271891559999 11.0382012185039997
