Er Bi
 1.0000000000000000
     3.8340589999999999    0.0000000000000000    2.2135950000000002
     1.2780199999999999    3.6147849999999999    2.2135950000000002
     0.0000000000000000    0.0000000000000000    4.4271900000000004
 Er  Bi 
   1   1
Cartesian
  2.5560394999999998  1.8073925000000000  4.4271900000000004
  0.0000000000000000  0.0000000000000000  0.0000000000000000
