Li Zn Au
 1.0000000000000000
     0.0000000000000000    3.0767679999999999    3.0767679999999999
     3.0767679999999999    0.0000000000000000    3.0767679999999999
     3.0767679999999999    3.0767679999999999    0.0000000000000000
 Li  Zn  Au 
   1   2   1
Cartesian
  4.6151581535360000  4.6151581535360000  4.6151581535360000
  0.0000000000000000  0.0000000000000000  0.0000000000000000
  3.0767679999999999  3.0767679999999999  3.0767679999999999
  1.5383840000000000  1.5383840000000000  1.5383840000000000
