Co Mo
 1.0000000000000000
     5.1132439999999999    0.0000000000000000    0.0000000000000000
    -2.5566220000000000    4.4281990000000002    0.0000000000000000
     0.0000000000000000    0.0000000000000000    4.0883490000000000
 Co  Mo 
   6   2
Cartesian
  2.5566220000000004  2.9934536676020000  1.0220872500000000
 -1.3140960381340001  3.7108263338010006  3.0662617499999998
  1.3140960381339997  3.7108263338010006  3.0662617499999998
  1.2425259618660001  0.7173726661990001  1.0220872500000000
  3.8707180381340005  0.7173726661990001  1.0220872500000000
  0.0000000000000000  1.4347453323980002  3.0662617499999998
 -0.0000025566220001  2.9521341427330001  1.0220872500000000
  2.5566245566219998  1.4760648572670001  3.0662617499999998
