Dy Bi Pt
 1.0000000000000000
     4.0976830000000000    0.0000000000000000    2.3657979999999998
     1.3658950000000001    3.8633320000000002    2.3657979999999998
     0.0000000000000000    0.0000000000000000    4.7315959999999997
 Dy  Bi  Pt 
   1   1   1
Cartesian
  2.7317890000000000  1.9316660000000001  4.7315959999999997
  0.0000000000000000  0.0000000000000000  0.0000000000000000
  1.3658945000000000  0.9658330000000001  2.3657979999999998
