Fe Ge
 1.0000000000000000
     3.6606440000000000    0.0000000000000000    0.0000000000000000
     0.0000000000000000    3.6604109999999999    0.0000000000000000
     0.0000000000000000    0.0000000000000000    3.6604470000000000
 Fe  Ge 
   3   1
Cartesian
  0.0000000000000000  1.8302054999999999  1.8302235000000000
  1.8303220000000000  1.8302054999999999  0.0000000000000000
  1.8303220000000000  0.0000000000000000  1.8302235000000000
  0.0000000000000000  0.0000000000000000  0.0000000000000000
