Er Cu Si
 1.0000000000000000
     3.6795670000000000    0.0000000000000000   -1.3485890000000000
    -0.4942670000000000    3.6462200000000000   -1.3485890000000000
    -0.0020340000000000   -0.0023300000000000    5.6885149999999998
 Er  Cu  Si 
   1   2   2
Cartesian
  0.0000000000000000  0.0000000000000000  0.0000000000000000
  0.5481745000000000  2.7335000000000003  1.4956684999999998
  2.6350914999999997  0.9103900000000000  1.4956684999999998
  1.9652645188600002  2.2496422765799999 -0.3319152380620003
  1.2180014811400002  1.3942477234200001  3.3232522380619995
