Sm In
 1.0000000000000000
     3.8190460000000002    0.0000000000000000    0.0000000000000000
     0.0000000000000000    3.8190460000000002    0.0000000000000000
     0.0000000000000000    0.0000000000000000    3.8190460000000002
 Sm  In 
   1   1
Cartesian
  1.9095230000000001  1.9095230000000001  1.9095230000000001
  0.0000000000000000  0.0000000000000000  0.0000000000000000
