Lu Cl
 1.0000000000000000
     9.4636619999999994    0.0000040000000000   -0.0000020000000000
    -4.7318280000000001    8.1963589999999993   -0.0000010000000000
    -0.0000010000000000   -0.0000010000000000    3.4725700000000002
 Lu  Cl 
   2   6
Cartesian
  4.7318459451399999  2.7311521806229995  0.8681338884270000
  0.0000012503579999  5.4652180157459993  2.6044261664280000
  6.3972224773379995  1.7696864537809998  2.6044257162230000
  3.0664724409419999  1.7696768496139996  2.6044264201280001
  4.7318272220289996  4.6551490690320003  2.6044218915249999
 -1.6653800136690000  6.4266919389459991  0.8681378112010001
  1.6653794863819993  6.4266851503939986  0.8681405798680001
 -0.0000036856830001  3.5412293236879995  0.8681381633330001
