Ti Tl P  O 
 1.0000000000000000
     6.5735650000000003    0.0000000000000000    0.0000000000000000
     0.0000000000000000   10.6980839999999997    0.0000000000000000
     0.0000000000000000    0.0000000000000000   13.1160689999999995
 Ti  Tl  P   O  
   8   8   8  40
Cartesian
  1.5471674055300000  2.7108944855999999  9.7742520116279987
  4.8339499055299999  8.0599364855999998  9.8998514883720006
  1.7396150944700000  2.7108944855999999  3.2162175116279998
  6.5679774697500006  5.3892881920080002  1.7037773630999997
  0.0055875302500000  0.0402461920080000 11.4122916368999991
  3.2923700302500003  5.3892881920080002  8.2618118631000002
  5.0263975944700006  8.0599364855999998  3.3418169883719999
  3.2811949697500000  0.0402461920080000  4.8542571368999994
  4.5597862300750007  0.7977454257959999  1.3459841168490001
  2.0137787699250000  6.1467874257960000 11.7700848831510001
  5.3005612699249998  0.7977454257959999  7.9040186168489992
  1.2730037300750001  6.1467874257960000  5.2120503831509994
  5.1794301876700004  3.5178295655520002  5.0189556153329997
  1.3941348123299999  8.8668715655519996  8.0971133846669989
  4.6809173123300001  3.5178295655520002 11.5769901153330004
  1.8926476876700002  8.8668715655519996  1.5390788846670000
  5.5119736938899999  8.1325871740439997  0.0151621757640000
  1.0615913061100000  2.7835451740439998 13.1009068242359987
  2.2251911938899998  2.7835451740439998  6.5428723242359998
  3.3171720909950007  5.4746909965799997  2.3751233548649999
  3.2563929090050001  0.1256489965800000 10.7409456451349996
  6.5431754090050003  5.4746909965799997  8.9331578548649997
  0.0303895909950000  0.1256489965800000  4.1829111451349998
  4.3483738061100006  8.1325871740439997  6.5731966757640006
  3.0316492952200003  1.5042896854919998  3.6392763172230000
  3.5419157047800001  6.8533316854919999  9.4767926827769990
  0.2551332047800000  1.5042896854919998 10.1973108172230003
  6.3184317952200004  6.8533316854919999  2.9187581827770002
  3.6185043105950006  9.4883232651119993  3.6398927724659997
  2.9550606894050002  4.1392812651119995  9.4761762275339994
  6.2418431894050004  9.4883232651119993 10.1979272724659999
  0.3317218105950000  4.1392812651119995  2.9181417275339996
  6.3244597543249998  9.5923514339280000  3.2701507873559996
  0.2491052456750000  4.2433094339280002  9.8459182126439995
  3.5358877456750002  9.5923514339280000  9.8281852873559998
  3.0376772543250001  4.2433094339280002  3.2878837126440001
  0.2971777265200000  1.3474557740520001  3.2432759619749998
  6.2763872734800001  6.6964977740519993  9.8727930380249997
  2.9896047734800000  1.3474557740520001  9.8013104619749996
  4.6066623220900000  7.9016476347360003 11.8791056486789994
  3.5839602265200003  6.6964977740519993  3.3147585380249995
  5.2923640343700002  5.1885065514959994  8.0658053279639983
  2.0055815343700001 10.5375485514960001 11.6082981720360010
  4.5679834656300002  5.1885065514959994  1.5077708279640001
  5.3563511160799999  0.4430611488600000  5.0442565124340000
  1.2172138839200000  5.7921031488599999  8.0718124875659996
  4.5039963839200006  0.4430611488600000 11.6022910124339997
  2.0695686160800002  5.7921031488599999  1.5137779875660000
  3.1950812682500001  1.5962611136400000  6.3686253475710002
  3.3784837317500003  6.9453031136399996  6.7474436524290002
  0.0917012317500000  1.5962611136400000 12.9266598475709991
  6.4818637682500002  6.9453031136399996  0.1894091524290000
  3.0359089653400004  4.1069944476000000  6.7349965029479995
  3.5376560346599999  9.4560364476000007  6.3810724970520001
  0.2508735346600000  4.1069944476000000  0.1769620029480000
  6.3226914653400001  9.4560364476000007 12.9391069970520007
  1.3601231870200001  2.9768167595879995  5.2635571861139994
  5.2134418129800002  8.3258587595879998  7.8525118138859993
  1.9266593129800003  2.9768167595879995 11.8215916861140009
  4.6469056870200003  8.3258587595879998  1.2944773138860000
  1.3198798220900001  2.5526056347360000  7.7949978513209990
  5.2536851779100004  7.9016476347360003  5.3210711486790006
  1.9669026779100001  2.5526056347360000  1.2369633513210001
  1.2812009656300001 10.5375485514960001  5.0502636720359995
