Li P 
 1.0000000000000000
     4.9298320000000002    0.0000000000000000    0.0000000000000000
     0.0000000000000000    5.5619649999999998   -0.4730860000000000
     0.0000000000000000   -0.0255700000000000    9.0660419999999995
 Li  P  
   8   8
Cartesian
  1.9094619688960002  0.6195718696850000  2.9333918697260000
  4.3743779688959998  2.1486256303150002  1.3630861302740001
  3.0203700311040000  4.9168231303149996  5.6595641302739992
  0.5554540311040000  3.3877693696850000  7.2298698697259995
  3.2544039456400000  4.4588393895050000 -0.1016761301520001
  0.7894879456400001  3.8713231104949997  3.9250681301519998
  1.6754280543600002  1.0775556104949999  8.6946321301519998
  4.1403440543599999  1.6650718895049998  4.6678878698480002
  4.4132447643840003  5.4193707993149998  2.1856284260759997
  1.9483287643840002  2.9107917006849999  1.6377635739240000
  0.5165872356160001  0.1170242006850000  6.4073275739240003
  2.9815032356160001  2.6256032993149998  6.9551924260759987
  0.7779422790960000  4.4837376793299999  0.6423889449679999
  3.2428582790960001  3.8464248206700002  3.1810030550319999
  4.1518897209040002  1.0526573206699998  7.9505670550319998
  1.6869737209039999  1.6899701793299999  5.4119529449679993
