Nb Te Cl
 1.0000000000000000
     3.4791599999999998   -6.0260290000000003   -0.0000730000000000
     3.4791970000000001    6.0260509999999998    0.0003000000000000
     0.0004380000000000    0.0004090000000000   13.2453160000000008
 Nb  Te  Cl 
   6   2  14
Cartesian
  3.4795828217250002 -0.3288150086750002 10.0480795054360001
  2.0251775719610001 -2.8480357653290009 10.0477554121470014
  3.4792608973349997  0.3295473198269995  3.1977549024300003
  4.9334017241480002  2.8482980408439995  3.1979597647019999
  2.0249580959450002  2.8483310210529997  3.1976529598320003
  4.9340108613329994 -2.8480084904500007 10.0478503065380007
  3.4797401244489996 -2.0076091759799999  7.9115845778890002
  3.4785608692789998  2.0087030715379997  5.3350180517890005
  3.4791715606839997 -4.0174056032740006  4.4768132467710000
  5.2190031627869997 -1.0041691944090003  4.4768572983750001
  1.7395602492680000 -1.0042886598749998  4.4768762395520003
  5.2194017475369998  1.0046352925709996  8.7685608007569993
  1.7397466025810002  1.0045821112380000  8.7685267557979998
  3.4796408318710004  4.0178908344169999  8.7686237929470003
  3.4793136589309999  3.9963256202050004  1.6122583665090000
  1.7579879009150001  1.0148766271679999  1.6120966945550002
  3.4796076449540001  2.0089814694319998 11.4234792425710001
  3.4792464964229999 -2.0086408639350006  1.8219313034010001
  3.4795857016060001 -3.9958705296210009 11.6328342968980003
  5.2009045034060000 -1.0147228357430007 11.6330886765120010
  1.7582991290009999 -1.0147698751240004 11.6330161044530005
  5.2005967584960002  1.0149417483609997  1.6122884751310000
