Pm Ir Au
 1.0000000000000000
     0.0000010000000000    3.5825279999999999    3.5825300000000002
     3.5825290000000001    0.0000020000000000    3.5825279999999999
     3.5825320000000000    3.5825290000000001   -0.0000010000000000
 Pm  Ir  Au 
   2   1   1
Cartesian
  0.0000000000000000  0.0000000000000000  0.0000000000000000
  3.5825310000000004  3.5825294999999997  3.5825285000000000
  5.3737965000000001  5.3737942500000004  5.3737927499999998
  1.7912655000000002  1.7912647499999999  1.7912642500000000
