Ca Ni B 
 1.0000000000000000
     4.9858289999999998    0.0000000000000000    0.0000000000000000
    -2.4929139999999999    4.3178539999999996    0.0000000000000000
     0.0000000000000000    0.0000000000000000    6.7985480000000003
 Ca  Ni  B  
   2   8   2
Cartesian
  0.0000000000000000  0.0000000000000000  3.3992740000000001
  0.0000000000000000  0.0000000000000000  0.0000000000000000
  1.2464575000000000  2.1589269999999998  5.3944982699440001
 -1.2464569999999999  2.1589269999999998  5.3944982699440001
 -0.0000021595810001  2.8785707726179997  3.3992740000000001
  2.4929171595810002  1.4392832273819998  3.3992740000000001
  2.4929144999999999  0.0000000000000000  5.3944982699440001
 -1.2464569999999999  2.1589269999999998  1.4040497300560002
  1.2464575000000000  2.1589269999999998  1.4040497300560002
  2.4929144999999999  0.0000000000000000  1.4040497300560002
  2.4929171595810002  1.4392832273819998  0.0000000000000000
 -0.0000021595810001  2.8785707726179997  0.0000000000000000
