Zr In Ni
 1.0000000000000000
     3.3175270000000001    0.0000000000000000    0.0000000000000000
     0.0000000000000000    7.1836739999999999    0.0000000000000000
     0.0000000000000000    0.0000000000000000    7.1836739999999999
 Zr  In  Ni 
   4   2   4
Cartesian
  1.6587635000000001  4.7959931705759997  1.2041561705760000
  1.6587635000000001  5.9795178294240001  4.7959931705759997
  1.6587635000000001  1.2041561705760000  2.3876808294240002
  1.6587635000000001  2.3876808294240002  5.9795178294240001
  0.0000000000000000  0.0000000000000000  0.0000000000000000
  0.0000000000000000  3.5918369999999999  3.5918369999999999
  0.0000000000000000  2.6955874644120001  0.8962495355880000
  0.0000000000000000  6.2874244644119992  2.6955874644120001
  0.0000000000000000  0.8962495355880000  4.4880865355880006
  0.0000000000000000  4.4880865355880006  6.2874244644119992
