Er Ni
 1.0000000000000000
     4.0742909999999997    0.0000000000000000    0.0000000000000000
     0.0000000000000000    5.3455389999999996    0.0000000000000000
     0.0000000000000000    0.0000000000000000    7.0001389999999999
 Er  Ni 
   4   4
Cartesian
  3.0557182500000000  4.6366510365929994  5.7375939299600001
  1.0185727499999999  0.7088879634070000  1.2625450700399998
  1.0185727499999999  1.9638815365930000  4.7626145700399993
  3.0557182500000000  3.3816574634069996  2.2375244299599997
  1.0185727499999999  4.6848624528339995  3.7485814346390001
  3.0557182500000000  0.6606765471659999  3.2515575653609998
  3.0557182500000000  2.0120929528340001  6.7516270653610002
  1.0185727499999999  3.3334460471659995  0.2485119346390000
