Fe C 
 1.0000000000000000
     2.8220440000000000    0.0000000000000000    0.0000000000000000
     0.0000000000000000    4.2806639999999998    0.0000000000000000
     0.0000000000000000    0.0000000000000000    4.7122180000000000
 Fe  C  
   4   2
Cartesian
  1.4110220000000000  1.0683467177999999  0.7364866878740000
  1.4110220000000000  3.2123172821999999  3.9757313121259998
  0.0000000000000000  1.0719852822000000  3.0925956878740002
  0.0000000000000000  3.2086787177999998  1.6196223121259998
  1.4110220000000000  2.1403319999999999  2.3561090000000000
  0.0000000000000000  0.0000000000000000  0.0000000000000000
