Li Sc Hg
 1.0000000000000000
     0.0000000000000000    3.3974890000000002    3.3974890000000002
     3.3974890000000002    0.0000000000000000    3.3974890000000002
     3.3974890000000002    3.3974890000000002    0.0000000000000000
 Li  Sc  Hg 
   1   1   2
Cartesian
  1.6987445000000001  1.6987445000000001  1.6987445000000001
  5.0962267050220005  5.0962267050220005  5.0962267050220005
  0.0000000000000000  0.0000000000000000  0.0000000000000000
  3.3974822050220004  3.3974822050220004  3.3974822050220004
