Ca Cd O 
 1.0000000000000000
     0.0000000000000000    2.3832879999999999    2.3832879999999999
    -4.7338880000000003    2.3572460000000000   -2.3572460000000000
    -4.7338880000000003   -2.3572460000000000    2.3572460000000000
 Ca  Cd  O  
   1   3   4
Cartesian
 -4.7338880000000003  0.0000000000000000  0.0000000000000000
 -2.3669440000000002  2.3702670000000001  0.0130209999999999
 -2.3669440000000002  0.0130209999999999  2.3702670000000001
  0.0000000000000000  0.0000000000000000  0.0000000000000000
 -7.1061150190079996  0.0000000000000001 -0.0000000000000001
 -4.7338880000000003  2.3633555547279999  0.0199324452719999
 -4.7338880000000003  0.0199324452720000  2.3633555547279999
 -2.3616609809920002  0.0000000000000000 -0.0000000000000000
