Sc Co
 1.0000000000000000
     6.9013270000000002    0.0000000000000000    0.0000000000000000
     0.0000000000000000    6.9013270000000002    0.0000000000000000
     0.0000000000000000    0.0000000000000000    6.9013270000000002
 Sc  Co 
   8  16
Cartesian
  2.5879976249999999  2.5879976249999999  2.5879976249999999
  0.8626658750000000  0.8626658750000000  4.3133293750000004
  2.5879976249999999  6.0386611250000000  6.0386611250000000
  0.8626658750000000  4.3133293750000004  0.8626658750000000
  6.0386611250000000  2.5879976249999999  6.0386611250000000
  4.3133293750000004  0.8626658750000000  0.8626658750000000
  6.0386611250000000  6.0386611250000000  2.5879976249999999
  4.3133293750000004  4.3133293750000004  4.3133293750000004
  1.7253317500000001  1.7253317500000001  0.0000000000000000
  3.4506635000000001  0.0000000000000000  3.4506635000000001
  3.4506635000000001  1.7253317500000001  5.1759952499999997
  1.7253317500000001  3.4506635000000001  5.1759952499999997
  1.7253317500000001  5.1759952499999997  3.4506635000000001
  3.4506635000000001  3.4506635000000001  0.0000000000000000
  3.4506635000000001  5.1759952499999997  1.7253317500000001
  1.7253317500000001  0.0000000000000000  1.7253317500000001
  5.1759952499999997  1.7253317500000001  3.4506635000000001
  0.0000000000000000  0.0000000000000000  0.0000000000000000
  0.0000000000000000  1.7253317500000001  1.7253317500000001
  5.1759952499999997  3.4506635000000001  1.7253317500000001
  5.1759952499999997  5.1759952499999997  0.0000000000000000
  0.0000000000000000  3.4506635000000001  3.4506635000000001
  0.0000000000000000  5.1759952499999997  5.1759952499999997
  5.1759952499999997  0.0000000000000000  5.1759952499999997
