Pd S 
 1.0000000000000000
     4.5531480000000002    0.0151110000000000    0.0000000000000000
    -1.4238290000000000    4.3248230000000003    0.0000000000000000
     0.0000000000000000    0.0000000000000000    6.4163420000000002
 Pd  S  
   6   2
Cartesian
 -0.0897303061330000  2.3463564056530002  4.8122565000000002
  2.2374494504820004  0.6673787171040001  4.8122565000000002
  4.5451149429119999  0.0209032529280000  0.0000000000000000
  4.5451149429119999  0.0209032529280000  3.2081710000000001
  0.8747414562620000  3.6839457641230005  1.6040855000000001
  3.2028318447060005  2.0062309963680001  1.6040855000000001
  0.9566116007390001  1.3439363674000000  1.6040855000000001
  2.1563424362350001  3.0077976240560003  4.8122565000000002
