Ga As
 1.0000000000000000
     5.7479600000000000    0.0000000000000000    0.0000000000000000
     0.0000000000000000    5.7479600000000000    0.0000000000000000
     0.0000000000000000    0.0000000000000000    5.7479600000000000
 Ga  As 
   4   4
Cartesian
  0.0000000000000000  0.0000000000000000  0.0000000000000000
  0.0000000000000000  2.8739800000000000  2.8739800000000000
  2.8739800000000000  0.0000000000000000  2.8739800000000000
  2.8739800000000000  2.8739800000000000  0.0000000000000000
  1.4369900000000000  4.3109700000000002  1.4369900000000000
  1.4369900000000000  1.4369900000000000  4.3109700000000002
  4.3109700000000002  4.3109700000000002  4.3109700000000002
  4.3109700000000002  1.4369900000000000  1.4369900000000000
