As Pd Se
 1.0000000000000000
     6.1415290000000002    0.0000120000000000   -0.0000010000000000
     0.0000120000000000    6.1415290000000002   -0.0000080000000000
    -0.0000010000000000   -0.0000080000000000    6.1415290000000002
 As  Pd  Se 
   4   4   4
Cartesian
  0.7094673763240000  5.4320701633380004  2.3613001616039999
  5.4320702097020002  2.3613109010690003  0.7094593282220000
  3.7802345592480004  3.7802241090980004  3.7802222488880002
  2.3613017131830003  0.7094546849380000  5.4320705443530004
  6.0966768671359999  3.1156301985999999  3.0259017210560004
  3.1156210059539999  3.0259110597730001  6.0966729648340001
  3.0259181772320001  6.0966731261040001  3.1156137935519999
  0.0448578081600000  0.0448577570320000  0.0448576620800000
  0.6935017810850002  3.7642479299939997  5.4480348121150008
  5.4480405704880006  0.6935010547910000  3.7642518811880001
  3.7642642036769995  5.4480401385290005  0.6934753205270000
  2.3772795862929996  2.3772830182430003  2.3772657031030002
