Th I  N 
 1.0000000000000000
     4.1205730000000003    0.0000000000000000    0.0000000000000000
     0.0000000000000000    4.1205730000000003    0.0000000000000000
     0.0000000000000000    0.0000000000000000    9.5317799999999995
 Th  I   N  
   2   2   2
Cartesian
  3.0904297500000002  3.0904297500000002  8.3948006862600000
  1.0301432500000001  1.0301432500000001  1.1369793137399999
  1.0301432500000001  1.0301432500000001  6.3940610006999998
  3.0904297500000002  3.0904297500000002  3.1377189993000001
  3.0904297500000002  1.0301432500000001  0.0000000000000000
  1.0301432500000001  3.0904297500000002  0.0000000000000000
