Li Cu P 
 1.0000000000000000
     3.6032810000000000    0.0000000000000000   -1.3583860000000001
    -0.5120920000000000    3.5667070000000001   -1.3583860000000001
     0.0006650000000000    0.0007660000000000    5.4600239999999998
 Li  Cu  P  
   1   2   2
Cartesian
  0.0000000000000000  0.0000000000000000  0.0000000000000000
  0.5170837500000000  2.6754132499999996  1.3716259999999998
  2.5747702500000003  0.8920597500000000  1.3716259999999998
  1.8939976918699999  2.1853513072719997 -0.4341940057920001
  1.1978563081300002  1.3821216927280000  3.1774460057919995
