Nb Fe Si
 1.0000000000000000
     6.1903959999999998    0.0000000000000000    0.0000000000000000
     0.0000000000000000    6.1903959999999998    0.0000000000000000
     0.0000000000000000    0.0000000000000000    5.1028900000000004
 Nb  Fe  Si 
   8   2   2
Cartesian
  2.0540229159679999  0.9467034506760000  0.0000000000000000
  5.2436925493239999  2.0540229159679999  0.0000000000000000
  4.1363730840319999  5.2436925493239999  0.0000000000000000
  5.2436925493239999  4.1363730840319999  2.5514450000000002
  4.1363730840319999  0.9467034506760000  2.5514450000000002
  2.0540229159679999  5.2436925493239999  2.5514450000000002
  0.9467034506760000  4.1363730840319999  0.0000000000000000
  0.9467034506760000  2.0540229159679999  2.5514450000000002
  0.0000000000000000  0.0000000000000000  3.8271675000000003
  0.0000000000000000  0.0000000000000000  1.2757225000000001
  3.0951979999999999  3.0951979999999999  3.8271675000000003
  3.0951979999999999  3.0951979999999999  1.2757225000000001
