Tl Pd O 
 1.0000000000000000
     5.8953740000000003    0.0000000000000000    3.4036970000000002
     1.9651240000000001    5.5582120000000002    3.4036970000000002
     0.0000000000000000    0.0000000000000000    6.8073930000000002
 Tl  Pd  O  
   2   6   8
Cartesian
  3.9302490000000003  2.7791060000000001  6.8073934999999999
  0.0000000000000000  0.0000000000000000  0.0000000000000000
  0.0000000000000000  0.0000000000000000  3.4036965000000001
  0.9825620000000000  2.7791060000000001  1.7018485000000001
  0.9825620000000000  2.7791060000000001  5.1055450000000002
  3.9302490000000003  2.7791060000000001  3.4036970000000002
  2.9476870000000002  0.0000000000000000  1.7018485000000001
  2.9476870000000002  0.0000000000000000  5.1055450000000002
  6.7449911473260009  4.7694294604440000 11.6826717324690001
  1.1155068526740002  0.7887825395560001  4.8752916310809997
  1.9651282140740001  3.1918754977560000  3.4037036654810002
  3.6643718015740001  0.7887825395560001  3.4037036654810002
  5.8953697859260012  2.3663365022439997 10.2110833345190013
  4.1961261984260005  4.7694294604440000 10.2110833345190013
  1.1155068526740002  0.7887825395560001  1.9321152675310003
  6.7449911473260009  4.7694294604440000  8.7394953689190000
