Ti Tc Ni
 1.0000000000000000
     0.0000000000000000    3.0405129999999998    3.0405129999999998
     3.0405129999999998    0.0000000000000000    3.0405129999999998
     3.0405129999999998    3.0405129999999998    0.0000000000000000
 Ti  Tc  Ni 
   2   1   1
Cartesian
  0.0000000000000000  0.0000000000000000  0.0000000000000000
  3.0405129999999998  3.0405129999999998  3.0405129999999998
  4.5607694999999993  4.5607694999999993  4.5607694999999993
  1.5202564999999999  1.5202564999999999  1.5202564999999999
