Zr P 
 1.0000000000000000
     3.5256219999999998    0.0000000000000000    0.0000000000000000
     0.0000000000000000    6.5259099999999997    0.0000000000000000
     0.0000000000000000    0.0000000000000000    8.7882800000000003
 Zr  P  
   4   8
Cartesian
  0.8814055000000000  5.0977276483199994  2.9621337154000003
  2.6442164999999997  1.4281823516799999  5.8261462846000001
  0.8814055000000000  1.8347726483200000  1.4320062846000001
  2.6442164999999997  4.6911373516800001  7.3562737154000004
  0.8814055000000000  2.6369897127999997  7.5161325286000009
  2.6442164999999997  3.8889202871999999  1.2721474714000001
  0.8814055000000000  5.8999447128000000  5.6662874713999996
  2.6442164999999997  0.6259652872000000  3.1219925285999999
  2.6442164999999997  0.6983245772800000  8.4433487982800006
  0.8814055000000000  5.8275854227199995  0.3449312017200000
  2.6442164999999997  3.9612795772799996  4.7390712017199998
  0.8814055000000000  2.5646304227200001  4.0492087982800005
