Sr Ni Ge
 1.0000000000000000
     4.1772939999999998    0.0000000000000000    0.0000000000000000
     0.0000000000000000    4.2666890000000004   -1.0846750000000001
     0.0000000000000000   -0.0189480000000000    8.8595489999999995
 Sr  Ni  Ge 
   2   2   4
Cartesian
  3.1329704999999999  0.4548870531650001  1.7893393881379998
  1.0443235000000000  3.7928539468350002  5.9855346118619996
  3.1329704999999999  1.3435171376510002  5.2848726280609997
  1.0443235000000000  2.9042195956600003  2.4900024566140000
  3.1329704999999999  1.9305962599960003  7.5942040791789989
  1.0443235000000000  2.3171447400039997  0.1806699208210000
  3.1329704999999999  3.1869863540350005  3.6022698407079998
  1.0443235000000000  1.0607546459649999  4.1726041592919998
