Ce Al Ni
 1.0000000000000000
     3.9700030000000002    0.0000000000000000   -1.0371330000000001
     0.0000000000000000    6.6051110000000000    0.0000000000000000
    -0.0178510000000000    0.0000000000000000    8.0485460000000000
 Ce  Al  Ni 
   2   8   2
Cartesian
  0.4513469628720000  4.9538398551110001  1.7276855078930000
  3.5008050371280004  1.6512711448890001  5.2837274921069994
  1.9850015000000001  0.0000000000000000 -0.5185665000000000
  1.9850015000000001  3.3025555000000000 -0.5185665000000000
  0.3091258981720000  1.6512777500000000  1.1832910985480001
  3.6430261018280001  4.9538332499999997  5.8281219014520005
  2.7359690541260000  0.3587499988540000  2.3560413425890001
  1.2161829458740001  6.2463610011460000  4.6553716574110000
  1.2161829458740001  3.6613054988539999  4.6553716574110000
  2.7359690541260000  2.9438055011460000  2.3560413425890001
  3.0616977025180003  4.9538332499999997  3.6028854681169999
  0.8904542974820000  1.6512777500000000  3.4085275318829997
