Zr Zn
 1.0000000000000000
     3.3232990000000000    0.0000000000000000    0.0000000000000000
     0.0000000000000000    3.3232990000000000    0.0000000000000000
     0.0000000000000000    0.0000000000000000    3.3232990000000000
 Zr  Zn 
   1   1
Cartesian
  1.6616495000000000  1.6616495000000000  1.6616495000000000
  0.0000000000000000  0.0000000000000000  0.0000000000000000
