Ca P 
 1.0000000000000000
     7.6536130000000000   -0.0000000000000000    0.0000000000000000
    -3.8268070000000001    6.6282230000000002    0.0000000000000000
     0.0000000000000000    0.0000000000000000    5.7214840000000002
 Ca  P  
   6   6
Cartesian
 -2.4590985245860000  4.2592828433539998  2.8607420000000001
  1.3677081180120001  2.3689401566460000  2.8607420000000001
  4.9181964065740003  0.0000000000000000  2.8607420000000001
 -1.1795022803470001  2.0429575212830002  0.0000000000000000
  2.6473040278740005  4.5852654787170000  0.0000000000000000
  2.3590042524730004  0.0000000000000000  0.0000000000000000
  3.8268101601400004  2.2094054572589998  1.1468543033479999
  3.8268101601400004  2.2094054572589998  4.5746296966519999
 -0.0000041601400000  4.4188175427410004  4.5746296966519999
 -0.0000041601400000  4.4188175427410004  1.1468543033479999
  0.0000000000000000  0.0000000000000000  3.9782164830080005
  0.0000000000000000  0.0000000000000000  1.7432675169920002
