Sc Ga Cu
 1.0000000000000000
     3.7559140000000002    0.0000000000000000    2.1684770000000002
     1.2519709999999999    3.5411090000000001    2.1684770000000002
     0.0000000000000000    0.0000000000000000    4.3369549999999997
 Sc  Ga  Cu 
   1   1   2
Cartesian
  2.5039425000000000  1.7705545000000000  4.3369545000000000
  0.0000000000000000  0.0000000000000000  0.0000000000000000
  3.7559137499999999  2.6558317499999999  6.5054317499999996
  1.2519712500000000  0.8852772500000000  2.1684772500000000
