Mg O 
 1.0000000000000000
     4.2535959999999999    0.0000000000000000    0.0000000000000000
     0.0000000000000000    4.2535959999999999    0.0000000000000000
     0.0000000000000000    0.0000000000000000    4.2535959999999999
 Mg  O  
   4   4
Cartesian
  0.0000000000000000  0.0000000000000000  0.0000000000000000
  0.0000000000000000  2.1267980000000000  2.1267980000000000
  2.1267980000000000  0.0000000000000000  2.1267980000000000
  2.1267980000000000  2.1267980000000000  0.0000000000000000
  0.0000000000000000  2.1267980000000000  0.0000000000000000
  0.0000000000000000  0.0000000000000000  2.1267980000000000
  2.1267980000000000  2.1267980000000000  2.1267980000000000
  2.1267980000000000  0.0000000000000000  0.0000000000000000
