Ca Au
 1.0000000000000000
     4.6791020000000003    0.0000000000000000    0.0000000000000000
     0.0000000000000000    8.3188779999999998    0.0000000000000000
     0.0000000000000000    0.0000000000000000    7.1497970000000004
 Ca  Au 
   4   8
Cartesian
  1.1697755000000001  1.7521054466040000  3.5748985000000002
  1.1697755000000001  2.4073335533959996  0.0000000000000000
  3.5093265000000002  5.9115444466039992  0.0000000000000000
  3.5093265000000002  6.5667725533960004  3.5748985000000002
  1.1697755000000001  4.8934552003299991  2.0615224184010001
  1.1697755000000001  7.5848617996700005  1.5133760815990001
  3.5093265000000002  0.7340162003299999  1.5133760815990001
  3.5093265000000002  3.4254227996699997  2.0615224184010001
  3.5093265000000002  0.7340162003299999  5.6364209184009999
  3.5093265000000002  3.4254227996699997  5.0882745815990003
  1.1697755000000001  4.8934552003299991  5.0882745815990003
  1.1697755000000001  7.5848617996700005  5.6364209184009999
