Na In Si O 
 1.0000000000000000
     4.6361499999999998    5.0374559999999997    0.0000000000000000
    -4.6361499999999998    5.0374559999999997    0.0000000000000000
     0.0000000000000000    1.6430060000000000    5.1930389999999997
 Na  In  Si  O  
   2   2   4  12
Cartesian
  1.8343483812999999  6.2697104999999995  3.8947792500000000
 -1.8343483812999999  5.4482074999999996  1.2982597499999999
 -3.6491878433999996  6.2697104999999995  3.8947792500000000
  3.6491878433999996  5.4482074999999988  1.2982597499999999
  0.7965740206999999  3.3487097654380000  1.3067399826869999
  0.7965740206999999  7.5477052345620006  1.2897795173130000
 -0.7965740206999998  4.1702127654379995  3.9032594826870000
 -0.7965740207000002  8.3692082345619987  3.8862990173129996
  2.2583567518499996  6.9950145153259999  1.6607390652389999
 -0.0977578588999999  5.1122539228299999  5.0887264256069997
  0.0977578589000000  4.2907509228299991  2.4922069256069999
  0.0977578589000004  6.6056640771699993  0.1043125743930000
 -0.7426787769500000  2.5958347593799997  4.3985351912340001
 -0.7426787769500002  9.9435862406199984  3.3910233087659996
  2.2583567518499996  3.9014004846739994  0.9357804347609999
  0.7426787769500000  1.7743317593799999  1.8020156912339997
 -2.2583567518499996  4.7229034846739992  3.5322999347609998
 -2.2583567518500001  7.8165175153259998  4.2572585652389998
  0.7426787769500004  9.1220832406199985  0.7945038087659999
 -0.0977578589000004  7.4271670771699991  2.7008320743929999
