In Pd
 1.0000000000000000
     4.2205919999999999    0.0000000000000000    0.0000000000000000
     0.0000000000000000    5.6863729999999997    0.0000000000000000
     0.0000000000000000    0.0000000000000000    8.3060919999999996
 In  Pd 
   4   8
Cartesian
  1.0551480000000000  1.8460411898389999  0.8264810722759999
  3.1654439999999999  3.8403318101609996  7.4796109277239999
  1.0551480000000000  4.6892276898390000  3.3265649277239997
  3.1654439999999999  0.9971453101610001  4.9795270722759994
  1.0551480000000000  2.4363321982230000  6.3871272591479995
  3.1654439999999999  3.2500408017769997  1.9189647408519999
  1.0551480000000000  5.2795186982229998  6.0720107408519999
  3.1654439999999999  0.4068543017770000  2.2340812591480002
  3.1654439999999999  0.8833041227010000  7.7021560506799993
  1.0551480000000000  4.8030688772990002  0.6039359493199999
  3.1654439999999999  3.7264906227009993  4.7569819493200001
  1.0551480000000000  1.9598823772989999  3.5491100506800000
