La Cu Si
 1.0000000000000000
     4.2373830000000003    0.0000000000000000    0.0000000000000000
    -2.1186910000000001    3.6696810000000002    0.0000000000000000
     0.0000000000000000    0.0000000000000000    8.2894720000000000
 La  Cu  Si 
   2   2   2
Cartesian
  0.0000000000000000  0.0000000000000000  4.1447360000000000
  0.0000000000000000  0.0000000000000000  0.0000000000000000
 -0.0000017853580001  2.4464552232270003  6.2171040000000000
  2.1186937853579999  1.2232257767729999  2.0723680000000000
  2.1186937853579999  1.2232257767729999  6.2171040000000000
 -0.0000017853580001  2.4464552232270003  2.0723680000000000
