Tm Co Ge
 1.0000000000000000
     3.6559400000000002    0.0000000000000000   -1.3436159999999999
    -0.4938000000000000    3.6224379999999998   -1.3436159999999999
     0.0208030000000000    0.0238320000000000    5.7022649999999997
 Tm  Co  Ge 
   1   2   2
Cartesian
  0.0000000000000000  0.0000000000000000  0.0000000000000000
  0.5540365000000000  2.7287444999999999  1.5075164999999999
  2.6289064999999998  0.9175255000000000  1.5075164999999999
  1.9873273982190003  2.2766136004819999 -0.2382072947790002
  1.1956156017810000  1.3696563995180000  3.2532402947790002
