Be Si As
 1.0000000000000000
     5.3376140000000003    0.0000000000000000    0.0000000000000000
     0.0000000000000000    5.3376140000000003    0.0000000000000000
    -2.6688070000000002   -2.6688070000000002    5.3224229999999997
 Be  Si  As 
   2   2   4
Cartesian
  2.6688070000000002  2.6688070000000002  0.0000000000000000
  2.6688069999999997  0.0000000000000000  2.6612114999999998
  0.0000000000000000  0.0000000000000000  0.0000000000000000
  0.0000000000000000  2.6688069999999997  2.6612114999999998
 -1.3344035000000001  1.2456603296360000  3.9918172499999995
  1.4231466703640001  1.3344034999999999  1.3306057499999999
  3.9144673296359995  4.0032104999999998  1.3306057499999999
  1.3344035000000003 -1.2456603296360000  3.9918172499999995
