Au O 
 1.0000000000000000
    10.6518700000000006    0.0000000000000000    0.0000000000000000
     0.0000000000000000   13.0388319999999993    0.0000000000000000
     0.0000000000000000    0.0000000000000000    4.0524909999999998
 Au  O  
  16  24
Cartesian
  6.7520712668199998  0.5967221464800000  3.0563887122000000
  9.2257337331800002  5.9226938535199993  3.0563887122000000
  6.5627662331800005  3.8564301464799997  0.0170204622000000
  9.4150387668200004  2.6629858535199999  0.0170204622000000
  1.4261362668200002  7.1161381464799991  3.0563887122000000
  3.8997987331800004 12.4421098535199999  3.0563887122000000
  1.2368312331800000 10.3758461464799989  0.0170204622000000
  4.0891037668200001  9.1824018535200000  0.0170204622000000
  6.7520712668199998  7.1161381464799991  1.0301432121999998
  9.2257337331800002 12.4421098535199999  1.0301432121999998
  6.5627662331800005 10.3758461464799989  2.0432659622000000
  9.4150387668200004  9.1824018535200000  2.0432659622000000
  1.4261362668200002  0.5967221464800000  1.0301432121999998
  3.8997987331800004  5.9226938535199993  1.0301432121999998
  1.2368312331800000  3.8564301464799997  2.0432659622000000
  4.0891037668200001  2.6629858535199999  2.0432659622000000
  0.0000000000000000  6.5194159999999997  1.8029694558639999
  7.9889025000000000  3.2597079999999998  2.8160922058639999
  7.8045931933900006  5.4484715336799994  0.4854803168180000
  8.1732118066100004  1.0709444663199998  0.4854803168180000
 10.4675606933900003  4.3306524663200001  3.5248485668179996
  5.5102443066099998  2.1887635336799995  3.5248485668179996
  5.3259350000000003  0.0000000000000000  1.8029694558639999
  2.6629675000000002  9.7791239999999995  2.8160922058639999
  2.4786581933899998 11.9678875336800008  0.4854803168180000
  2.8472768066100005  7.5903604663199991  0.4854803168180000
  5.1416256933900000 10.8500684663199980  3.5248485668179996
  0.1843093066100000  8.7081795336800010  3.5248485668179996
  0.0000000000000000  0.0000000000000000  3.8292149558639998
  7.9889025000000000  9.7791239999999995  0.7898467058640000
  7.8045931933900006 11.9678875336800008  2.5117258168179997
  8.1732118066100004  7.5903604663199991  2.5117258168179997
 10.4675606933900003 10.8500684663199980  1.4986030668179999
  5.5102443066099998  8.7081795336800010  1.4986030668179999
  5.3259350000000003  6.5194159999999997  3.8292149558639998
  2.6629675000000002  3.2597079999999998  0.7898467058640000
  2.4786581933899998  5.4484715336799994  2.5117258168179997
  2.8472768066100005  1.0709444663199998  2.5117258168179997
  5.1416256933900000  4.3306524663200001  1.4986030668179999
  0.1843093066100000  2.1887635336799995  1.4986030668179999
