Ti Si
 1.0000000000000000
     7.4715610000000003    0.0000000000000000    0.0000000000000000
    -3.7357800000000001    6.4705620000000001    0.0000000000000000
     0.0000000000000000    0.0000000000000000    5.1305800000000001
 Ti  Si 
  10   6
Cartesian
 -0.0000034024470002  4.3137101568540004  0.0000000000000000
  3.7357844024469999  2.1568518431460002  2.5652900000000001
  3.7357844024469999  2.1568518431460002  0.0000000000000000
 -0.0000034024470002  4.3137101568540004  2.5652900000000001
 -0.9358502478000000  1.6209404866200001  1.2826450000000000
  5.5998602538900002  0.0000000000000000  3.8479350000000001
  0.9358504983100001  1.6209404866200001  3.8479350000000001
  2.7999305016900000  4.8496215133799998  1.2826450000000000
  1.8717007461100001  0.0000000000000000  1.2826450000000000
 -2.7999297522000002  4.8496215133799998  3.8479350000000001
 -2.2716531023999997  3.9346193409599999  1.2826450000000000
  2.9282541871199999  0.0000000000000000  3.8479350000000001
  2.2716537104800003  3.9346193409599999  3.8479350000000001
  1.4641272895199999  2.5359426590399998  1.2826450000000000
  4.5433068128800000  0.0000000000000000  1.2826450000000000
 -1.4641268975999999  2.5359426590399998  3.8479350000000001
