Co B  W 
 1.0000000000000000
     2.9664009999999998    0.0000000000000000    1.1193560000000000
     0.8692680000000000    3.8255070000000000    2.1866599999999998
    -0.0003660000000000    0.0070630000000000    4.4912760000000000
 Co  B   W  
   1   2   2
Cartesian
  0.0000000000000000  0.0000000000000000  0.0000000000000000
  2.0977170464059998  2.7069281961959999  3.4214545156559999
  1.7375859535939999  1.1256418038039999  4.3758374843440002
  2.9790512435970000  2.6870033292899995  5.5761377622599992
  0.8562517564030000  1.1455666707099998  2.2211542377400000
