Li Tl
 1.0000000000000000
     4.4377209999999998   -0.0000950000000000    5.7706819999999999
     1.9622250000000001    3.9803329999999999    5.7706819999999999
    -0.0001520000000000   -0.0000950000000000    7.2797070000000001
 Li  Tl 
   5   2
Cartesian
  3.1998970000000000  1.9900715000000000  9.4105354999999999
  4.1331789590200003  2.5704957536899999 12.1552122839300001
  1.3631689215879998  0.8477784192860000  4.0089257651420001
  5.0366250784119995  3.1323645807139999 14.8121452348580007
  2.2666150409800001  1.4096472463100000  6.6658587160699998
  5.9224909636860001  3.6832999549170000 17.4173767037489995
  0.4773030363140000  0.2968430450830000  1.4036942962510000
