Ho Co Si
 1.0000000000000000
     3.6025740000000002    0.0000000000000000   -1.3318500000000000
    -0.4923780000000000    3.5687669999999998   -1.3318500000000000
     0.0022730000000000    0.0026070000000000    5.5444389999999997
 Ho  Co  Si 
   1   2   2
Cartesian
  0.0000000000000000  0.0000000000000000  0.0000000000000000
  0.5324965000000000  2.6778787500000001  1.4403694999999999
  2.5799724999999998  0.8934952500000000  1.4403694999999999
  1.9555136578099999  2.2438366274549999 -0.2487512422100000
  1.1569553421900003  1.3275373725449999  3.1294902422100002
