Li Zn Sn
 1.0000000000000000
     6.5084650000000002    0.0000000000000000    0.0000000000000000
     0.0000000000000000    6.5084650000000002    0.0000000000000000
     0.0000000000000000    0.0000000000000000    6.5084650000000002
 Li  Zn  Sn 
   8   4   4
Cartesian
  1.6271162500000000  4.8813487499999999  4.8813487499999999
  4.8813487499999999  1.6271162500000000  1.6271162500000000
  1.6271162500000000  1.6271162500000000  1.6271162500000000
  4.8813487499999999  4.8813487499999999  4.8813487499999999
  4.8813487499999999  4.8813487499999999  1.6271162500000000
  1.6271162500000000  1.6271162500000000  4.8813487499999999
  4.8813487499999999  1.6271162500000000  4.8813487499999999
  1.6271162500000000  4.8813487499999999  1.6271162500000000
  0.0000000000000000  0.0000000000000000  3.2542325000000001
  0.0000000000000000  3.2542325000000001  0.0000000000000000
  3.2542325000000001  0.0000000000000000  0.0000000000000000
  3.2542325000000001  3.2542325000000001  3.2542325000000001
  0.0000000000000000  0.0000000000000000  0.0000000000000000
  0.0000000000000000  3.2542325000000001  3.2542325000000001
  3.2542325000000001  0.0000000000000000  3.2542325000000001
  3.2542325000000001  3.2542325000000001  0.0000000000000000
