Ba Cu O 
 1.0000000000000000
     0.9399490000000000    3.8837480000000002    0.0000000000000000
     0.0000000000000000    0.0000000000000000    4.0254680000000000
     8.5263329999999993   -0.0079370000000000    0.0000000000000000
 Ba  Cu  O  
   2   2   4
Cartesian
  3.1049363891100001  1.3041609992220000  1.0063670000000000
  6.3613456108899999  2.5716500007780003  3.0191010000000000
  7.5309945463750001  0.2329582414910000  1.0063670000000000
  1.9352874536250000  3.6428527585090005  3.0191010000000000
  3.7638220897040000  3.2003041717130003  3.0191010000000000
  1.7619146187049999  3.6848126912290002  1.0063670000000000
  5.7024599102959996  0.6755068282870000  1.0063670000000000
  7.7043673812949995  0.1909983087710000  3.0191010000000000
