Dy Fe B 
 1.0000000000000000
     3.3559299999999999    0.0000000000000000   -1.1773610000000001
    -0.4130540000000000    3.3304140000000002   -1.1773610000000001
     0.0068680000000000    0.0077720000000000    5.3910999999999998
 Dy  Fe  B  
   1   2   2
Cartesian
  0.0000000000000000  0.0000000000000000  0.0000000000000000
  0.5326260000000000  2.5016965000000000  1.5181889999999998
  2.4171179999999994  0.8364895000000000  1.5181889999999998
  1.0255600044400000  1.1606124514600000  2.9232392938600000
  1.9241839955600000  2.1775735485400003  0.1131387061399996
