Na Sb S 
 1.0000000000000000
     5.8518280000000003    0.0000000000000000   -2.0689340000000001
    -2.9259130000000000    5.0678320000000001   -2.0689340000000001
     0.0000000000000000    0.0000000000000000    6.2068009999999996
 Na  Sb  S  
   3   1   4
Cartesian
  1.4629575000000001  2.5339160000000001 -2.0689340000000001
 -1.4629565000000000  2.5339160000000001  2.0689335000000000
  2.9259140000000001  0.0000000000000000  2.0689335000000000
  0.0000000000000000  0.0000000000000000  0.0000000000000000
  0.0000000000000000  0.0000000000000000  3.8599164398849997
  1.1063323502250000  1.9162232966799999  0.7822946012949998
  3.6391640557800002  0.0000000000000000 -1.2866390205900000
 -1.8195814060050000  3.1516087033200000 -1.2866390205900000
