Cd H  O 
 1.0000000000000000
     3.4337040000000001   -0.0181880000000000    0.0046840000000000
    -0.0904160000000000    5.7014610000000001   -0.0534410000000000
    -1.6662280000000000   -2.7695940000000001    5.1177159999999997
 Cd  H   O  
   2   4   4
Cartesian
  0.0511354457520000 -0.0008084769469999  1.6020677715709999
  1.7258392008400001  2.8523319013890003  3.5357922159349995
  1.7232231571760002  4.0681170211460005  0.0298499620220000
  1.2002226961039999  1.8145882223700001 -0.0064783869260000
  1.7829931505000003  0.1031530587750000  3.7185707856510000
  0.0265967823200001  2.9356484894120003  1.4119211456039997
  1.7212775999000001  5.0358634610589998 -0.0039754550210000
  0.2307595624480000  1.7618343883750001  0.0039371646050000
  1.7620761146280004  0.6612016868310001  2.9062098211229999
  0.0057500676920000  3.5092368191390002  2.2121511837750001
