Li H  Pd
 1.0000000000000000
     2.7794669999999999    0.0000000000000000    0.0000000000000000
     0.0000000000000000    2.7794669999999999    0.0000000000000000
     0.0000000000000000    0.0000000000000000    3.9043150000000000
 Li  H   Pd 
   1   1   1
Cartesian
  1.3897335000000000  1.3897335000000000  1.9521575000000000
  1.3897335000000000  1.3897335000000000  0.0000000000000000
  0.0000000000000000  0.0000000000000000  0.0000000000000000
