Dy Ga
 1.0000000000000000
     4.1657520000000003    0.0000000000000000    0.0000000000000000
    -2.0828760000000002    3.6076489999999999    0.0000000000000000
     0.0000000000000000    0.0000000000000000    4.1156480000000002
 Dy  Ga 
   1   2
Cartesian
  0.0000000000000000  0.0000000000000000  0.0000000000000000
 -0.0000020828760001  2.4051005358829998  2.0578240000000001
  2.0828780828760003  1.2025484641169999  2.0578240000000001
