Na Hg O 
 1.0000000000000000
     3.2802769999999999    0.0000000000000000   -0.8153550000000001
    -0.2026670000000000    3.2740100000000001   -0.8153550000000001
     0.0201690000000000    0.0214560000000000    7.0873070000000000
 Na  Hg  O  
   2   1   2
Cartesian
  2.0928144522630001  2.2263689471919998  1.4134889510290001
  1.0049645477369999  1.0690970528080002  4.0431080489709998
  0.0000000000000000  0.0000000000000000  0.0000000000000000
  2.6315335077029998  2.7994667303520000  3.5808246841489995
  0.4662454922970000  0.4959992696480000  1.8757723158509998
