Mn V  Ru
 1.0000000000000000
    -0.0000020000000000    2.9986959999999998    2.9986959999999998
     2.9986959999999998   -0.0000020000000000    2.9986950000000001
     2.9986959999999998    2.9986959999999998   -0.0000020000000000
 Mn  V   Ru 
   1   1   2
Cartesian
  1.4993415026099999  1.4993415026099999  1.4993412526110002
  4.4980365026099998  4.4980365026099998  4.4980357526110000
  5.9973899999999993  5.9973899999999993  5.9973890000000001
  2.9987009973899998  2.9987009973899998  2.9987004973890001
