Ta Ga
 1.0000000000000000
     3.5195330000000000    0.0000000000000000   -1.4069609999999999
    -0.5624440000000001    3.4743010000000001   -1.4069609999999999
    -0.0046360000000000   -0.0054460000000000    5.0939629999999996
 Ta  Ga 
   1   3
Cartesian
  0.0000000000000000  0.0000000000000000  0.0000000000000000
  1.4785444999999999  1.7371505000000000 -1.4069609999999999
  0.4557322500000000  2.6030027499999999  1.1400204999999999
  2.4967207500000006  0.8658522500000000  1.1400204999999999
