Ba Be N 
 1.0000000000000000
    -2.8313000000000001    2.8313000000000001    4.2405330000000001
     2.8313000000000001   -2.8313000000000001    4.2405330000000001
     2.8313000000000001    2.8313000000000001   -4.2405330000000001
 Ba  Be  N  
   2   4   4
Cartesian
  0.0000000000000001 -0.0000000000000001  6.3607995000000006
  0.0000000000000000  0.0000000000000000  2.1202665000000001
  3.5592838560000004  0.7279838560000000  0.0000000000000001
  2.1033161439999999  0.7279838560000002  4.2405329999999992
  0.7279838560000002  2.1033161439999999  0.0000000000000000
 -0.7279838560000003  2.1033161440000003  4.2405330000000001
  1.8909856318000000  0.9403143682000001  0.0000000000000000
  0.9403171995000001  3.7716171995000005 -0.0000042405330001
  0.9403143682000001  1.8909856318000000  4.2405329999999992
  1.8909828005000002 -0.9403171995000000  4.2405372405330004
