Tl Pt S 
 1.0000000000000000
     7.1437489999999997    0.0000000000000000    0.0000000000000000
    -3.5718749999999999    6.1866680000000001    0.0000000000000000
     0.0000000000000000    0.0000000000000000    6.0852050000000002
 Tl  Pt  S  
   2   4   6
Cartesian
  3.5718779052080003  2.0622206044440001  3.8114133849050003
 -0.0000039052080000  4.1244473955560004  2.2737916150950004
  0.0000000000000000  0.0000000000000000  0.0000000000000000
 -1.7859375000000000  3.0933340000000000  0.0000000000000000
  3.5718744999999998  0.0000000000000000  0.0000000000000000
  1.7859369999999999  3.0933340000000000  0.0000000000000000
  5.3237216948479995  1.0507931864640001  1.1665033724750000
  3.5718777417229997  4.0850754404040002  1.1665033724750000
  1.8200342790530000  1.0507931864640001  1.1665033724750000
  1.7518397209469998  5.1358748135359997  4.9187016275250004
 -1.7518476948480000  5.1358748135359997  4.9187016275250004
 -0.0000037417230001  2.1015925595960003  4.9187016275250004
