Li Zn Pd
 1.0000000000000000
     0.0000000000000000    2.9948049999999999    2.9948049999999999
     2.9948049999999999    0.0000000000000000    2.9948049999999999
     2.9948049999999999    2.9948049999999999    0.0000000000000000
 Li  Zn  Pd 
   1   1   2
Cartesian
  1.4974025000000000  1.4974025000000000  1.4974025000000000
  4.4922075000000001  4.4922075000000001  4.4922075000000001
  0.0000000000000000  0.0000000000000000  0.0000000000000000
  2.9948049999999999  2.9948049999999999  2.9948049999999999
