Al Cd S 
 1.0000000000000000
     5.0499489999999998    0.0004200000000000   -2.3967410000000000
    -1.1367799999999999    4.9201990000000002   -2.3964240000000001
    -0.0372020000000000   -0.0463870000000000    6.4409700000000001
 Al  Cd  S  
   2   1   4
Cartesian
  0.3914151231240001  3.6672229900059996  0.8238500886880000
  5.0127020517709990 -0.0459219325700000  4.0441147128810000
  1.9568255756530000  2.4604158183839999 -2.3964917278609996
  3.5845233991719998  4.4108461205790004 -2.6154733209120002
  1.3592576837459998  1.8063155099679999 -0.0053675632820001
 -0.2504376204750000  3.1423110494349999  2.9221429704549999
  3.0582867981420003  0.3886728671930000  2.9944502077739998
