Sc Cd
 1.0000000000000000
     6.4123929999999998    0.0000000000000000    0.0000000000000000
    -3.2061970000000000    5.5532959999999996    0.0000000000000000
     0.0000000000000000    0.0000000000000000    4.9078670000000004
 Sc  Cd 
   2   6
Cartesian
 -0.0000035395300001  3.7021991844319997  1.2269667500000001
  3.2061995395300005  1.8510968155679999  3.6809002500000005
  3.2061961669120000  3.6994725160959998  1.2269667500000001
 -1.6007389059200003  4.6263842580479997  3.6809002500000005
  1.6007380728319993  4.6263842580479997  3.6809002500000005
  1.6054579271679998  0.9269117419520000  1.2269667500000001
  4.8069349059200004  0.9269117419520000  1.2269667500000001
 -0.0000001669120001  1.8538234839040000  3.6809002500000005
