Nb C 
 1.0000000000000000
     5.1978439999999999    0.0000000000000000   -1.8585609999999999
     0.0000000000000000    9.5422589999999996    0.0000000000000000
    -0.0005810000000000    0.0000000000000000    5.5088739999999996
 Nb  C  
  12  10
Cartesian
  1.3729626492199998  0.0000000000000000  3.5603276604649996
  3.8243003507800002  0.0000000000000000  0.0899853395350001
  3.8474211134390002  1.6852774465079998  2.7358431709789994
  1.3498418865609998  1.6852774465079998  0.9144698290209999
  1.3498418865609998  7.8569815534920000  0.9144698290209999
  3.8474211134390002  7.8569815534920000  2.7358431709789994
  3.9718846492199997  4.7711294999999998  2.6310471604649996
  1.2253783507800000  4.7711294999999998  1.0192658395350001
  1.2484991134390000  6.4564069465079994  3.6651236709789994
  3.9487638865609997  6.4564069465079994 -0.0148106709790002
  3.9487638865609997  3.0858520534919998 -0.0148106709790002
  1.2484991134390000  3.0858520534919998  3.6651236709789994
  2.5986314999999998  0.0000000000000000  1.8251564999999998
  0.0000000000000000  3.1978686318929999  0.0000000000000000
  0.0000000000000000  6.3443903681069997  0.0000000000000000
 -0.0002905000000000  1.5898834832850000  2.7544369999999998
 -0.0002905000000000  7.9523755167149996  2.7544369999999998
 -0.0002905000000000  4.7711294999999998  2.7544369999999998
  2.5989220000000000  7.9689981318929997 -0.9292805000000000
  2.5989220000000000  1.5732608681069999 -0.9292805000000000
  2.5986314999999998  6.3610129832849998  1.8251564999999998
  2.5986314999999998  3.1812460167149998  1.8251564999999998
