Sm Ni Ge
 1.0000000000000000
     0.0000000000000000    0.0000000000000000    4.1567080000000001
     4.1914369999999996    0.0000000000000000    0.0000000000000000
     2.0957180000000002    8.3121259999999992    0.0000000000000000
 Sm  Ni  Ge 
   2   2   4
Cartesian
  4.1914368916119997  1.8018694257759997  1.0391770000000000
  2.0957139169510000  6.5102565742239999  3.1175268432920000
  2.0957099359710001  3.0115663710599998  3.1175268432920000
  4.1914366811549995  5.3005596289399994  1.0391770000000000
  2.0957184573019996  0.7098223118960000  3.1175268432920000
  2.0957182503360001  4.1504772513279997  1.0391770000000000
  4.1914346539449996  4.1616570607979995  3.1175268432920000
  4.1914365426979998  7.6023036881039987  1.0391770000000000
