Ta Al Os
 1.0000000000000000
     0.0000000000000000    3.0972439999999999    3.0972439999999999
     3.0972439999999999    0.0000000000000000    3.0972439999999999
     3.0972439999999999    3.0972439999999999    0.0000000000000000
 Ta  Al  Os 
   1   1   2
Cartesian
  4.6458659999999998  4.6458659999999998  4.6458659999999998
  1.5486219999999999  1.5486219999999999  1.5486219999999999
  0.0000000000000000  0.0000000000000000  0.0000000000000000
  3.0972439999999999  3.0972439999999999  3.0972439999999999
