Er Zr Sb
 1.0000000000000000
     4.1235939999999998    0.0000000000000000   -1.0382510000000000
    -0.2614140000000000    4.1152990000000003   -1.0382510000000000
     0.0170370000000000    0.0181550000000000    8.7755729999999996
 Er  Zr  Sb 
   2   2   2
Cartesian
  2.6165033845900001  2.7879839125340000  1.6839689227579997
  1.2627136154099998  1.3454700874659999  5.0151020772420001
 -0.1307070000000000  2.0576495000000001 -0.5191255000000000
  2.0617969999999999  0.0000000000000000 -0.5191255000000000
  0.5255111545040000  0.5599524154840001  2.0871580841439998
  3.3537058454960000  3.5735015845160003  4.6119129158559993
