Tm Sn Ru
 1.0000000000000000
     0.0000000000000000    3.2593990000000002    3.2593990000000002
     3.2593990000000002    0.0000000000000000    3.2593990000000002
     3.2593990000000002    3.2593990000000002    0.0000000000000000
 Tm  Sn  Ru 
   1   1   2
Cartesian
  4.8890919812020002  4.8890919812020002  4.8890919812020002
  1.6296929812020000  1.6296929812020000  1.6296929812020000
  0.0000000000000000  0.0000000000000000  0.0000000000000000
  3.2593990000000002  3.2593990000000002  3.2593990000000002
