Zr V  P 
 1.0000000000000000
     3.5166130000000000    0.0000000000000000    0.0000000000000000
     0.0000000000000000    6.6090159999999996    0.0000000000000000
     0.0000000000000000    0.0000000000000000    7.8966560000000001
 Zr  V   P  
   4   4   4
Cartesian
  0.8791532500000000  3.5723714184799995  2.6109266498720003
  2.6374597500000001  3.0366445815199996  5.2857293501280003
  0.8791532500000000  0.2678634184799999  1.3374013501280002
  2.6374597500000001  6.3411525815200003  6.5592546498719999
  2.6374597500000001  5.7618921561679999  3.4974210457439998
  0.8791532500000000  0.8471238438320000  4.3992428509119996
  2.6374597500000001  2.4573841561680001  0.4509069542560000
  0.8791532500000000  4.1516318438319999  7.4457411490880006
  0.8791532500000000  1.7247416874879997  6.8182886566400001
  2.6374597500000001  4.8842743125119998  1.0783673433599998
  0.8791532500000000  5.0292496874879999  5.0266953433600001
  2.6374597500000001  1.5797663125119998  2.8699606566400000
