Zn Ge P 
 1.0000000000000000
     4.9559449999999998    0.0000000000000000   -2.2492600000000000
    -1.0208299999999999    4.8496689999999996   -2.2492600000000000
     0.0080890000000000    0.0099700000000000    6.6023360000000002
 Zn  Ge  P  
   2   2   4
Cartesian
  0.4774082500000000  3.6422367499999999  1.0519080000000001
  0.0000000000000000  0.0000000000000000  0.0000000000000000
  3.4657957499999998  1.2174022499999999  1.0519080000000001
  1.9675574999999998  2.4248344999999998 -2.2492600000000000
  2.9712715985400000  0.6358103149780000  3.2545458758799999
  3.4226388539099997  4.2459528749999995 -2.2753598758800004
  1.5002993960900000  1.8211183750000000 -0.0466221241200000
 -0.0078018485400000  3.0163964350219996  3.2750681241199997
