Rb Ge I 
 1.0000000000000000
     5.9607270000000003    0.0000000000000000    0.0000000000000000
     0.0000000000000000    5.9607270000000003    0.0000000000000000
     0.0000000000000000    0.0000000000000000    5.9607270000000003
 Rb  Ge  I  
   1   1   3
Cartesian
  2.9803635000000002  2.9803635000000002  2.9803635000000002
  0.0000000000000000  0.0000000000000000  0.0000000000000000
  2.9803635000000002  0.0000000000000000  0.0000000000000000
  0.0000000000000000  0.0000000000000000  2.9803635000000002
  0.0000000000000000  2.9803635000000002  0.0000000000000000
