Ba Cd As
 1.0000000000000000
     4.5604500000000003   -0.0000000000000000    0.0000000000000000
    -2.2802259999999999    3.9494669999999998    0.0000000000000000
     0.0000000000000000    0.0000000000000000    7.7562879999999996
 Ba  Cd  As 
   1   2   2
Cartesian
  0.0000000000000000  0.0000000000000000  0.0000000000000000
  2.2802269468920002  1.3164876835110000  2.8776138731519998
 -0.0000029468919999  2.6329793164890001  4.8786741268479998
  2.2802269468920002  1.3164876835110000  5.7021281986559993
 -0.0000029468919999  2.6329793164890001  2.0541598013439999
