Mn Nb Ru
 1.0000000000000000
    -0.0000060000000000    3.1000640000000002    3.1006520000000002
     3.1002030000000000    0.0000020000000000    3.1006440000000000
     3.1002920000000000    3.1001449999999999   -0.0000850000000000
 Mn  Nb  Ru 
   1   1   2
Cartesian
  1.5501160494990001  1.5500527499170000  1.5503027500929998
  4.6503791510019994  4.6501582501660002  4.6509082498140009
  6.2003060879650000  6.2001427983160005  6.2009722504219997
  3.1004212114450000  3.1001706014580002  3.1008473504000000
