Ta Nb Tc
 1.0000000000000000
     0.0000000000000000    3.1808310000000000    3.1808310000000000
     3.1808310000000000    0.0000000000000000    3.1808310000000000
     3.1808310000000000    3.1808310000000000    0.0000000000000000
 Ta  Nb  Tc 
   1   1   2
Cartesian
  4.7712528616620000  4.7712528616620000  4.7712528616620000
  1.5904155000000000  1.5904155000000000  1.5904155000000000
  0.0000000000000000  0.0000000000000000  0.0000000000000000
  3.1808310000000000  3.1808310000000000  3.1808310000000000
