Hg Rh F 
 1.0000000000000000
     4.5768630000000003    0.0043780000000000    3.4149729999999998
     1.7141720000000000    4.2431749999999999    3.4156689999999998
     0.0059540000000000    0.0030920000000000    5.7104670000000004
 Hg  Rh  F  
   1   1   6
Cartesian
  3.1484945000000004  2.1253224999999998  6.2705544999999994
  0.0000000000000000  0.0000000000000000  0.0000000000000000
  1.8899520794130000  0.2008908127320000  6.0146511174600006
  1.5680392837250001  3.3517914555119996  5.1083369709570006
  2.0065434336150001  2.5729171019320001  8.2323012625630003
  4.7289497162750003  0.8988535444880000  7.4327720290429999
  4.4070369205870001  4.0497541872679994  6.5264578825399999
  4.2904455663850003  1.6777278980679999  4.3088077374369993
