Zn Pd
 1.0000000000000000
     2.9161880000000000    0.0000000000000000    0.0000000000000000
     0.0000000000000000    2.9161880000000000    0.0000000000000000
     0.0000000000000000    0.0000000000000000    3.4159999999999999
 Zn  Pd 
   1   1
Cartesian
  1.4580940000000000  1.4580940000000000  1.7080000000000000
  0.0000000000000000  0.0000000000000000  0.0000000000000000
