Mo Pt
 1.0000000000000000
     2.7892709999999998    0.0000000000000000    0.0000000000000000
     0.0000000000000000    3.9757210000000001    0.0000000000000000
     0.0000000000000000    0.0000000000000000    8.3786400000000008
 Mo  Pt 
   2   4
Cartesian
  0.0000000000000000  0.0000000000000000  0.0000000000000000
  1.3946354999999999  1.9878605000000000  4.1893200000000004
  1.3946354999999999  1.9878605000000000  1.3676621644800000
  1.3946354999999999  1.9878605000000000  7.0109778355200003
  0.0000000000000000  0.0000000000000000  5.5569821644800008
  0.0000000000000000  0.0000000000000000  2.8216578355200004
