La In
 1.0000000000000000
     2.8268830000000000   -4.8963089999999996   -0.0000000000000000
     2.8268830000000000    4.8963089999999996    0.0000000000000000
     0.0000000000000000    0.0000000000000000    7.1568920000000000
 La  In 
   4   2
Cartesian
  0.0000000000000000  0.0000000000000000  3.5784460000000000
  0.0000000000000000  0.0000000000000000  0.0000000000000000
  2.8268830000000000  1.6321062642060000  5.3680626290600006
  2.8268830000000000 -1.6321062642059998  1.7888293709400001
  2.8268830000000000 -1.6321062642059998  5.3678550791920001
  2.8268830000000000  1.6321062642060000  1.7890369208079999
