Na Sn Sb
 1.0000000000000000
     0.0010770000000000    7.3905640000000004    7.3905940000000001
     7.3905770000000004    0.0010800000000000    7.3905919999999998
     7.3905779999999996    7.3905620000000001    0.0010790000000000
 Na  Sn  Sb 
  16   2   8
Cartesian
  5.5435991094229999  9.2383387489200004  5.5436122344080001
  5.5436059989229998  5.5435903594360010  9.2383687344060004
  9.2383565000000001  5.5435967499999999  5.5436186249999997
  9.2388949999999994  9.2388787500000014  9.2389156249999989
  3.6954660524719998  3.6954729529399999  0.3006643764820000
  3.3959943820170002  7.3906490188000005  7.3906713989320005
 11.3861341542060011  7.3915348019620000  7.3915714217470008
  7.3915472605539998  7.3915358820319996 11.3861511022800013
  7.3915404105520004 11.3861051131020012  7.3915577217130002
  7.3906620174390003  3.3959752516460000  7.3906703166770003
  3.6956651977929997  7.0905576057720001  3.6956741366140005
  0.3006627875620000  3.6954664822760002  3.6954814626300001
  7.0905640667930001  3.6956660875240002  3.6956732177699996
  3.6954655919840000  0.3006562472740000  3.6954805427309996
  7.3906625591040003  7.3906479376260004  3.3959956536270002
  3.6956795195250001  3.6956670085280003  7.0905937592840003
  7.3910716522270006  7.3910512628180003  7.3910807626110007
 11.0867257383499993 11.0867062382619999 11.0867578779809985
 12.7350553716169994  9.4380729461859989  9.4381177816949986
 12.7353732910790001 12.7353582807179997 12.7354017216529982
  5.7437025883279995  9.0387534139000003  9.0387897140580016
  5.7433110344960001  5.7433009327680002  5.7433238559199999
  9.0387697593169989  9.0387599126399998  5.7437236919719998
  9.4380969356179989 12.7350316329800002  9.4381112845179995
  9.4380817093709997  9.4380738374439996 12.7350829091379989
  9.0387767029040003  5.7436864360900000  9.0388036023389997
