Sm Ni
 1.0000000000000000
     4.3992459999999998    0.0000000000000000    2.5399050000000001
     1.4664150000000000    4.1476530000000000    2.5399050000000001
     0.0000000000000000    0.0000000000000000    5.0798090000000000
 Sm  Ni 
   2   4
Cartesian
  5.1324519085849998  3.6291922273470001  8.8896691649039994
  0.7332090914150000  0.5184607726530001  1.2699498350959999
  2.9328304999999997  2.0738265000000000  5.0798094999999996
  2.9328304999999997  2.0738265000000000  2.5399050000000001
  0.7332075000000000  2.0738265000000000  3.8098570000000000
  2.1996229999999999  0.0000000000000000  3.8098570000000000
