Si Ni P 
 1.0000000000000000
     4.7199220000000004    0.0000000000000000   -2.1058490000000001
    -0.9395490000000000    4.6254640000000000   -2.1058490000000001
    -0.0035660000000000   -0.0043640000000000    6.3344040000000001
 Si  Ni  P  
   3   1   4
Cartesian
  0.4735357500000001  3.4669159999999999  1.0613530000000000
  1.8901865000000002  2.3127320000000000 -2.1058490000000001
  3.3032712500000003  1.1541840000000001  1.0613530000000000
  0.0000000000000000  0.0000000000000000  0.0000000000000000
  2.9019732349020000  0.5650298909200000  3.2253113061810001
 -0.0239449747429999  2.9563716515999996  3.2253113061810001
  3.3150098394879999  4.0560701090800002 -2.1913187099360001
  1.3605759003530000  1.6647283483999999 -0.0138919024260000
