Mg Mn Rh
 1.0000000000000000
     0.0000010000000000    3.0566390000000001    3.0566339999999999
     3.0566360000000001    0.0000030000000000    3.0566339999999999
     3.0566369999999998    3.0566380000000000    0.0000020000000000
 Mg  Mn  Rh 
   1   1   2
Cartesian
  1.5283185000000001  1.5283199999999999  1.5283175000000000
  4.5849555000000004  4.5849599999999997  4.5849525000000000
  0.0000000000010000  0.0000030566390000  0.0000030566340000
  3.0566431132720000  3.0566400000060003  3.0566411132679998
