Li Cd As
 1.0000000000000000
     3.1385399999999999    3.1385399999999999    0.0000000000000000
     3.1385399999999999    0.0000000000000000   -3.1385399999999999
     0.0000000000000000    3.1385399999999999   -3.1385399999999999
 Li  Cd  As 
   1   1   1
Cartesian
  3.1385399999999999  3.1385399999999999 -3.1385399999999999
  0.0000000000000000  0.0000000000000000  0.0000000000000000
  4.7078100000000003  4.7078100000000003 -4.7078100000000003
