Li Si Rh
 1.0000000000000000
     6.9887699999999997    0.0000000000000000    0.0000000000000000
     0.0000000000000000    6.9887699999999997    0.0000000000000000
     0.0000000000000000    0.0000000000000000    2.7407050000000002
 Li  Si  Rh 
   2   4   4
Cartesian
  0.0000000000000000  0.0000000000000000  0.0000000000000000
  3.4943849999999999  3.4943849999999999  0.0000000000000000
  4.5075190318200002  1.0131340318199999  0.0000000000000000
  1.0131340318199999  2.4812439794099999  0.0000000000000000
  5.9756359681799998  4.5075190318200002  0.0000000000000000
  2.4812439794099999  5.9756359681799998  0.0000000000000000
  2.4465657026700001  1.0478332748700001  1.3703497592950002
  5.9409437138999994  2.4465657026700001  1.3703497592950002
  1.0478332748700001  4.5422112860999997  1.3703497592950002
  4.5422112860999997  5.9409437138999994  1.3703497592950002
