Sr Sb N 
 1.0000000000000000
     5.1949649999999998    0.0000000000000000    0.0000000000000000
     0.0000000000000000    5.1949649999999998    0.0000000000000000
     0.0000000000000000    0.0000000000000000    5.1949649999999998
 Sr  Sb  N  
   3   1   1
Cartesian
  0.0000000000000000  2.5974824999999999  2.5974824999999999
  2.5974824999999999  2.5974824999999999  0.0000000000000000
  2.5974824999999999  0.0000000000000000  2.5974824999999999
  0.0000000000000000  0.0000000000000000  0.0000000000000000
  2.5974824999999999  2.5974824999999999  2.5974824999999999
