Te O 
 1.0000000000000000
     5.0446910000000003    0.0000000000000000    0.0000000000000000
    -2.5223460000000002    4.3688300000000000    0.0000000000000000
     0.0000000000000000    0.0000000000000000   13.2238000000000007
 Te  O  
   6  18
Cartesian
  0.0000000000000000  0.0000000000000000  0.0000000000000000
  2.5223478556790004  1.4562752103899999  4.4079289254000003
 -0.0000028556790000  2.9125547896100001  8.8158710746000004
  0.0000000000000000  0.0000000000000000  6.6119000000000003
  2.5223478556790004  1.4562752103899999 11.0198289254000006
 -0.0000028556790000  2.9125547896100001  2.2039710746000001
  3.2079312852940003  2.9125547896100001  5.5099210746000002
  3.2079341409730002  0.0000000000000000  9.9178500000000014
  0.6855859519610000  1.4562752103899999  1.1019789254000001
  3.4407264364770005  0.1344026861200000  5.5099210746000002
  0.9183782474650000  1.5906778965099999  9.9178500000000014
 -1.6039674192020001  3.0469574757300002  1.1019789254000001
  0.9183782782290001  1.3218725242699998  5.5099210746000002
 -1.6039673884380001  2.7781521034900001  9.9178500000000014
  0.9183804672410002  4.2344273138799995  1.1019789254000001
 -0.6855862852940000  1.4562752103899999  7.7138789254000004
  1.8367590480390004  2.9125547896100001 12.1218210746000015
  1.8367568590270000  0.0000000000000000  3.3059500000000002
 -0.9183814364770001  4.2344273138799995  7.7138789254000004
  4.1263124192020006  1.3218725242699998 12.1218210746000015
  1.6039667525350001  2.7781521034900001  3.3059500000000002
  1.6039667217710001  3.0469574757300002  7.7138789254000004
  1.6039645327590002  0.1344026861200000 12.1218210746000015
 -0.9183786115620001  1.5906778965099999  3.3059500000000002
