Co Sn
 1.0000000000000000
     6.3792869999999997    0.0000000000000000    0.0000000000000000
     0.0000000000000000    6.3792869999999997    0.0000000000000000
     0.0000000000000000    0.0000000000000000    5.4895790000000000
 Co  Sn 
   4   8
Cartesian
  0.0000000000000000  0.0000000000000000  4.1171842500000002
  0.0000000000000000  0.0000000000000000  1.3723947500000000
  3.1896434999999999  3.1896434999999999  1.3723947500000000
  3.1896434999999999  3.1896434999999999  4.1171842500000002
  4.2496258279199992  5.3193046720800004  2.7447895000000000
  2.1296611720800001  5.3193046720800004  0.0000000000000000
  5.3193046720800004  4.2496258279199992  0.0000000000000000
  4.2496258279199992  1.0599823279200000  0.0000000000000000
  1.0599823279200000  2.1296611720800001  0.0000000000000000
  5.3193046720800004  2.1296611720800001  2.7447895000000000
  2.1296611720800001  1.0599823279200000  2.7447895000000000
  1.0599823279200000  4.2496258279199992  2.7447895000000000
