Ti In Pd
 1.0000000000000000
    -0.0026780000000000    3.1859099999999998    3.2125659999999998
     3.2123949999999999   -0.0020230000000000    3.2112470000000002
     3.2128679999999998    3.1859180000000000   -0.0024400000000000
 Ti  In  Pd 
   1   1   2
Cartesian
  4.8169580261020002  4.7773441760699997  4.8160522322900006
  1.6055337118789998  1.5924703793969999  1.6054300668350001
  3.2104246356610000  3.1840018955889993  6.4225851520090007
  3.2106813392259999  3.1847812348619997  3.2118050464260000
