Cd O 
 1.0000000000000000
     5.4012490000000000    0.0000000000000000    0.0000000000000000
     0.0000000000000000    5.4012490000000000    0.0000000000000000
     0.0000000000000000    0.0000000000000000    5.4012490000000000
 Cd  O  
   4   8
Cartesian
  2.7006245000000000  0.0000000000000000  0.0000000000000000
  0.0000000000000000  0.0000000000000000  2.7006245000000000
  0.0000000000000000  2.7006245000000000  0.0000000000000000
  2.7006245000000000  2.7006245000000000  2.7006245000000000
  0.4337959121860000  2.2668285878140000  3.1344204121860000
  2.2668285878140000  3.1344204121860000  0.4337959121860000
  3.1344204121860000  0.4337959121860000  2.2668285878140000
  4.9674530878140004  4.9674530878140004  4.9674530878140004
  0.4337959121860000  0.4337959121860000  0.4337959121860000
  2.2668285878140000  4.9674530878140004  3.1344204121860000
  3.1344204121860000  2.2668285878140000  4.9674530878140004
  4.9674530878140004  3.1344204121860000  2.2668285878140000
