Na Ir O 
 1.0000000000000000
     4.2596259999999999    0.0000000000000000    1.9807740000000000
     2.1300290000000000    5.0066079999999999    0.9899200000000000
     0.0180610000000000    0.0014380000000000    5.5316799999999997
 Na  Ir  O  
   4   1   4
Cartesian
  3.4275057891929999  3.9380987184960001  3.7702181459100004
  2.9802101927460001  1.0699472800659999  4.7321503224099999
  4.7285545444929991  3.0365273568659998  6.5428737393479999
  1.6791593254780002  1.9715136365259998  1.9594992707319998
  0.0000000000000000  0.0000000000000000  0.0000000000000000
  3.8967132910819999  1.7199819810020001  2.7612229646060000
  2.5110027089179998  3.2880640189979995  5.7411510353940001
  5.6641614578789996  4.1472521270240001  4.5308748071900000
  0.7435545421210000  0.8607938729760000  3.9714991928100001
