Y  Co B 
 1.0000000000000000
     3.3300260000000002    0.0000000000000000   -1.1843250000000001
    -0.4212060000000000    3.3032800000000000   -1.1843250000000001
     0.0193650000000000    0.0219910000000000    5.3282080000000001
 Y   Co  B  
   1   2   2
Cartesian
  0.0000000000000000  0.0000000000000000  0.0000000000000000
  0.5262845000000000  2.4884554999999997  1.4797790000000000
  2.4019005000000000  0.8368155000000000  1.4797790000000000
  1.9102751548150001  2.1693242156490000  0.0974579300020000
  1.0179098451850002  1.1559467843510001  2.8621000699980002
