Pr Bi
 1.0000000000000000
     4.0192220000000001    0.0000000000000000    2.3205000000000000
     1.3397420000000000    3.7893610000000000    2.3205000000000000
     0.0000000000000000    0.0000000000000000    4.6409989999999999
 Pr  Bi 
   1   1
Cartesian
  2.6794820000000001  1.8946805000000000  4.6409994999999995
  0.0000000000000000  0.0000000000000000  0.0000000000000000
