Ti In Rh
 1.0000000000000000
     3.6407400000000001   -6.3059469999999997    0.0000000000000000
     3.6407400000000001    6.3059469999999997    0.0000000000000000
     0.0000000000000000    0.0000000000000000    3.0741679999999998
 Ti  In  Rh 
   3   3   2
Cartesian
  1.5251970045000001 -2.6417188469749999  1.5370839999999999
  4.2310859910000005  0.0000000000000001  1.5370839999999999
  1.5251970045000001  2.6417188469749999  1.5370839999999999
  2.7788530568400001 -4.8131149429019997  0.0000000000000000
  1.7237738863200001 -0.0000000000000001  0.0000000000000000
  2.7788530568400001  4.8131149429019997  0.0000000000000000
  3.6407400000000001  2.1019865372980000  0.0000000000000000
  3.6407400000000001 -2.1019865372980000  0.0000000000000000
