Si C 
 1.0000000000000000
     3.0939150000000000    0.0000000000000000    0.0000000000000000
    -1.5469569999999999    2.6794090000000002    0.0000000000000000
     0.0000000000000000    0.0000000000000000   15.1807700000000008
 Si  C  
   6   6
Cartesian
 -0.0000012136240001  1.7862735598030002  2.5353252169300000
  1.5469592136240000  0.8931354401970000 10.1257102169299991
  1.5469592136240000  0.8931354401970000  5.0627108911500001
 -0.0000012136240001  1.7862735598030002 12.6530958911500004
  0.0000000000000000  0.0000000000000000  7.5945900732900000
  0.0000000000000000  0.0000000000000000  0.0041898925200000
  0.0000000000000000  0.0000000000000000  1.9072208581800001
  0.0000000000000000  0.0000000000000000  9.4976058581800000
 -0.0000012136240001  1.7862735598030002  4.4328000207700002
  1.5469592136240000  0.8931354401970000 12.0231850207700006
  1.5469592136240000  0.8931354401970000  6.9601401526800002
 -0.0000012136240001  1.7862735598030002 14.5505251526800006
