Sr Bi N 
 1.0000000000000000
     5.2349399999999999    0.0000000000000000    0.0000000000000000
     0.0000000000000000    5.2349399999999999    0.0000000000000000
     0.0000000000000000    0.0000000000000000    5.2349399999999999
 Sr  Bi  N  
   3   1   1
Cartesian
  2.6174700000000000  2.6174700000000000  0.0000000000000000
  0.0000000000000000  2.6174700000000000  2.6174700000000000
  2.6174700000000000  0.0000000000000000  2.6174700000000000
  0.0000000000000000  0.0000000000000000  0.0000000000000000
  2.6174700000000000  2.6174700000000000  2.6174700000000000
