Sr Ag
 1.0000000000000000
     4.3812150000000001   -0.0000000000000000    1.8674120000000001
     2.0370189999999999    5.6739350000000002    1.2940460000000000
    -0.0394340000000000   -0.0016340000000000    6.1657120000000001
 Sr  Ag 
   2   4
Cartesian
  5.7918264128100008  4.5103700349130005  4.6311027704980008
  0.5869735871900000  1.1619309650870000  4.6960672295019998
  4.4617155731990001  4.4417721367690000  7.7517327602980002
  1.9170844268009999  1.2305288632309999  1.5754372397020000
  2.6891511001839996  3.4469696596900001  5.8372485785760002
  3.6896488998159995  2.2253313403100003  3.4899214214240000
