Zr As
 1.0000000000000000
    10.5875640000000004    0.0000000000000000    0.0000000000000000
     0.0000000000000000    3.7639109999999998    0.0000000000000000
     0.0000000000000000    0.0000000000000000   10.1482620000000008
 Zr  As 
  12   8
Cartesian
  2.2790578515120004  0.9409702221780000  2.0673328968060001
  3.0147241484879999  2.8229294860889995  7.1414537485440004
  7.5728398515119997  0.9409702221780000  3.0068082514560004
  8.3085061484880001  2.8229294860889995  8.0809392514559999
  1.3148483980320000  2.8229294860889995  4.3894480593840006
  3.9789336019679999  0.9409702221780000  9.4635993559080003
  6.6086303980320000  2.8229294860889995  0.6846727923540000
  9.2727156019680006  0.9409702221780000  5.7587936440920009
  0.4688067463560000  0.9409702221780000  8.8756496486760010
  4.8249858412080000  2.8229294860889995  3.8015186486760002
  5.7625781587920004  0.9409702221780000  6.3467433513240010
 10.1187678412079993  2.8229294860889995  1.2726123513240002
  3.2365653769800002  0.9409702221780000  5.0663777278320001
  2.0572166230200000  2.8229294860889995 10.1405087278320014
  7.3509880354560009  2.8229294860889995  5.0818944204300003
  8.5303473769800000  0.9409702221780000  0.0077532721680000
 10.2929438565720002  0.9409702221780000  3.2562626796780005
  5.5884021434280005  2.8229294860889995  8.3303936796780000
  4.9991618565720000  0.9409702221780000  1.8178581720600002
  0.2946201434280000  2.8229294860889995  6.8919891720600006
