Mg Pd
 1.0000000000000000
     3.9757790000000002    0.0000000000000000    0.0000000000000000
     0.0000000000000000    3.9757790000000002    0.0000000000000000
     0.0000000000000000    0.0000000000000000    3.9757790000000002
 Mg  Pd 
   1   3
Cartesian
  0.0000000000000000  0.0000000000000000  0.0000000000000000
  0.0000000000000000  1.9878895000000001  1.9878895000000001
  1.9878895000000001  1.9878895000000001  0.0000000000000000
  1.9878895000000001  0.0000000000000000  1.9878895000000001
