Tm Nb Ru
 1.0000000000000000
    -0.0013580000000000    3.2402210000000000    3.2401059999999999
     3.2402460000000000   -0.0013110000000000    3.2400609999999999
     3.2402860000000002    3.2402129999999998   -0.0013560000000000
 Tm  Nb  Ru 
   1   1   2
Cartesian
  4.8593772611119999  4.8593390110900003  4.8591017698329999
  1.6197578598100000  1.6197580763589998  1.6196768362020000
  0.0001069043140000  0.0001101450990000  0.0001133812490000
  3.2395092567020001  3.2394675494189999  3.2393115537379997
