Sr Cd Sn
 1.0000000000000000
     0.0000000000000000    4.0382949999999997    4.0382949999999997
     4.0382949999999997    0.0000000000000000    4.0382949999999997
     4.0382949999999997    4.0382949999999997    0.0000000000000000
 Sr  Cd  Sn 
   2   1   1
Cartesian
  4.0382949999999997  4.0382949999999997  4.0382949999999997
  0.0000000000000000  0.0000000000000000  0.0000000000000000
  2.0191474999999999  2.0191474999999999  2.0191474999999999
  6.0574424999999996  6.0574424999999996  6.0574424999999996
