Al Cu
 1.0000000000000000
     0.0000000000000000    4.0606749999999998    0.0000000000000000
     2.8510939999999998   -2.0303380000000000    2.0303380000000000
     0.0000000000000000    0.0000000000000000   -4.0606749999999998
 Al  Cu 
   2   1
Cartesian
  0.0000000000000000  0.0000000000000000  0.0000000000000000
  0.0000000000000000  2.0303374999999999 -2.0303374999999999
  1.4255469999999999 -0.0000002500000000 -2.0303372499999996
