La Bi Pt
 1.0000000000000000
     0.0000000000000000    3.4682339999999998    3.4682339999999998
     3.4682339999999998    0.0000000000000000    3.4682339999999998
     3.4682339999999998    3.4682339999999998    0.0000000000000000
 La  Bi  Pt 
   1   1   1
Cartesian
  1.7341169999999999  1.7341169999999999  1.7341169999999999
  5.2023510000000002  5.2023510000000002  5.2023510000000002
  0.0000000000000000  0.0000000000000000  0.0000000000000000
