Li Ge
 1.0000000000000000
     2.2312690000000002   -3.8663099999999999    0.0000000000000000
     2.2312690000000002    3.8663099999999999    0.0000000000000000
     0.0000000000000000    0.0000000000000000   23.7394749999999988
 Li  Ge 
  18   8
Cartesian
  2.2312690000000002 -2.5813573367400000  5.9348687499999997
  2.2312690000000002  2.5813573367400000 17.8046062499999991
  2.2312690000000002  2.5787901069000001 12.2737358855499981
  2.2312690000000002 -2.5787901069000001 11.4657391144500007
  2.2312690000000002 -2.5787901069000001  0.4039983855499999
  2.2312690000000002  2.5787901069000001 23.3354766144499983
  2.2312690000000002  2.5823780425799998 14.9934250994499987
  2.2312690000000002 -2.5823780425799998  8.7460499005500001
  2.2312690000000002 -2.5739649520200003 14.0787668671750001
  2.2312690000000002  2.5739649520199999  9.6607081328250004
  2.2312690000000002  2.5739649520199999  2.2090293671749999
  2.2312690000000002 -2.5739649520200003 21.5304456328249962
  2.2312690000000002  0.0046473046199999 19.5667162608250003
  2.2312690000000002 -0.0046473046199999  4.1727587391750003
  2.2312690000000002 -0.0046473046199999  7.6969787608249991
  2.2312690000000002  0.0046473046199999 16.0424962391749979
  2.2312690000000002  2.5823780425799998 20.6157874005500013
  2.2312690000000002 -2.5823780425799998  3.1236875994499997
  2.2312690000000002  0.0020723421600002 13.1633489716999996
  2.2312690000000002 -0.0020723421600002 10.5761260282999991
  2.2312690000000002 -0.0020723421600002  1.2936114716999998
  2.2312690000000002  0.0020723421600002 22.4458635282999985
  2.2312690000000002 -2.5730834333399999 16.5996617174249970
  2.2312690000000002  2.5730834333399999  7.1398132825749991
  2.2312690000000002  2.5730834333399999  4.7299242174250002
  2.2312690000000002 -2.5730834333399999 19.0095507825750012
