Ca Co N 
 1.0000000000000000
     3.3571480000000000   -0.9640339999999999   -0.6604400000000000
    -2.5134520000000000    4.3534259999999998   -0.0000000000000000
    -0.6974910000000000   -0.4026970000000000    6.6079299999999996
 Ca  Co  N  
   2   1   2
Cartesian
  1.3157057806710002  0.7596199690469999  0.7954290460299999
 -1.1695007806710001  2.2270750309529999  5.1520609539700004
 -0.3487455000000000 -0.2013485000000000  3.3039649999999998
  0.0552563907420000  0.0318961257340000  5.0169967406199998
  0.0909486092580002  2.9547988742659999  0.9304932593799998
