Sr Cu As
 1.0000000000000000
     3.9035910000000000    0.0000000000000000   -1.5102139999999999
    -0.5842680000000000    3.8596170000000001   -1.5102139999999999
     0.1406660000000000    0.1635620000000000    6.1636839999999999
 Sr  Cu  As 
   1   2   2
Cartesian
  0.0000000000000000  0.0000000000000000  0.0000000000000000
  2.8519592500000002  1.0466852500000001  1.5716280000000000
  0.6080297500000000  2.9764937499999999  1.5716280000000000
  2.1267782144710004  2.4729587602330003 -0.3028092031760002
  1.3332107855289999  1.5502202397670000  3.4460652031760000
