Ca N 
 1.0000000000000000
     3.5795729999999999    0.0000000000000000    0.0000000000000000
     0.0000000000000000    3.5795729999999999    0.0000000000000000
    -1.7897860000000001   -1.7897860000000001    2.9848020000000002
 Ca  N  
   1   2
Cartesian
  0.0000000000000000  0.0000000000000000  0.0000000000000000
  1.7897901844959998  1.7897901844959998  0.6263487604920001
 -0.0000031844960003 -0.0000031844960003  2.3584532395080000
