Er P  Ru
 1.0000000000000000
     3.7508130000000000    0.0000000000000000   -1.4671650000000001
    -0.5738950000000000    3.7066469999999998   -1.4671650000000001
    -0.0065600000000000   -0.0076540000000000    5.5112980000000000
 Er  P   Ru 
   1   2   2
Cartesian
  0.0000000000000000  0.0000000000000000  0.0000000000000000
  1.9823170492219997  2.3128546007709998 -0.4602648539260000
  1.1880409507779999  1.3861383992290000  3.0372328539259996
  2.6663559999999995  0.9228347499999999  1.2884840000000000
  0.5040020000000001  2.7761582499999999  1.2884840000000000
