Cs As Ru
 1.0000000000000000
     3.9320700000000000    0.0000000000000000   -1.0276959999999999
    -0.2686000000000000    3.9228850000000000   -1.0276959999999999
    -0.0254380000000000   -0.0272400000000000    7.9387770000000000
 Cs  As  Ru 
   1   2   2
Cartesian
  0.0000000000000000  0.0000000000000000  0.0000000000000000
  1.2238962454460001  1.3105614290899998  4.6827629141090004
  2.4141357545540001  2.5850835709099997  1.2006220858910002
  0.7688484999999999  2.9285437499999998  2.9416925000000003
  2.8691835000000001  0.9671012500000000  2.9416925000000003
