Er Cd Pd
 1.0000000000000000
     0.0000000000000000    3.3447490000000002    3.3447490000000002
     3.3447490000000002    0.0000000000000000    3.3447490000000002
     3.3447490000000002    3.3447490000000002    0.0000000000000000
 Er  Cd  Pd 
   1   1   2
Cartesian
  5.0171235000000003  5.0171235000000003  5.0171235000000003
  1.6723745000000001  1.6723745000000001  1.6723745000000001
  0.0000000000000000  0.0000000000000000  0.0000000000000000
  3.3447490000000002  3.3447490000000002  3.3447490000000002
