Pr Mg
 1.0000000000000000
     3.9184709999999998    0.0000000000000000    0.0000000000000000
     0.0000000000000000    3.9184709999999998    0.0000000000000000
     0.0000000000000000    0.0000000000000000    3.9184709999999998
 Pr  Mg 
   1   1
Cartesian
  1.9592354999999999  1.9592354999999999  1.9592354999999999
  0.0000000000000000  0.0000000000000000  0.0000000000000000
