Sr Al Ge
 1.0000000000000000
     4.1790900000000004    0.0000000000000000    0.0000000000000000
    -2.0895450000000002    5.9635140000000000   -2.2124760000000001
    -0.0000000000000000   -0.0113780000000000    8.8717570000000006
 Sr  Al  Ge 
   3   2   4
Cartesian
 -0.0000000000000001  4.7037322040000005  1.0353214767500001
  0.0000000000000000  0.0000000000000000  0.0000000000000000
  2.0895450000000002  1.2484037960000001  5.6239595232500008
  0.0000020895450001  3.5085441673320004  4.4520677754869995
  2.0895429104550005  2.4435918326680000  2.2072132245130001
 -0.0000041790900001  3.4256145899039998  7.1002387411740004
  2.0895491790900005  2.5265214100960001 -0.4409577411740000
  0.0000041790900000  1.2832701827499999  2.9961384806350004
  2.0895408209100004  4.6688658172500004  3.6631425193650000
