Er Pt
 1.0000000000000000
     4.0733879999999996    0.0000000000000000    0.0000000000000000
     0.0000000000000000    4.0733889999999997    0.0000000000000000
     0.0000000000000000    0.0000000000000000    4.0733889999999997
 Er  Pt 
   1   3
Cartesian
  0.0000000000000000  0.0000000000000000  0.0000000000000000
  0.0000000000000000  2.0366944999999999  2.0366944999999999
  2.0366939999999998  2.0366944999999999  0.0000000000000000
  2.0366939999999998  0.0000000000000000  2.0366944999999999
