Rb Ru F 
 1.0000000000000000
     5.0584470000000001   -0.0382200000000000   -0.6545879999999999
    -0.7398749999999999    5.0041909999999996   -0.6545879999999999
    -0.0332350000000000   -0.0382170000000000    5.1005149999999997
 Rb  Ru  F  
   1   1   6
Cartesian
  2.1426685000000001  2.4638769999999997  1.8956694999999999
  0.0000000000000000  0.0000000000000000  0.0000000000000000
  1.0919686088050002  1.2556663472259999  4.3460503086549993
  0.6263876172970001  4.5779727569729998  0.5541727756630002
  3.6589493827030002  0.3497812430269999  3.2371662243369999
  3.1933683911950004  3.6720876527739996 -0.5547113086550001
 -0.1614026300810000  3.6720846634189996  3.2371662243369999
  4.4467396300809998  1.2556693365809999  0.5541727756630002
