Li Zn Ir
 1.0000000000000000
     0.0000000000000000    2.9916559999999999    2.9916559999999999
     2.9916559999999999    0.0000000000000000    2.9916559999999999
     2.9916559999999999    2.9916559999999999    0.0000000000000000
 Li  Zn  Ir 
   1   2   1
Cartesian
  4.4874840000000003  4.4874840000000003  4.4874840000000003
  0.0000000000000000  0.0000000000000000  0.0000000000000000
  2.9916559999999999  2.9916559999999999  2.9916559999999999
  1.4958279999999999  1.4958279999999999  1.4958279999999999
