Cd Hg
 1.0000000000000000
     4.1273669999999996    0.0000000000000000    0.0000000000000000
     0.0000000000000000    4.1273669999999996    0.0000000000000000
     0.0000000000000000    0.0000000000000000    8.9102320000000006
 Cd  Hg 
   2   4
Cartesian
  0.0000000000000000  0.0000000000000000  0.0000000000000000
  2.0636834999999998  2.0636834999999998  4.4551160000000003
  2.0636834999999998  2.0636834999999998  7.4214837067440005
  2.0636834999999998  2.0636834999999998  1.4887482932560001
  0.0000000000000000  0.0000000000000000  2.9663677067440002
  0.0000000000000000  0.0000000000000000  5.9438642932560004
