Be Cu Pt
 1.0000000000000000
     0.0000000000000000    2.7644340000000001    2.7644340000000001
     2.7644340000000001    0.0000000000000000    2.7644340000000001
     2.7644340000000001    2.7644340000000001    0.0000000000000000
 Be  Cu  Pt 
   2   1   1
Cartesian
  2.7644395288680004  2.7644395288680004  2.7644395288680004
  0.0000000000000000  0.0000000000000000  0.0000000000000000
  1.3822170000000000  1.3822170000000000  1.3822170000000000
  4.1466454711319995  4.1466454711319995  4.1466454711319995
