Zr In C 
 1.0000000000000000
     1.6816819999999999   -2.9127580000000002    0.0000000000000000
     1.6816819999999999    2.9127580000000002    0.0000000000000000
     0.0000000000000000    0.0000000000000000   15.0335190000000001
 Zr  In  C  
   4   2   2
Cartesian
  1.6816819999999999  0.9709212751720002  1.2376945857510000
  1.6816819999999999  0.9709212751720002  6.2790649142490000
  1.6816819999999999 -0.9709212751720001  8.7544540857510000
  1.6816819999999999 -0.9709212751720001 13.7958244142490010
  1.6816819999999999  0.9709212751720002 11.2751392500000005
  1.6816819999999999 -0.9709212751720001  3.7583797500000000
  0.0000000000000000  0.0000000000000000  0.0000000000000000
  0.0000000000000000  0.0000000000000000  7.5167595000000000
