Pm Si Au
 1.0000000000000000
     0.0000000000000000    3.6535380000000002    3.6535380000000002
     3.6535380000000002    0.0000000000000000    3.6535380000000002
     3.6535380000000002    3.6535380000000002    0.0000000000000000
 Pm  Si  Au 
   2   1   1
Cartesian
  0.0000000000000000  0.0000000000000000  0.0000000000000000
  3.6535453070760004  3.6535453070760004  3.6535453070760004
  5.4803069999999998  5.4803069999999998  5.4803069999999998
  1.8267616929240000  1.8267616929240000  1.8267616929240000
