Cs Li S  O 
 1.0000000000000000
     9.1601020000000002    0.0000000000000000    0.0000000000000000
     0.0000000000000000    5.4986620000000004    0.0000000000000000
     0.0000000000000000    5.4560269999999997    9.4911809999999992
 Cs  Li  S   O  
   4   4   4  16
Cartesian
  4.5843745681440007  9.5478664765720005  7.4459264063099999
  0.0043235681440000  4.1348360234279999  6.7908450936899989
  4.5757274318560004  1.4068225234279998  2.0452545936899997
  9.1557784318559996  6.8198529765720002  2.7003359063099994
  7.5598596609060005  6.8551493365939997  8.6762112522539994
  2.9798086609059999  6.8275531634060007  5.5605602477459994
  1.6002423390939999  4.0995396634060004  0.8149697477460000
  6.1802933390939998  4.1271358365940003  3.9306207522539998
  6.4111187493920001  6.8692202634440003  5.5315741809719992
  1.8310677493920000  6.8134822365560002  8.7051973190279988
  2.7489832506080001  4.0854687365559998  3.9596068190279996
  7.3290342506080002  4.1412067634440000  0.7859836809719999
  6.9118007646099997  5.5137763938819999  5.1439163842079996
  2.3317497646099996  8.1689261061180005  9.0928551157919983
  2.2483012353900000  5.4409126061180002  4.3472646157919996
  6.8283522353900006  2.7857628938820000  0.3983258842080000
  8.8101494631919994  4.1157201391290004  0.8962237482869999
  4.2300984631920002  4.1109553608710003  3.8493667517129997
  0.3499525368080000  6.8389688608709998  8.5949572517129997
  4.9300035368080000  6.8437336391290007  5.6418142482870000
  6.9089794531940001 10.5863910968840003  9.2360200899959999
  2.3289284531940000  3.0963114031160002  5.0007514100039998
  2.2511225468060001  0.3682979031160000  0.2551609100040000
  6.8311735468060002  7.8583775968839999  4.4904295899959994
  6.7404518965979996  4.5375423298870006  2.0963076562890000
  2.1604008965979999  3.6891331701130006  2.6492828437110001
  2.4196501034020002  6.4171466701130004  7.3948733437109997
  6.9997011034020007  7.2655558298870000  6.8418981562889991
