Mn Ir
 1.0000000000000000
     5.4893720000000004   -0.0000120000000000    0.0000000000000000
    -2.7446959999999998    4.7539199999999999    0.0000000000000000
     0.0000000000000000    0.0000000000000000    4.2612629999999996
 Mn  Ir 
   6   2
Cartesian
  0.0000130544360002  1.6228341143159999  1.0653157499999999
  1.3391981128120001  3.9424702456920002  1.0653157499999999
 -1.3392229330399996  3.9424523312640001  1.0653157499999999
  2.7446931371400001  3.1310596238760002  3.1959472499999997
  1.4053982912640002  0.8114520162240000  3.1959472499999997
  4.0839648055240003  0.8114461607640000  3.1959472499999997
  2.7446826666800002  1.5846256614480001  1.0653157499999999
 -0.0000149007279997  3.1692775846560002  3.1959472499999997
