Ti Ga Ni
 1.0000000000000000
     3.5716589999999999    0.0000000000000000    2.0620989999999999
     1.1905539999999999    3.3673929999999999    2.0620989999999999
     0.0000000000000000    0.0000000000000000    4.1241969999999997
 Ti  Ga  Ni 
   1   1   2
Cartesian
  2.3811065000000000  1.6836964999999999  4.1241974999999993
  0.0000000000000000  0.0000000000000000  0.0000000000000000
  1.1905532500000000  0.8418482500000000  2.0620987499999996
  3.5716597499999998  2.5255447499999999  6.1862962499999998
