Ce Co Ge
 1.0000000000000000
     3.8839269999999999    0.0000000000000000   -1.4439550000000001
    -0.5368280000000000    3.8466480000000001   -1.4439550000000001
    -0.1167230000000000   -0.1341430000000000    5.6314789999999997
 Ce  Co  Ge 
   1   2   2
Cartesian
  0.0000000000000000  0.0000000000000000  0.0000000000000000
  0.5099992500000000  2.8179145000000001  1.3717844999999997
  2.7203767499999998  0.8945905000000001  1.3717844999999997
  2.0981957234460000  2.4113481662840002 -0.3017492036640002
  1.1321802765539999  1.3011568337160000  3.0453182036639999
