Eu As Au
 1.0000000000000000
     4.4619479999999996   -0.0000000000000000    0.0000000000000000
    -2.2309749999999999    3.8641619999999999    0.0000000000000000
     0.0000000000000000    0.0000000000000000    8.2732340000000004
 Eu  As  Au 
   2   2   2
Cartesian
  0.0000000000000000  0.0000000000000000  4.1366170000000002
  0.0000000000000000  0.0000000000000000  0.0000000000000000
  2.2309758976409997  1.2880527119459999  6.2044704721299997
 -0.0000028976410003  2.5761092880540000  2.0687635278700003
 -0.0000028976410003  2.5761092880540000  6.2042470948120005
  2.2309758976409997  1.2880527119459999  2.0689869051880003
