Be Cu Rh
 1.0000000000000000
    -0.0000060000000000    2.7189630000000000    2.7189619999999999
     2.7189610000000002   -0.0000060000000000    2.7189619999999999
     2.7189619999999999    2.7189640000000002   -0.0000070000000000
 Be  Cu  Rh 
   2   1   1
Cartesian
  2.7189557810439999  2.7189550620730003  2.7189557810450000
  0.0000000000000000  0.0000000000000000  0.0000000000000000
  1.3594792500000001  1.3594802500000001  1.3594792499999999
  4.0784404689559999  4.0784461879269998  4.0784404689549998
