Lu Si Ru
 1.0000000000000000
     3.8452820000000001    0.0000000000000000   -1.5455589999999999
    -0.6212170000000000    3.7947709999999999   -1.5455589999999999
    -0.0107680000000000   -0.0126750000000000    5.5294350000000003
 Lu  Si  Ru 
   1   2   2
Cartesian
  0.0000000000000000  0.0000000000000000  0.0000000000000000
  2.0303692341469999  2.3897736316170000 -0.5047444006260001
  1.1829277658530002  1.3923223683829999  2.9430614006260001
  2.7232732500000001  0.9423552500000000  1.2191585000000003
  0.4900237500000000  2.8397407499999998  1.2191585000000003
