Sc Co Si
 1.0000000000000000
     8.6637950000000004    0.0000000000000000  -14.1304079999999992
     0.0000000000000000    3.9568439999999998    0.0000000000000000
     0.0000780000000000    0.0000000000000000    9.4398339999999994
 Sc  Co  Si 
   8   4   8
Cartesian
  1.5945832789269998  1.9784219999999999 -0.1229764726759998
  8.6616979390930009  1.9784219999999999 -11.0325118258360000
  7.0692897210729999  1.9784219999999999 -4.5675975273239988
  0.0021750609070000  1.9784219999999999  6.3419378258359993
  5.9264807789270009  0.0000000000000000 -7.1881804726760006
  4.3298004390929998  0.0000000000000000 -3.9673078258359999
  2.7373922210729997  0.0000000000000000  2.4976064726759999
  4.3340725609069999  0.0000000000000000 -0.7232661741640014
  1.9537350559790001  0.0000000000000000 -2.4646324297280002
  6.7101379440210005  0.0000000000000000 -2.2259415702720005
  6.2856325559790003  1.9784219999999999 -9.5298364297279985
  2.3782404440210003  1.9784219999999999  4.8392624297280005
  0.1055626576230000  0.0000000000000000  1.2369427003499998
  3.0764834153200007  1.9784219999999999 -2.3800862795819997
  8.5583103423770002  0.0000000000000000 -5.9275167003499991
  5.5873895846800004  1.9784219999999999 -2.3104877204179992
  4.4374601576230006  1.9784219999999999 -5.8282612996500003
  7.4083809153200004  0.0000000000000000 -9.4452902795820002
  4.2264128423770000  1.9784219999999999  1.1376872996499992
  1.2554920846800002  0.0000000000000000  4.7547162795819995
