Ba Al Sn
 1.0000000000000000
     6.0778429999999997    0.0000000000000000    0.0000000000000000
    -3.0389210000000002    5.2635660000000000    0.0000000000000000
     0.0000000000000000    0.0000000000000000   11.2794120000000007
 Ba  Al  Sn 
   5   5   1
Cartesian
  3.0389247055879998  1.7545202454780000  9.0198976293360005
  3.0389247055879998  1.7545202454780000  2.2595143706640002
  0.0000000000000000  0.0000000000000000  7.5832502023080011
  0.0000000000000000  0.0000000000000000  3.6961617976920005
 -0.0000027055880004  3.5090457545220000  0.0000000000000000
  4.4576817527319994  2.5736469135299997  5.6397060000000003
 -0.0000027055880004  3.5090457545220000  7.6028538203639995
  1.6201556583799996  2.5736469135299997  5.6397060000000003
  3.0389184721239997  0.1162774365060000  5.6397060000000003
 -0.0000027055880004  3.5090457545220000  3.6765581796360003
  0.0000000000000000  0.0000000000000000  0.0000000000000000
