Al Hg S 
 1.0000000000000000
     5.0430370000000000    0.0000020000000000   -2.3785919999999998
    -1.1218830000000000    4.9166660000000002   -2.3785910000000001
    -0.0335200000000000   -0.0420310000000000    6.4642960000000000
 Al  Hg  S  
   2   1   4
Cartesian
  0.4025870000000000  3.6664845000000001  0.8535567500000001
  1.9605770000000000  2.4583340000000002 -2.3785914999999997
  0.0000000000000000  0.0000000000000000  0.0000000000000000
  3.4104194631620004  4.1905973654420006 -2.3478462874569996
  1.5541434036019997  2.0343827265140000 -0.1971238396089997
  0.0383342978140000  2.9068643602540001  2.9473731319409997
  2.7723708354220000  0.6174295477900000  3.0118229951249997
