Li Sb Pd
 1.0000000000000000
     0.0000000000000000    3.1609520000000000    3.1609520000000000
     3.1609520000000000    0.0000000000000000    3.1609520000000000
     3.1609520000000000    3.1609520000000000    0.0000000000000000
 Li  Sb  Pd 
   1   1   2
Cartesian
  1.5804760000000000  1.5804760000000000  1.5804760000000000
  4.7414343219040003  4.7414343219040003  4.7414343219040003
  0.0000000000000000  0.0000000000000000  0.0000000000000000
  3.1609456780960001  3.1609456780960001  3.1609456780960001
