U  Si Ni
 1.0000000000000000
     3.7356769999999999    0.0000000000000000   -1.4374140000000000
    -0.5530870000000000    3.6945070000000002   -1.4374140000000000
    -0.0524000000000000   -0.0608270000000000    5.4368309999999997
 U   Si  Ni 
   1   2   2
Cartesian
  0.0000000000000000  0.0000000000000000  0.0000000000000000
  1.9835223496200003  2.3025706797870007 -0.4180531558770000
  1.1466676503800000  1.3311093202130002  2.9800561558769996
  2.6372860000000005  0.8932132500000001  1.2810014999999999
  0.4929040000000000  2.7404667500000004  1.2810014999999999
