In Br
 1.0000000000000000
     4.3018859999999997    0.0000000000000000   -1.5969979999999999
     0.0000000000000000    4.6024190000000003    0.0000000000000000
    -0.0072440000000000    0.0000000000000000    6.5730599999999999
 In  Br 
   2   2
Cartesian
  2.6077823992480003  1.1506047500000001  0.4321127186479999
  1.6868596007520000  3.4518142500000000  4.5439492813519999
  3.6460787442320002  1.1506047500000001  3.2289900706960002
  0.6485632557679999  3.4518142500000000  1.7470719293039998
