Yb Pr Zn
 1.0000000000000000
     0.0000000000000000    3.5963430000000001    3.5963430000000001
     3.5963430000000001    0.0000000000000000    3.5963430000000001
     3.5963430000000001    3.5963430000000001    0.0000000000000000
 Yb  Pr  Zn 
   1   1   2
Cartesian
  0.0000000000000000  0.0000000000000000  0.0000000000000000
  3.5963430000000001  3.5963430000000001  3.5963430000000001
  1.7981715000000000  1.7981715000000000  1.7981715000000000
  5.3945144999999997  5.3945144999999997  5.3945144999999997
