Li Pd O 
 1.0000000000000000
    -1.4958100000000001    1.8616770000000000    4.6079200000000000
     1.4958100000000001   -1.8616770000000000    4.6079200000000000
     1.4958100000000001    1.8616770000000000   -4.6079200000000000
 Li  Pd  O  
   2   1   2
Cartesian
 -0.0000000000000001  0.0000000000000000  6.5082169921600004
  0.0000000000000000 -0.0000000000000000  2.7076230078399997
  0.0000000000000000  0.0000000000000000  0.0000000000000000
  1.4958100000000001 -0.0000000000000001  1.3917024300800001
  0.0000000000000001  1.8616769999999998  3.2162175699199995
