Er Tl
 1.0000000000000000
     4.7013170000000004    0.0000000000000000    0.0000000000000000
     0.0000000000000000    4.7013170000000004    0.0000000000000000
     0.0000000000000000    0.0000000000000000    4.7013170000000004
 Er  Tl 
   1   3
Cartesian
  0.0000000000000000  0.0000000000000000  0.0000000000000000
  0.0000000000000000  2.3506585000000002  2.3506585000000002
  2.3506585000000002  2.3506585000000002  0.0000000000000000
  2.3506585000000002  0.0000000000000000  2.3506585000000002
