Zr Co Bi
 1.0000000000000000
     3.7894130000000001    0.0000000000000000    2.1878190000000002
     1.2631370000000000    3.5726930000000001    2.1878190000000002
     0.0000000000000000    0.0000000000000000    4.3756380000000004
 Zr  Co  Bi 
   1   1   1
Cartesian
  0.0000000000000000  0.0000000000000000  0.0000000000000000
  1.2631375000000000  0.8931732500000000  2.1878190000000002
  2.5262750000000000  1.7863465000000001  4.3756380000000004
