Tb Fe Si
 1.0000000000000000
     3.7099210000000000    0.0000000000000000   -1.3640909999999999
    -0.5015600000000000    3.6758609999999998   -1.3640909999999999
    -0.0891520000000000   -0.1021440000000000    5.4845139999999999
 Tb  Fe  Si 
   1   2   2
Cartesian
  0.0000000000000000  0.0000000000000000  0.0000000000000000
  0.5067342500000001  2.7058237500000000  1.3781660000000000
  2.6124747500000001  0.8678932499999999  1.3781660000000000
  2.0203952787859998  2.3147928125699999 -0.2321173962619999
  1.0988137212139999  1.2589241874300001  2.9884493962619998
