Lu In Ag
 1.0000000000000000
     0.0000000000000000    3.6089080000000000    3.6089080000000000
     3.6089080000000000    0.0000000000000000    3.6089080000000000
     3.6089080000000000    3.6089080000000000    0.0000000000000000
 Lu  In  Ag 
   2   1   1
Cartesian
  3.6089007821840000  3.6089007821840000  3.6089007821840000
  0.0000000000000000  0.0000000000000000  0.0000000000000000
  5.4133620000000002  5.4133620000000002  5.4133620000000002
  1.8044540000000000  1.8044540000000000  1.8044540000000000
