Li Ge Pb S 
 1.0000000000000000
    -3.2852470000000000    3.2852470000000000    3.9542940000000000
     3.2852470000000000   -3.2852470000000000    3.9542940000000000
     3.2852470000000000    3.2852470000000000   -3.9542940000000000
 Li  Ge  Pb  S  
   2   1   1   4
Cartesian
  0.0000000000000000  3.2852470000000000  1.9771470000000000
  3.2852470000000000  0.0000000000000000  1.9771470000000000
  0.0000000000000000  0.0000000000000000  3.9542940000000000
  0.0000000000000000  0.0000000000000000  0.0000000000000000
  1.2944398819520000 -1.2944398819520000  5.2418991208680001
  1.9908104032950000  1.9908104032950000 -1.2876090751620000
  1.2944365967050000  1.2944365967050000  2.6666928334260005
 -1.2944398819520000  1.2944398819520000  5.2418991208680001
