Pr Re Si
 1.0000000000000000
     2.0887190000000002   -7.0519980000000002    0.0000000000000000
     2.0887190000000002    7.0519980000000002    0.0000000000000000
     0.0000000000000000    0.0000000000000000    4.1328620000000003
 Pr  Re  Si 
   1   4   2
Cartesian
  0.0000000000000000  0.0000000000000000  0.0000000000000000
  2.0887190000000002 -4.3770200146440006  2.0664310000000001
  2.0887190000000002  4.3770200146440006  2.0664310000000001
  2.0887190000000002 -2.7659064475679993  0.0000000000000000
  2.0887190000000002  2.7659064475679997  0.0000000000000000
  2.0887190000000002 -1.2590778269159995  2.0664310000000001
  2.0887190000000002  1.2590778269159999  2.0664310000000001
