Hg Pt
 1.0000000000000000
     6.3918520000000001    0.0000000000000000    0.0000000000000000
     0.0000000000000000    6.3918520000000001    0.0000000000000000
     0.0000000000000000    0.0000000000000000    6.3918520000000001
 Hg  Pt 
   8   2
Cartesian
  4.7938890000000001  4.7938890000000001  1.5979630000000000
  4.7938890000000001  4.7938890000000001  4.7938890000000001
  4.7938890000000001  1.5979630000000000  1.5979630000000000
  1.5979630000000000  4.7938890000000001  1.5979630000000000
  1.5979630000000000  1.5979630000000000  4.7938890000000001
  1.5979630000000000  1.5979630000000000  1.5979630000000000
  1.5979630000000000  4.7938890000000001  4.7938890000000001
  4.7938890000000001  1.5979630000000000  4.7938890000000001
  0.0000000000000000  0.0000000000000000  0.0000000000000000
  3.1959260000000000  3.1959260000000000  3.1959260000000000
