Er S 
 1.0000000000000000
     3.9732110000000000    0.0000000000000000    0.0000000000000000
     0.0000000000000000    9.9556489999999993   -1.5236010000000000
     0.0000000000000000    0.0178520000000000   17.4811850000000000
 Er  S  
  12  18
Cartesian
  2.9799082500000003  1.2407238646580001  7.3287473884810002
  0.9933027500000000  8.7327771353419976  8.6288366115189987
  2.9799082500000003  5.4666314751609990  1.1666478100520001
  0.9933027500000000  4.5068695248389998 14.7909361899479990
  2.9799082500000003  1.8780420290399997  0.0718286651910000
  0.9933027500000000  8.0954589709599993 15.8857553348089997
  2.9799082500000003  4.8542786680419994  6.2420715437059995
  0.9933027500000000  5.1192223319579995  9.7155124562940003
  0.9933027500000000  1.6993351960669998  3.5576888675310001
  2.9799082500000003  8.2741658039330002 12.3998951324689983
  0.9933027500000000  8.0900074215319986  3.6441760764510001
  2.9799082500000003  1.8834935784680000 12.3134079235489988
  2.9799082500000003  6.1468862895239997 15.9759914493380002
  0.9933027500000000  3.8266147104759995 -0.0184074493380000
  0.9933027500000000  2.8904857039759997  5.9952391549090001
  2.9799082500000003  7.0830152960239996  9.9623448450909997
  0.9933027500000000  9.8978840065649987 11.2852149596149989
  2.9799082500000003  0.0756169934350000  4.6723690403850009
  0.9933027500000000  6.3064340065079989  7.2332541825380003
  2.9799082500000003  3.6670669934919995  8.7243298174619994
  2.9799082500000003  6.3548806242520000  3.9715934556579997
  0.9933027500000000  3.6186203757479998 11.9859905443420001
  0.9933027500000000  7.2794925219679989  1.1106259792210000
  2.9799082500000003  2.6940084780319999 14.8469580207789988
  2.9799082500000003  9.4871059570240011 14.7041528023399994
  0.9933027500000000  0.4863950429759999  1.2534311976600001
  2.9799082500000003  0.5311711328859999  9.9785888925929989
  0.9933027500000000  9.4423298671139992  5.9789951074070009
  0.9933027500000000  6.7954822915960005 13.2688999364619988
  2.9799082500000003  3.1780187084039997  2.6886840635380000
