Tm Bi
 1.0000000000000000
     3.8212540000000002    0.0000000000000000    2.2062020000000002
     1.2737520000000000    3.6027149999999999    2.2062020000000002
    -0.0000000000000000   -0.0000000000000000    4.4124059999999998
 Tm  Bi 
   1   1
Cartesian
  2.5475029999999999  1.8013574999999999  4.4124049999999997
  0.0000000000000000  0.0000000000000000  0.0000000000000000
