Nb Si Sn
 1.0000000000000000
    10.6713269999999998    0.0000000000000000    0.0000000000000000
     0.0000000000000000   10.6713269999999998    0.0000000000000000
     0.0000000000000000    0.0000000000000000    5.1711450000000001
 Nb  Si  Sn 
  20   4   8
Cartesian
  9.9261268929359989  8.4218112684000008  2.5855725000000001
  2.2495157315999998  0.7452001070640001  0.0000000000000000
  0.7452001070640001  2.2495157315999998  2.5855725000000001
  0.0000000000000000  5.3356634999999999  1.2927862500000000
  8.4218112684000008  0.7452001070640001  2.5855725000000001
  2.2495157315999998  9.9261268929359989  2.5855725000000001
  0.0000000000000000  5.3356634999999999  3.8783587500000003
  9.9261268929359989  2.2495157315999998  0.0000000000000000
  8.4218112684000008  9.9261268929359989  0.0000000000000000
  0.7452001070640001  8.4218112684000008  0.0000000000000000
  4.5904633929359999  3.0861477684000000  0.0000000000000000
  7.5851792315999997  6.0808636070639999  2.5855725000000001
  6.0808636070639999  7.5851792315999997  0.0000000000000000
  5.3356634999999999  0.0000000000000000  3.8783587500000003
  3.0861477684000000  6.0808636070639999  0.0000000000000000
  7.5851792315999997  4.5904633929359999  0.0000000000000000
  5.3356634999999999  0.0000000000000000  1.2927862500000000
  4.5904633929359999  7.5851792315999997  2.5855725000000001
  3.0861477684000000  4.5904633929359999  2.5855725000000001
  6.0808636070639999  3.0861477684000000  2.5855725000000001
  0.0000000000000000  0.0000000000000000  1.2927862500000000
  0.0000000000000000  0.0000000000000000  3.8783587500000003
  5.3356634999999999  5.3356634999999999  3.8783587500000003
  5.3356634999999999  5.3356634999999999  1.2927862500000000
  1.8015547667940000  3.5341087332059997  0.0000000000000000
  7.1372182667940001  1.8015547667940000  0.0000000000000000
  3.5341087332059997  1.8015547667940000  2.5855725000000001
  8.8697722332059996  3.5341087332059997  2.5855725000000001
  7.1372182667940001  8.8697722332059996  2.5855725000000001
  1.8015547667940000  7.1372182667940001  2.5855725000000001
  8.8697722332059996  7.1372182667940001  0.0000000000000000
  3.5341087332059997  8.8697722332059996  0.0000000000000000
