Nd Pb Au
 1.0000000000000000
     0.0000000000000000    3.6133590000000000    3.6133590000000000
     3.6133590000000000    0.0000000000000000    3.6133590000000000
     3.6133590000000000    3.6133590000000000    0.0000000000000000
 Nd  Pb  Au 
   1   1   2
Cartesian
  1.8066795000000000  1.8066795000000000  1.8066795000000000
  5.4200385000000004  5.4200385000000004  5.4200385000000004
  3.6133590000000000  3.6133590000000000  3.6133590000000000
  0.0000000000000000  0.0000000000000000  0.0000000000000000
