Y  Al Cr
 1.0000000000000000
     8.9188919999999996    0.0000000000000000    0.0000000000000000
     0.0000000000000000    8.9188919999999996    0.0000000000000000
     0.0000000000000000    0.0000000000000000    5.0563490000000000
 Y   Al  Cr 
   2  16   8
Cartesian
  0.0000000000000000  0.0000000000000000  0.0000000000000000
  4.4594459999999998  4.4594459999999998  2.5281745000000000
  0.0000000000000000  5.9135018816520004  0.0000000000000000
  5.9135018816520004  0.0000000000000000  0.0000000000000000
  3.0053901183480001  0.0000000000000000  0.0000000000000000
  0.0000000000000000  3.0053901183480001  0.0000000000000000
  0.0000000000000000  1.9913656113000000  2.5281745000000000
  1.9913656113000000  0.0000000000000000  2.5281745000000000
  6.9275263886999996  0.0000000000000000  2.5281745000000000
  0.0000000000000000  6.9275263886999996  2.5281745000000000
  4.4594459999999998  1.4540558816519999  2.5281745000000000
  1.4540558816519999  4.4594459999999998  2.5281745000000000
  7.4648361183479990  4.4594459999999998  2.5281745000000000
  4.4594459999999998  7.4648361183479990  2.5281745000000000
  4.4594459999999998  6.4508116112999998  0.0000000000000000
  6.4508116112999998  4.4594459999999998  0.0000000000000000
  2.4680803886999998  4.4594459999999998  0.0000000000000000
  4.4594459999999998  2.4680803886999998  0.0000000000000000
  2.2297229999999999  2.2297229999999999  1.2640872500000000
  2.2297229999999999  6.6891689999999997  1.2640872500000000
  2.2297229999999999  6.6891689999999997  3.7922617499999998
  2.2297229999999999  2.2297229999999999  3.7922617499999998
  6.6891689999999997  6.6891689999999997  3.7922617499999998
  6.6891689999999997  2.2297229999999999  3.7922617499999998
  6.6891689999999997  2.2297229999999999  1.2640872500000000
  6.6891689999999997  6.6891689999999997  1.2640872500000000
