Mn Pd
 1.0000000000000000
     0.0000080000000000    0.0000040000000000   -7.4447159999999997
     8.0979310000000009   -0.0000010000000000   -0.0000080000000000
     0.0000020000000000   -8.0979360000000007    0.0000040000000000
 Mn  Pd 
  11  21
Cartesian
  0.0000050000060000 -4.0489579020600006 -3.7223634447200000
  1.9441445984540002 -6.1537959610740005 -7.4447074362199999
  2.0548797775470002 -6.0430667978770005 -3.7223644897480002
  1.9441436567130002 -1.9441365190830002 -0.0000084050360000
  2.0548787925430005 -2.0548819055009999 -3.7223515702920000
  4.0489695000080008  0.0000015000040000 -3.7223694447160001
  4.0489584020750007 -4.0489604020590004 -0.0000094447120000
  6.1538054412159999 -6.1537883829820004 -7.4447115949759999
  6.0430541095100008 -6.0430510945060005 -3.7223535402680001
  6.1537963035990009 -1.9441330389330003 -7.4447136743400000
  6.0430693203920010 -2.0548662021199999 -3.7223629549760000
  0.0000099999900000 -8.0979239020680005 -7.4447045552879993
  8.0979188041320018 -0.0000070979380000 -3.7223585552640004
  0.0000074146380000 -6.0454220827240004 -5.5105385734640002
  0.0000252937950000 -4.0489760979390006  0.0000019999800000
  8.0979183756720019 -6.0454250042740005 -1.9341943436400000
  0.0000226243500000 -2.0524998977780005 -5.5105479905119985
  8.0979254874250000 -2.0525190152150001 -1.9341739818079997
  2.0525075128280004  0.0000027073240000 -5.5105510320159992
  2.0525137676450003 -8.0979271162970008 -1.9341873575040001
  2.0316564541990005 -4.0489652332530000 -5.6163533152079994
  2.0316199919910005 -4.0489834643649996 -1.8283999224920000
  4.0489493041420008 -0.0000166958700000 -0.0000039999760000
  4.0489811314310007 -6.0663071028170004 -5.6163543116639998
  4.0489689629460006 -6.0663010401560005 -1.8283413612559998
  4.0489947937950008 -4.0489745979390008 -3.7223600000199997
  4.0489720370220006 -2.0316319598600003 -5.6163488598800004
  4.0489598685950012 -2.0316339951070002 -1.8283880224800002
  6.0454191344220005  0.0000022142340000 -5.5105326424919996
  6.0454071933710010  0.0000002926750000 -1.9341655232439998
  6.0663210080510002 -4.0489576335510007 -5.6163573010840002
  6.0663007416290009 -4.0489596688290002 -1.8283369059479999
