Hf Nb B 
 1.0000000000000000
     3.1275860000000000    0.0000000000000000   -0.0000000000000000
    -3.1275860000000000    5.3995740000000003    0.0004140000000000
    -1.5637939999999999    2.7000609999999998    3.4057629999999999
 Hf  Nb  B  
   1   1   4
Cartesian
 -1.5637930000000000  2.6997870000000002  0.0002070000000000
  0.0000000000000000  0.0000000000000000  0.0000000000000000
 -1.5637919366219999  4.5025853925449999  1.7045365206750001
 -1.5637966279279998  6.2970284997500006  1.7044254999139998
 -0.0000020633779996  3.5970496074549998  1.7016404793250000
  0.0000026279280000  1.8026065002499998  1.7017515000860000
