Sm Mg Al
 1.0000000000000000
     0.0000000000000000    3.7454190000000001    3.7454190000000001
     3.7454190000000001    0.0000000000000000    3.7454190000000001
     3.7454190000000001    3.7454190000000001    0.0000000000000000
 Sm  Mg  Al 
   2   1   1
Cartesian
  0.0000000000000000  0.0000000000000000  0.0000000000000000
  3.7454190000000001  3.7454190000000001  3.7454190000000001
  5.6181285000000001  5.6181285000000001  5.6181285000000001
  1.8727095000000000  1.8727095000000000  1.8727095000000000
