Sc Cu Pt
 1.0000000000000000
    -0.0000340000000000    3.2618619999999998    3.2618619999999998
     3.2618619999999998   -0.0000340000000000    3.2618619999999998
     3.2618610000000001    3.2618610000000001   -0.0000340000000000
 Sc  Cu  Pt 
   2   1   1
Cartesian
  6.5236890000000001  6.5236890000000001  6.5236899999999993
  3.2618314526219998  3.2618314526219998  3.2618319526200001
  1.6309287736889999  1.6309287736889999  1.6309290236899998
  4.8927732736890004  4.8927732736890004  4.8927740236900004
