Rb Sc O 
 1.0000000000000000
     3.2575740000000000   -0.0000000000000000    0.0000000000000000
    -1.6287879999999999    2.8211420000000000    0.0000000000000000
     0.0000000000000000    0.0000000000000000   12.8030980000000003
 Rb  Sc  O  
   2   2   4
Cartesian
 -0.0000022954539999  1.8807622737140000  9.6023235000000007
  1.6287882954540001  0.9403797262860000  3.2007745000000001
  0.0000000000000000  0.0000000000000000  0.0000000000000000
  0.0000000000000000  0.0000000000000000  6.4015490000000002
 -0.0000022954539999  1.8807622737140000  5.3232208740480003
  1.6287882954540001  0.9403797262860000 11.7247698740480004
 -0.0000022954539999  1.8807622737140000  1.0783281259519999
  1.6287882954540001  0.9403797262860000  7.4798771259520000
