Pm Ag Sn
 1.0000000000000000
     0.0000000000000000    3.7815829999999999    3.7815829999999999
     3.7815829999999999    0.0000000000000000    3.7815829999999999
     3.7815829999999999    3.7815829999999999    0.0000000000000000
 Pm  Ag  Sn 
   2   1   1
Cartesian
  0.0000000000000000  0.0000000000000000  0.0000000000000000
  3.7815754368340002  3.7815754368340002  3.7815754368340002
  1.8907915000000000  1.8907915000000000  1.8907915000000000
  5.6723745000000001  5.6723745000000001  5.6723745000000001
