Pm Cu Si
 1.0000000000000000
     0.0000210000000000    3.5747409999999999    3.5796510000000001
     3.5743730000000000    0.0000200000000000    3.5796519999999998
     3.5743230000000001    3.5746920000000002    0.0000690000000000
 Pm  Cu  Si 
   2   1   1
Cartesian
  3.5743122771309999  3.5746741265800002  0.0000761589590000
  3.5743870946470002  3.5747658217590002  3.5796967395050001
  1.7871542294839999  1.7873310774669999  1.7898143625130001
  5.3615448987170007  5.3620968994530003  5.3695361593720001
