Li Ca Sn
 1.0000000000000000
     0.0000000000000000    3.4532750000000001    3.4532750000000001
     3.4532750000000001    0.0000000000000000    3.4532750000000001
     3.4532750000000001    3.4532750000000001    0.0000000000000000
 Li  Ca  Sn 
   2   1   1
Cartesian
  0.0000000000000000  0.0000000000000000  0.0000000000000000
  3.4532750000000001  3.4532750000000001  3.4532750000000001
  1.7266375000000000  1.7266375000000000  1.7266375000000000
  5.1799125000000004  5.1799125000000004  5.1799125000000004
