Ta Cr
 1.0000000000000000
     4.8972889999999998    0.0000000000000000    0.0000000000000000
    -2.4486450000000000    4.2411770000000004    0.0000000000000000
     0.0000000000000000    0.0000000000000000    8.0554400000000008
 Ta  Cr 
   4   8
Cartesian
 -0.0000027819780001  2.8274527470590005  3.5419608571200003
  2.4486467819779998  1.4137242529410001  7.5696808571200007
  2.4486467819779998  1.4137242529410001  4.5134791428800005
 -0.0000027819780001  2.8274527470590005  0.4857591428800000
 -0.0000001699450001  1.4415336505300003  6.0415800000000006
 -1.2002402463699999  3.5204101747350003  6.0415800000000006
  1.2484045836850000  0.7207668252650001  2.0138600000000002
  2.4486441699449997  2.7996433494700002  2.0138600000000002
  0.0000000000000000  0.0000000000000000  0.0000000000000000
  1.2002394163149999  3.5204101747350003  6.0415800000000006
  3.6488842463699998  0.7207668252650001  2.0138600000000002
  0.0000000000000000  0.0000000000000000  4.0277200000000004
