Zn P  Pt
 1.0000000000000000
     3.8922620000000001    0.0000000000000000    0.0000000000000000
     0.0000000000000000    3.8922620000000001    0.0000000000000000
     0.0000000000000000    0.0000000000000000    6.9437569999999997
 Zn  P   Pt 
   1   1   5
Cartesian
  1.9461310000000001  1.9461310000000001  0.0000000000000000
  0.0000000000000000  0.0000000000000000  3.4718784999999999
  0.0000000000000000  1.9461310000000001  2.0192167605719997
  0.0000000000000000  1.9461310000000001  4.9245402394279996
  1.9461310000000001  0.0000000000000000  2.0192167605719997
  1.9461310000000001  0.0000000000000000  4.9245402394279996
  0.0000000000000000  0.0000000000000000  0.0000000000000000
