Ce In Ge
 1.0000000000000000
     7.5763470000000002    0.0003720000000000    0.0000000000000000
     0.0003720000000000    7.5763470000000002    0.0000000000000000
     0.0000000000000000    0.0000000000000000    4.3629819999999997
 Ce  In  Ge 
   4   2   4
Cartesian
  2.4155985568860006  6.2035860568860004  2.1814909999999998
  6.2035769306250002  5.1615015693749999  2.1814909999999998
  1.3731420693750001  2.4152174306249998  2.1814909999999998
  5.1611204431140001  1.3731329431140000  2.1814909999999998
  0.0000000000000000  0.0000000000000000  0.0000000000000000
  3.7883594999999999  3.7883594999999999  0.0000000000000000
  4.6738966664250006  6.6911818335749995  0.0000000000000000
  2.9028223335750001  0.8855371664250000  0.0000000000000000
  6.6914282631390005  2.9034407631390002  0.0000000000000000
  0.8852907368610000  4.6732782368610000  0.0000000000000000
