Sr Te
 1.0000000000000000
     4.1100420000000000    0.0000000000000000    2.3729350000000000
     1.3700140000000001    3.8749850000000001    2.3729350000000000
     0.0000000000000000    0.0000000000000000    4.7458679999999998
 Sr  Te 
   1   1
Cartesian
  0.0000000000000000  0.0000000000000000  0.0000000000000000
  2.7400280000000001  1.9374925000000001  4.7458689999999999
