Sr Hg Pb
 1.0000000000000000
     2.5278610000000001   -4.3783820000000002    0.0000000000000000
     2.5278610000000001    4.3783820000000002    0.0000000000000000
     0.0000000000000000    0.0000000000000000    8.3036349999999999
 Sr  Hg  Pb 
   2   2   2
Cartesian
  0.0000000000000000  0.0000000000000000  5.5306028772099998
  0.0000000000000000  0.0000000000000000  1.3787853772100001
  2.5278610000000001 -1.4594635855880000  3.9373844297599998
  2.5278610000000001  1.4594635855880003  8.0892019297599997
  2.5278610000000001 -1.4594635855880000  7.3053720003000002
  2.5278610000000001  1.4594635855880003  3.1535545002999998
