U  Si Ru
 1.0000000000000000
     3.8719820000000000    0.0000000000000000   -1.5312800000000000
    -0.6055860000000000    3.8243309999999999   -1.5312800000000000
    -0.0192700000000000   -0.0225610000000000    5.6122449999999997
 U   Si  Ru 
   1   2   2
Cartesian
  0.0000000000000000  0.0000000000000000  0.0000000000000000
  2.0511504591779999  2.4015087963860000 -0.4744432055650001
  1.1959755408220001  1.4002612036139999  3.0241282055650003
  2.7429550000000003  0.9448022500000000  1.2748424999999999
  0.5041710000000000  2.8569677499999999  1.2748424999999999
