Nd Br O 
 1.0000000000000000
     4.0284310000000003    0.0000000000000000    0.0000000000000000
     0.0000000000000000    4.0284310000000003    0.0000000000000000
     0.0000000000000000    0.0000000000000000    7.8992699999999996
 Nd  Br  O  
   2   2   2
Cartesian
  3.0213232500000000  3.0213232500000000  6.7102402825200000
  1.0071077500000001  1.0071077500000001  1.1890297174800000
  1.0071077500000001  1.0071077500000001  5.1364529218800001
  3.0213232500000000  3.0213232500000000  2.7628170781199999
  3.0213232500000000  1.0071077500000001  0.0000000000000000
  1.0071077500000001  3.0213232500000000  0.0000000000000000
