Zn
 1.0000000000000000
     2.6640670000000002    0.0000000000000000    0.0000000000000000
    -1.3320330000000000    2.3071500000000000    0.0000000000000000
     0.0000000000000000    0.0000000000000000    4.9663880000000002
 Zn 
   2
Cartesian
 -0.0000009987000000  1.5381007690500001  1.2415970000000001
  1.3320349987000002  0.7690492309500000  3.7247910000000002
