Lu Cu Sn
 1.0000000000000000
     2.2252570000000000   -3.8541629999999998    0.0000020000000000
     2.2252790000000000    3.8541750000000001   -0.0000020000000000
    -0.0000010000000000   -0.0000040000000000    7.1146000000000003
 Lu  Cu  Sn 
   2   2   2
Cartesian
  0.0000484594660000 -0.0000559433380000  3.5308052296280001
  4.4504971743340001  0.0000658273330002  7.0880981149700002
  2.2254360066749999  1.2844912948160001  2.3417628088560001
  2.2250854833989999 -1.2844916363739998  5.8990499127479996
  2.2254176492059998 -1.2848862068549995  1.6160037961540001
  2.2251196217999998  1.2848982439380001  5.1732668896440002
