Si Ru
 1.0000000000000000
     4.0377060000000000    0.0000000000000000    0.0000000000000000
     0.0000000000000000    5.3213600000000003    0.0000000000000000
     0.0000000000000000    0.0000000000000000    7.4606890000000003
 Si  Ru 
   4   8
Cartesian
  1.0094265000000000  4.2477170850400006  2.9955487010790001
  3.0282795000000000  1.0736429149600000  4.4651402989210007
  1.0094265000000000  1.5870370850400000  0.7347957989210000
  3.0282795000000000  3.7343229149599999  6.7258932010789998
  3.0282795000000000  0.0749779624000000  2.1519462137820002
  1.0094265000000000  5.2463820376000001  5.3087427862180006
  3.0282795000000000  2.7356579624000004  1.5783982862180002
  1.0094265000000000  2.5857020376000004  5.8822907137820000
  1.0094265000000000  1.7742584939200001  3.2450938267509999
  3.0282795000000000  3.5471015060800002  4.2155951732490005
  1.0094265000000000  4.4349384939199998  0.4852506732490000
  3.0282795000000000  0.8864215060800000  6.9754383267510001
