Ti Mn Ni
 1.0000000000000000
     0.0000000000000000    2.9753900000000000    2.9753900000000000
     2.9753900000000000    0.0000000000000000    2.9753900000000000
     2.9753900000000000    2.9753900000000000    0.0000000000000000
 Ti  Mn  Ni 
   2   1   1
Cartesian
  0.0000000000000000  0.0000000000000000  0.0000000000000000
  2.9753959507800003  2.9753959507800003  2.9753959507800003
  1.4876950000000000  1.4876950000000000  1.4876950000000000
  4.4630909507799998  4.4630909507799998  4.4630909507799998
