Ni Pt
 1.0000000000000000
     3.6245639999999999    0.0000000000000000    0.0000000000000000
     0.0000000000000000    3.6245660000000002    0.0000000000000000
     0.0000000000000000    0.0000000000000000    3.6245699999999998
 Ni  Pt 
   3   1
Cartesian
  1.8122819999999999  0.0000000000000000  1.8122849999999999
  0.0000000000000000  1.8122830000000001  1.8122849999999999
  1.8122819999999999  1.8122830000000001  0.0000000000000000
  0.0000000000000000  0.0000000000000000  0.0000000000000000
