Al Pd
 1.0000000000000000
     3.0791010000000001    0.0000000000000000    0.0000000000000000
     0.0000000000000000    3.0791010000000001    0.0000000000000000
     0.0000000000000000    0.0000000000000000    3.0791010000000001
 Al  Pd 
   1   1
Cartesian
  0.0000000000000000  0.0000000000000000  0.0000000000000000
  1.5395505000000000  1.5395505000000000  1.5395505000000000
