W 
 1.0000000000000000
     3.1899910000000000    0.0000000000000000    0.0000000000000000
     0.0000000000000000    3.1899910000000000    0.0000000000000000
     0.0000000000000000    0.0000000000000000    3.1899910000000000
 W  
   2
Cartesian
  0.0000000000000000  0.0000000000000000  0.0000000000000000
  1.5949955000000000  1.5949955000000000  1.5949955000000000
