Na Sm Au
 1.0000000000000000
     0.0000000000000000    3.5451779999999999    3.5451779999999999
     3.5451779999999999    0.0000000000000000    3.5451779999999999
     3.5451779999999999    3.5451779999999999    0.0000000000000000
 Na  Sm  Au 
   1   1   2
Cartesian
  1.7725890000000000  1.7725890000000000  1.7725890000000000
  5.3177740903560000  5.3177740903560000  5.3177740903560000
  3.5451850903560000  3.5451850903560000  3.5451850903560000
  0.0000000000000000  0.0000000000000000  0.0000000000000000
