La Mg Zn
 1.0000000000000000
     0.0000000000000000    3.5302509999999998    3.5302509999999998
     3.5302509999999998    0.0000000000000000    3.5302509999999998
     3.5302509999999998    3.5302509999999998    0.0000000000000000
 La  Mg  Zn 
   1   1   2
Cartesian
  1.7651254999999999  1.7651254999999999  1.7651254999999999
  5.2953764999999997  5.2953764999999997  5.2953764999999997
  0.0000000000000000  0.0000000000000000  0.0000000000000000
  3.5302509999999998  3.5302509999999998  3.5302509999999998
