Ba Ca Si
 1.0000000000000000
     5.0820439999999998    0.0000000000000000    0.0000000000000000
     0.0000000000000000    8.5893250000000005    0.0000000000000000
     0.0000000000000000    0.0000000000000000    9.1659459999999999
 Ba  Ca  Si 
   4   4   4
Cartesian
  1.2705109999999999  0.2338443731250000  7.5504113537160000
  3.8115329999999998  8.3554806268749999  1.6155346462839999
  1.2705109999999999  4.5285068731250009  6.1985076462839999
  3.8115329999999998  4.0608181268750005  2.9674383537159996
  3.8115329999999998  3.0831210301000000  8.4834863246239998
  1.2705109999999999  5.5062039698999996  0.6824596753759999
  3.8115329999999998  7.3777835301000012  5.2654326753759992
  1.2705109999999999  1.2115414699000002  3.9005133246239998
  1.2705109999999999  6.7209836153250002  3.5914559573960001
  3.8115329999999998  1.8683413846750001  5.5744900426040003
  1.2705109999999999  2.4263211153249999  0.9915170426040001
  3.8115329999999998  6.1630038846750006  8.1744289573959996
