Sb
 1.0000000000000000
     2.1903750000000000   -1.2646139999999999    3.8262179999999999
     0.0000000000000000    2.5292279999999998    3.8262179999999999
    -2.1903750000000000   -1.2646139999999999    3.8262179999999999
 Sb 
   2
Cartesian
  0.0000000000000000  0.0000000000000000  3.0601861990919996
  0.0000000000000001  0.0000000000000001  8.4184678009079992
