Mg Pd
 1.0000000000000000
    12.1305940000000003    0.0000000000000000    0.0000000000000000
     0.0000000000000000   12.1305940000000003    0.0000000000000000
     0.0000000000000000    0.0000000000000000   12.1305940000000003
 Mg  Pd 
  64  32
Cartesian
  1.5163242500000000  7.5816212500000004  5.2239432613480004
  4.5489727499999999  2.1912947613479998 10.6142697500000001
 10.6142697500000001  6.9066507386520009  4.5489727499999999
 10.6142697500000001 10.6142697500000001  8.2565917613480000
  8.2565917613480000 10.6142697500000001 10.6142697500000001
  6.9066507386520009 10.6142697500000001  4.5489727499999999
  9.9392992386520014  7.5816212500000004  1.5163242500000000
  1.5163242500000000  3.8740022386519999  1.5163242500000000
  7.5816212500000004 11.2892402613480005  7.5816212500000004
 11.2892402613480005  7.5816212500000004  7.5816212500000004
  4.5489727499999999 10.6142697500000001  6.9066507386520009
  7.5816212500000004  7.5816212500000004  3.8740022386519999
  9.0979454999999998  0.0000000000000000  3.0326485000000001
  0.0000000000000000  0.0000000000000000  6.0652970000000002
  0.0000000000000000  9.0979454999999998  3.0326485000000001
  9.0979454999999998  9.0979454999999998  6.0652970000000002
  1.5163242500000000  1.5163242500000000 11.2892402613480005
  4.5489727499999999  8.2565917613480000  4.5489727499999999
 10.6142697500000001  0.8413537386520000 10.6142697500000001
 10.6142697500000001  4.5489727499999999  2.1912947613479998
  8.2565917613480000  4.5489727499999999  4.5489727499999999
  6.9066507386520009  4.5489727499999999 10.6142697500000001
  9.9392992386520014  1.5163242500000000  7.5816212500000004
  1.5163242500000000  9.9392992386520014  7.5816212500000004
  7.5816212500000004  5.2239432613480004  1.5163242500000000
 11.2892402613480005  1.5163242500000000  1.5163242500000000
  4.5489727499999999  4.5489727499999999  0.8413537386520000
  7.5816212500000004  1.5163242500000000  9.9392992386520014
  9.0979454999999998  6.0652970000000002  9.0979454999999998
  0.0000000000000000  6.0652970000000002  0.0000000000000000
  0.0000000000000000  3.0326485000000001  9.0979454999999998
  9.0979454999999998  3.0326485000000001  0.0000000000000000
  7.5816212500000004  7.5816212500000004 11.2892402613480005
 10.6142697500000001  2.1912947613479998  4.5489727499999999
  4.5489727499999999  6.9066507386520009 10.6142697500000001
  4.5489727499999999 10.6142697500000001  2.1912947613479998
  2.1912947613479998 10.6142697500000001  4.5489727499999999
  0.8413537386520000 10.6142697500000001 10.6142697500000001
  3.8740022386519999  7.5816212500000004  7.5816212500000004
  7.5816212500000004  3.8740022386519999  7.5816212500000004
  1.5163242500000000 11.2892402613480005  1.5163242500000000
  5.2239432613480004  7.5816212500000004  1.5163242500000000
 10.6142697500000001 10.6142697500000001  0.8413537386520000
  1.5163242500000000  7.5816212500000004  9.9392992386520014
  3.0326485000000001  0.0000000000000000  9.0979454999999998
  6.0652970000000002  0.0000000000000000  0.0000000000000000
  6.0652970000000002  9.0979454999999998  9.0979454999999998
  3.0326485000000001  9.0979454999999998  0.0000000000000000
  7.5816212500000004  1.5163242500000000  5.2239432613480004
 10.6142697500000001  8.2565917613480000 10.6142697500000001
  4.5489727499999999  0.8413537386520000  4.5489727499999999
  4.5489727499999999  4.5489727499999999  8.2565917613480000
  2.1912947613479998  4.5489727499999999 10.6142697500000001
  0.8413537386520000  4.5489727499999999  4.5489727499999999
  3.8740022386519999  1.5163242500000000  1.5163242500000000
  7.5816212500000004  9.9392992386520014  1.5163242500000000
  1.5163242500000000  5.2239432613480004  7.5816212500000004
  5.2239432613480004  1.5163242500000000  7.5816212500000004
 10.6142697500000001  4.5489727499999999  6.9066507386520009
  1.5163242500000000  1.5163242500000000  3.8740022386519999
  3.0326485000000001  6.0652970000000002  3.0326485000000001
  6.0652970000000002  6.0652970000000002  6.0652970000000002
  6.0652970000000002  3.0326485000000001  3.0326485000000001
  3.0326485000000001  3.0326485000000001  6.0652970000000002
  8.6993099199720003  8.6993099199720003  8.6993099199720003
  6.4639325800279996  8.6993099199720003  6.4639325800279996
  8.6993099199720003  6.4639325800279996  6.4639325800279996
  5.6666614199719998 11.7319584199720008  9.4965810800279993
 11.7319584199720008  9.4965810800279993  5.6666614199719998
  9.4965810800279993  9.4965810800279993  3.4312840800280000
  9.4965810800279993 11.7319584199720008  5.6666614199719998
  0.3986355800280000  6.4639325800279996  2.6340129199720002
  8.6993099199720003  2.6340129199720002  2.6340129199720002
  6.4639325800279996  2.6340129199720002  0.3986355800280000
  8.6993099199720003  0.3986355800280000  0.3986355800280000
  5.6666614199719998  5.6666614199719998  3.4312840800280000
 11.7319584199720008  3.4312840800280000 11.7319584199720008
  9.4965810800279993  3.4312840800280000  9.4965810800279993
  9.4965810800279993  5.6666614199719998 11.7319584199720008
  0.3986355800280000  0.3986355800280000  8.6993099199720003
  2.6340129199720002  8.6993099199720003  2.6340129199720002
  0.3986355800280000  8.6993099199720003  0.3986355800280000
  2.6340129199720002  6.4639325800279996  0.3986355800280000
 11.7319584199720008 11.7319584199720008  3.4312840800280000
  5.6666614199719998  9.4965810800279993 11.7319584199720008
  3.4312840800280000  9.4965810800279993  9.4965810800279993
  3.4312840800280000 11.7319584199720008 11.7319584199720008
  6.4639325800279996  6.4639325800279996  8.6993099199720003
  2.6340129199720002  2.6340129199720002  8.6993099199720003
  0.3986355800280000  2.6340129199720002  6.4639325800279996
  2.6340129199720002  0.3986355800280000  6.4639325800279996
 11.7319584199720008  5.6666614199719998  9.4965810800279993
  5.6666614199719998  3.4312840800280000  5.6666614199719998
  3.4312840800280000  3.4312840800280000  3.4312840800280000
  3.4312840800280000  5.6666614199719998  5.6666614199719998
  6.4639325800279996  0.3986355800280000  2.6340129199720002
