Mg Ag
 1.0000000000000000
     3.3039380000000000    0.0000000000000000    0.0000000000000000
     0.0000000000000000    3.3039380000000000    0.0000000000000000
     0.0000000000000000    0.0000000000000000    3.3039380000000000
 Mg  Ag 
   1   1
Cartesian
  1.6519690000000000  1.6519690000000000  1.6519690000000000
  0.0000000000000000  0.0000000000000000  0.0000000000000000
