Th Ge
 1.0000000000000000
     5.8633649999999999    0.0152820000000000   -1.5392950000000001
    -3.4855550000000002    4.7148909999999997   -1.5392950000000001
    -0.0076810000000000   -0.0152820000000000    6.0620490000000000
 Th  Ge 
   4   2
Cartesian
  2.5843374760400000  3.1354135100169995  0.7220819999999999
 -0.9449489313430003  3.9445640052650002 -0.7606004148530001
 -0.2142084760400001  1.5794774899830000  2.2613770000000000
  3.3150779313429997  0.7703269947350000  3.7440594148530000
  1.7833574999999993  3.5476297499999996 -2.3089425000000001
  0.5944524999999999  1.1825432499999999 -0.7696475000000000
