Zn Co C 
 1.0000000000000000
     3.7371680000000000    0.0000000000000000    0.0000000000000000
     0.0000000000000000    3.7371680000000000    0.0000000000000000
     0.0000000000000000    0.0000000000000000    3.7371680000000000
 Zn  Co  C  
   1   3   1
Cartesian
  0.0000000000000000  0.0000000000000000  0.0000000000000000
  0.0000000000000000  1.8685840000000000  1.8685840000000000
  1.8685840000000000  1.8685840000000000  0.0000000000000000
  1.8685840000000000  0.0000000000000000  1.8685840000000000
  1.8685840000000000  1.8685840000000000  1.8685840000000000
