Si Br
 1.0000000000000000
    11.2425409999999992    0.0000000000000000    0.0000000000000000
     0.0000000000000000   11.2425409999999992    0.0000000000000000
     0.0000000000000000    0.0000000000000000   11.2425409999999992
 Si  Br 
   8  32
Cartesian
  4.1312290860239997  7.1113119139759995  1.4900414139759997
  1.4900414139759997  1.4900414139759997  1.4900414139759997
  9.7524995860239994  9.7524995860239994  9.7524995860239994
  1.4900414139759997  4.1312290860239997  7.1113119139759995
  7.1113119139759995  1.4900414139759997  4.1312290860239997
  9.7524995860239994  7.1113119139759995  4.1312290860239997
  4.1312290860239997  9.7524995860239994  7.1113119139759995
  7.1113119139759995  4.1312290860239997  9.7524995860239994
  2.8648805103249999  8.4861510103249991  8.3776604896749998
  8.3768510267229992  5.3148213174219991 11.1046175070119997
  5.7591939929879992  2.7555805267229996  5.3148213174219991
  8.4869604732769997 10.9360918174219997 11.1046175070119997
  0.3064491825780000  0.1379234929880000  2.7555805267229996
  8.3776604896749998  2.7563899896749997  2.8648805103249999
  8.3776604896749998  2.8648805103249999  8.4861510103249991
  5.7591939929879992  2.8656899732769996 10.9360918174219997
  0.3064491825780000  5.4833470070119992  8.3768510267229992
  5.3148213174219991  5.7591939929879992  2.7555805267229996
  5.9277196825780001  5.4833470070119992  8.4869604732769997
 10.9360918174219997  5.7591939929879992  2.8656899732769996
 11.1046175070119997  8.3768510267229992  5.3148213174219991
  2.8656899732769996 10.9360918174219997  5.7591939929879992
  5.9277196825780001  0.1379234929880000  2.8656899732769996
  2.7555805267229996  5.3148213174219991  5.7591939929879992
  2.7563899896749997  2.7563899896749997  2.7563899896749997
  2.7563899896749997  2.8648805103249999  8.3776604896749998
  0.1379234929880000  2.8656899732769996  5.9277196825780001
  8.4869604732769997  5.9277196825780001  5.4833470070119992
 10.9360918174219997 11.1046175070119997  8.4869604732769997
  0.1379234929880000  2.7555805267229996  0.3064491825780000
  8.3768510267229992  0.3064491825780000  5.4833470070119992
  2.7555805267229996  0.3064491825780000  0.1379234929880000
  5.3148213174219991 11.1046175070119997  8.3768510267229992
  8.4861510103249991  8.3776604896749998  2.8648805103249999
  5.4833470070119992  8.4869604732769997  5.9277196825780001
  2.8648805103249999  8.3776604896749998  2.7563899896749997
  8.4861510103249991  8.4861510103249991  8.4861510103249991
 11.1046175070119997  8.4869604732769997 10.9360918174219997
  2.8656899732769996  5.9277196825780001  0.1379234929880000
  5.4833470070119992  8.3768510267229992  0.3064491825780000
