Ba Sn Pt
 1.0000000000000000
     4.5778670000000004    0.0000970000000000   -1.8395729999999999
    -0.7371180000000001    4.5181319999999996   -1.8395729999999999
    -0.0090650000000000   -0.0106640000000000    6.6088050000000003
 Ba  Sn  Pt 
   1   3   1
Cartesian
  0.0061354394700000  0.0072176860650000  0.0152101026450000
  3.2553647551739999  1.1371396363020001  1.4920248192390002
  0.5980582796490000  3.3959990050769999  1.4920248192390000
  1.5970644507630001  1.8787749251759998  3.9815846760330005
  2.5091142469090006  2.9517036271440000 -0.3670405235609998
