Nd P  Ru
 1.0000000000000000
     3.7760729999999998    0.0000000000000000   -1.4317560000000000
    -0.5428730000000000    3.7368459999999999   -1.4317560000000000
     0.0697760000000000    0.0806460000000000    5.8793559999999996
 Nd  P   Ru 
   1   2   2
Cartesian
  0.0000000000000000  0.0000000000000000  0.0000000000000000
  1.2231386310560000  1.4136714401140000  3.2258709656000000
  2.0798373689439997  2.4038205598859999 -0.2100269656000003
  2.7312244999999997  0.9745345000000000  1.5079219999999998
  0.5717515000000000  2.8429574999999998  1.5079219999999998
