Sc Br O 
 1.0000000000000000
     3.5614330000000001    0.0000000000000000    0.0000000000000000
     0.0000000000000000    3.9625699999999999    0.0000000000000000
     0.0000000000000000    0.0000000000000000    8.9359140000000004
 Sc  Br  O  
   2   2   2
Cartesian
  0.8903582500000000  2.9719275000000001  5.3955674245980001
  2.6710747499999998  0.9906425000000000  3.5403376394880000
  2.6710747499999998  2.9719275000000001  7.3748455678560010
  0.8903582500000000  0.9906425000000000  1.5610773680579999
  2.6710747499999998  2.9719275000000001  4.1928916952520003
  0.8903582500000000  0.9906425000000000  4.7430223047480000
