Si Rh
 1.0000000000000000
     3.6549640000000001    0.0000000000000000    0.0000000000000000
     0.0000000000000000    5.8701530000000002    0.0000000000000000
     0.0000000000000000    0.0000000000000000   18.9648299999999992
 Si  Rh 
  16  12
Cartesian
  0.9137410000000000  2.2754180566250000  2.7154222890600002
  2.7412230000000002  3.5947349433750002 16.2494077109399981
  2.7412230000000002  5.2104945566250001  6.7669927109400003
  0.9137410000000000  0.6596584433750000 12.1978372890600006
  2.7412230000000002  1.2939226048720001  4.3998784896599998
  0.9137410000000000  4.5762303951280003 14.5649515103399985
  0.9137410000000000  4.2289991048719999  5.0825365103399998
  2.7412230000000002  1.6411538951280000 13.8822934896600003
  0.9137410000000000  2.5319202621130001  7.7700046399799998
  2.7412230000000002  3.3382327378870005 11.1948253600199994
  2.7412230000000002  5.4669967621130002  1.7124103600200000
  0.9137410000000000  0.4031562378870001 17.2524196399800012
  2.7412230000000002  2.8126427188790002  0.9356298880499999
  0.9137410000000000  3.0575102811210000 18.0292001119499972
  0.9137410000000000  5.7477192188790003  8.5467851119499993
  2.7412230000000002  0.1224337811210000 10.4180448880499998
  0.9137410000000000  1.1024558244710001  0.6053004791100000
  2.7412230000000002  4.7676971755290003 18.3595295208899998
  2.7412230000000002  4.0375323244710000  8.8771334857199999
  0.9137410000000000  1.8326206755290000 10.0877154791099990
  0.9137410000000000  0.0224063740010000  3.3411858197399997
  2.7412230000000002  5.8477466259990001 15.6236441802600012
  2.7412230000000002  2.9574828740009997  6.1412291802599999
  0.9137410000000000  2.9126701259990000 12.8236008197399975
  0.9137410000000000  0.6725962605870001  6.1738676526900003
  2.7412230000000002  5.1975567394130007 12.7909623473099998
  2.7412230000000002  3.6076727605870000  3.3085473473099998
  0.9137410000000000  2.2624802394130001 15.6562826526899990
