Er Cd
 1.0000000000000000
     4.8144090000000004    0.0000000000000000    0.0000000000000000
     0.0000000000000000    5.9180130000000002   -2.4842369999999998
     0.0000000000000000    0.0035670000000000    6.4182769999999998
 Er  Cd 
   2   6
Cartesian
  1.2036022500000001  3.7451460851820002  0.7863953008620002
  3.6108067500000001  2.1764339148180003  3.1476446991379996
  3.6108067500000001  5.2120302385290005  2.2441818316990001
  1.2036022500000001  0.7095497614710000  1.6898581683009999
  3.6108067500000001  4.8712388602440004 -0.9086166571960000
  1.2036022500000001  1.0503411397560001  4.8426566571959997
  3.6108067500000001  1.8327799446689998 -0.0008449729809999
  1.2036022500000001  4.0888000553310002  3.9348849729810000
