Pr Mn Ge
 1.0000000000000000
     3.9568930000000000   -0.0000000000000000   -1.3980649999999999
    -0.4939700000000000    3.9259379999999999   -1.3980649999999999
     0.0020740000000000    0.0023510000000000    6.3044269999999996
 Pr  Mn  Ge 
   1   2   2
Cartesian
  0.0000000000000000  0.0000000000000000  0.0000000000000000
  0.6197827499999999  2.9456289999999998  1.7541484999999999
  2.8452142499999997  0.9826600000000000  1.7541484999999999
  2.1324005225080001  2.4175160685289998 -0.2633082756190002
  1.3325964774919998  1.5107729314709999  3.7716052756189997
