Si Ru
 1.0000000000000000
     5.6031380000000004    0.0000000000000000    0.0000000000000000
     0.0000000000000000    5.6031380000000004    0.0000000000000000
     0.0000000000000000    0.0000000000000000    8.9357900000000008
 Si  Ru 
  12   8
Cartesian
  0.9551781411360002  4.6479598588640005  6.7018425000000006
  4.6479598588640005  4.6479598588640005  2.2339475000000002
  0.9551781411360002  0.9551781411360002  2.2339475000000002
  4.6479598588640005  0.9551781411360002  6.7018425000000006
  1.9910414694720000  1.1613119850180000  5.2778439413900005
  3.6120965305280004  4.4418260149820004  5.2778439413900005
  1.1613119850180000  3.6120965305280004  3.6579460586099999
  4.4418260149820004  1.9910414694720000  3.6579460586099999
  3.6120965305280004  1.1613119850180000  0.8099489413900001
  1.1613119850180000  1.9910414694720000  8.1258410586100016
  4.4418260149820004  3.6120965305280004  8.1258410586100016
  1.9910414694720000  4.4418260149820004  0.8099489413900001
  0.0000000000000000  0.0000000000000000  4.4678950000000004
  0.0000000000000000  0.0000000000000000  0.0000000000000000
  2.8015690000000002  2.8015690000000002  6.7018425000000006
  2.8015690000000002  2.8015690000000002  2.2339475000000002
  2.8015690000000002  0.0000000000000000  7.7969503718700013
  0.0000000000000000  2.8015690000000002  1.1388396281300002
  0.0000000000000000  2.8015690000000002  5.6067346281299999
  2.8015690000000002  0.0000000000000000  3.3290553718700004
