Li Ga Pd
 1.0000000000000000
     3.6931319999999999    0.0000000000000000    2.1322310000000000
     1.2310449999999999    3.4819179999999998    2.1322310000000000
     0.0000000000000000    0.0000000000000000    4.2644599999999997
 Li  Ga  Pd 
   2   1   1
Cartesian
  2.4620885000000001  1.7409589999999999  4.2644609999999998
  1.2310442500000001  0.8704795000000000  2.1322304999999999
  3.6931327499999997  2.6114384999999998  6.3966914999999993
  0.0000000000000000  0.0000000000000000  0.0000000000000000
