Sn Pd
 1.0000000000000000
     6.5624050000000000    0.0000000000000000    0.0000000000000000
     0.0000000000000000   11.6472259999999999    0.0000000000000000
     0.0000000000000000    0.0000000000000000    6.5179859999999996
 Sn  Pd 
  16   4
Cartesian
  5.4536604256299999  1.4995919947260001  2.1568015674000001
  1.1087445743700000  1.4995919947260001  4.3611844326000000
  5.4541263563850002 10.2292228234039992  4.3598808354000003
  1.1082786436150001 10.2292228234039992  2.1581051645999998
  2.1729238563850002 10.2292228234039992  5.4170981645999996
  4.3894811436149999 10.2292228234039992  1.1008878353999998
  2.1724579256299998  1.4995919947260001  1.1021914326000000
  4.3899470743700002  1.4995919947260001  5.4157945673999999
  2.1724579256299998  7.3232049947259990  2.1568015674000001
  4.3899470743700002  7.3232049947259990  4.3611844326000000
  2.1729238563850002  4.4056098234039993  4.3598808354000003
  4.3894811436149999  4.4056098234039993  2.1581051645999998
  5.4541263563850002  4.4056098234039993  5.4170981645999996
  1.1082786436150001  4.4056098234039993  1.1008878353999998
  5.4536604256299999  7.3232049947259990  1.1021914326000000
  1.1087445743700000  7.3232049947259990  5.4157945673999999
  0.0000000000000000  0.0394491544620000  0.0000000000000000
  3.2812025000000000  0.0394491544620000  3.2589929999999998
  3.2812025000000000  5.8630621544619999  0.0000000000000000
  0.0000000000000000  5.8630621544619999  3.2589929999999998
