Hf Ag
 1.0000000000000000
     3.0980360000000000    0.0000000000000000   -0.8169670000000000
    -0.2154370000000000    3.0905360000000002   -0.8169670000000000
     0.0200220000000000    0.0214660000000000    6.3584730000000000
 Hf  Ag 
   2   1
Cartesian
  0.9805467665440000  1.0512785569320002  3.7183632429459998
  1.9220742334559999  2.0607234430679999  1.0061757570540002
  0.0000000000000000  0.0000000000000000  0.0000000000000000
