Hf Rh
 1.0000000000000000
     4.2993490000000003    0.0000000000000000    0.0000000000000000
     0.0000000000000000    5.6216010000000001    0.0000000000000000
     0.0000000000000000    0.0000000000000000   10.9226159999999997
 Hf  Rh 
   6  10
Cartesian
  2.1496745000000002  0.8807924446800001  7.0515971991359994
  2.1496745000000002  4.7408085553200001  3.8710188008639999
  2.1496745000000002  3.6915929446800004  9.3323268008640010
  2.1496745000000002  1.9300080553200001  1.5902891991360000
  0.0000000000000000  2.8108005000000000  5.4613079999999998
  0.0000000000000000  0.0000000000000000  0.0000000000000000
  2.1496745000000002  1.0297367631750001  9.7516460291040001
  2.1496745000000002  4.5918642368249998  1.1709699708960000
  2.1496745000000002  3.8405372631749999  6.6322779708960002
  2.1496745000000002  1.7810637368250002  4.2903380291039994
  0.0000000000000000  2.2420856132340004  8.1044172327599995
  0.0000000000000000  3.3795153867659997  2.8181987672399997
  0.0000000000000000  0.0000000000000000  5.4613079999999998
  0.0000000000000000  2.8108005000000000  0.0000000000000000
  0.0000000000000000  0.5687148867660000  2.6431092327600001
  0.0000000000000000  5.0528861132339999  8.2795067672399991
