Li Bi Pd
 1.0000000000000000
     0.0000000000000000    3.2486769999999998    3.2486769999999998
     3.2486769999999998    0.0000000000000000    3.2486769999999998
     3.2486769999999998    3.2486769999999998    0.0000000000000000
 Li  Bi  Pd 
   1   1   2
Cartesian
  4.8730090026459996  4.8730090026459996  4.8730090026459996
  1.6243320026460000  1.6243320026460000  1.6243320026460000
  0.0000000000000000  0.0000000000000000  0.0000000000000000
  3.2486769999999998  3.2486769999999998  3.2486769999999998
