Ba Cd Bi
 1.0000000000000000
     4.6407800000000003    0.0008230000000000   -0.9190800000000000
    -0.1811750000000000    4.6372419999999996   -0.9190800000000000
     0.1330850000000000    0.1384120000000000   12.8490669999999998
 Ba  Cd  Bi 
   2   2   4
Cartesian
  4.0539774860949995  4.2162065236099995  8.2873107363349998
  0.5387875939650000  0.5603485609660001  2.7239266269810001
  1.0906511657200002  3.5475787458919998  5.5053552848110003
  3.5020771075350003  1.2289380589249999  5.5053552848110003
 -0.0904891165100000  2.3187426232249999 -0.4590554659330001
  3.0473992602800002  3.1693523162449999  3.2110532967679997
  2.3205167716950004  0.0005192164370000 -0.4590582231730000
  1.5449520981350000  1.6067773162879999  7.7987406103330006
