Mn Si S 
 1.0000000000000000
     5.9358690000000003    0.0000000000000000    0.0000000000000000
     0.0000000000000000    7.4262340000000000    0.0000000000000000
     0.0000000000000000    0.0000000000000000   12.6973509999999994
 Mn  Si  S  
   8   4  16
Cartesian
  0.0495466985430000  5.5696754999999998  9.2837570651069985
  3.0174811985429999  1.8565585000000000  9.7622694348929997
  5.8863223014570005  1.8565585000000000  3.4135939348930000
  2.9183878014570004  5.5696754999999998  2.9350815651069997
  2.9679345000000001  3.7131170000000000  6.3486754999999997
  0.0000000000000000  3.7131170000000000  0.0000000000000000
  2.9679345000000001  0.0000000000000000  6.3486754999999997
  0.0000000000000000  0.0000000000000000  0.0000000000000000
  2.4194661402689999  1.8565585000000000  1.1413140919859999
  3.5164028597310004  5.5696754999999998 11.5560369080139989
  0.5484683597309999  1.8565585000000000  7.4899895919860002
  5.3874006402690000  5.5696754999999998  5.2073614080139992
  4.4226319799610003  3.8929506825439999 10.5820739022080001
  1.4546974799610002  3.5332833174560001  8.4639525977919998
  1.5132370200390002  0.1798336825440000  2.1152770977919997
  4.4811715200390001  7.2464003174559997  4.2333984022079996
  1.4546974799610002  0.1798336825440000  8.4639525977919998
  1.5132370200390002  3.5332833174560001  2.1152770977919997
  4.4226319799610003  7.2464003174559997 10.5820739022080001
  4.4811715200390001  3.8929506825439999  4.2333984022079996
  1.5560999300880001  5.5696754999999998  5.1763163848189997
  4.5240344300880002  1.8565585000000000  1.1723591151810000
  4.3797690699120002  1.8565585000000000  7.5210346151810006
  1.4118345699120001  5.5696754999999998 11.5249918848189985
  4.5296794415069996  5.5696754999999998  7.1730637110259998
  1.5617449415069999  1.8565585000000000 11.8729627889739984
  1.4061895584930000  1.8565585000000000  5.5242872889739996
  4.3741240584930008  5.5696754999999998  0.8243882110259999
