Mn Ni Ge
 1.0000000000000000
     3.6731680000000000    0.0000000000000000   -0.0000000000000000
     0.0000000000000000    6.0913709999999996    0.0000090000000000
    -0.0000000000000000    0.0000140000000000    7.0597240000000001
 Mn  Ni  Ge 
   4   4   4
Cartesian
  2.7548759999999999  2.8544503170159996  4.7910011933479995
  0.9182920000000000  0.1909182533620000  1.2624201277580001
  2.7548759999999999  5.9003814675419992  5.7973622901840001
  0.9182920000000000  3.2368554950349999  2.2686682690189999
  0.9182956731679999  0.8679916623680001  3.9550069214499999
  2.7548759999999999  2.1780862792410001  0.4246667958930000
  0.9182920000000000  3.9133900909179995  6.6348614722460004
  2.7548723268319999  5.2235638964679998  3.1049519899700000
  0.9182920000000000  1.5754661569070001  6.1699893120130005
  2.7548759999999999  4.5158701121669989  0.8897648670870001
  0.9182920000000000  4.6218730573699993  4.4188363346079997
  2.7548759999999999  1.4694753943340000  2.6408613667180001
