Ce Sb O 
 1.0000000000000000
     2.8197809999999999    2.8208869999999999    0.0240280000000000
    -2.8197809999999999    2.8208869999999999    0.0240280000000000
     0.0000000000000000    2.7043550000000001    6.5691649999999999
 Ce  Sb  O  
   2   1   2
Cartesian
  0.0000000000000001  5.5848161886540000  4.5379800891560000
  0.0000000000000000  2.7613128113459999  2.0792409108439998
  0.0000000000000000  0.0000000000000000  0.0000000000000000
 -1.4129922591000001  4.1730644999999997  3.3086104999999999
  1.4129922590999999  4.1730645000000006  3.3086104999999999
