Ba As Rh
 1.0000000000000000
     3.8872460000000002   -0.0000000000000000   -1.1759450000000000
    -0.3557400000000000    3.8709340000000001   -1.1759450000000000
     0.0364840000000000    0.0399920000000000    7.1334929999999996
 Ba  As  Rh 
   1   2   2
Cartesian
  0.0000000000000000  0.0000000000000000  0.0000000000000000
  1.2787195917659999  1.4016237187620000  4.2269875418639993
  2.2892704082340001  2.5093022812379999  0.5546154581360002
  0.7232485000000001  2.9231965000000000  2.3908014999999998
  2.8447414999999996  0.9877295000000000  2.3908014999999998
