Ti O 
 1.0000000000000000
     4.5339859999999996    0.0254490000000000    3.0372859999999999
     1.6343680000000000    4.2292480000000001    3.0372859999999999
     0.0368950000000000    0.0254490000000000    5.4571769999999997
 Ti  O  
   4   6
Cartesian
  2.1379378747129998  1.4746686624020000  3.9731142052129993
  0.9646866252869999  0.6654043375980000  1.7927602947869998
  4.0673111252869996  2.8054773375980000  7.5586347947870003
  5.2405623747129999  3.6147416624019999  9.7389887052130000
  4.0973027514920002  3.9776353171940002  5.9202232499999994
  2.0904431763619997  2.4171346828060001  7.5793150389459996
  4.6714398221459987  1.0954855000000001  6.6810224610539999
  2.1079462485079996  0.3025106828060000  5.6115257500000002
  4.1148058236380001  1.8630113171939999  3.9524339610540000
  1.5338091778540002  3.1846605000000001  4.8507265389459997
