Ca Ti O 
 1.0000000000000000
     5.3720489999999996    0.0000000000000000    0.0000000000000000
     0.0000000000000000    5.4627960000000000    0.0000000000000000
     0.0000000000000000    0.0000000000000000    7.6363599999999998
 Ca  Ti  O  
   4   4  12
Cartesian
  2.7347328682829999  2.9630096248080005  5.7272699999999999
  2.6373161317169997  2.4997863751920000  1.9090900000000000
  5.3233406317169996  0.2316116248080000  5.7272699999999999
  0.0487083682830000  5.2311843751920000  1.9090900000000000
  0.0000000000000000  2.7313980000000000  3.8181799999999999
  0.0000000000000000  2.7313980000000000  0.0000000000000000
  2.6860244999999998  0.0000000000000000  3.8181799999999999
  2.6860244999999998  0.0000000000000000  0.0000000000000000
  0.4124712942690000  2.6293966730879998  5.7272699999999999
  4.9595777057309993  2.8333993269120001  1.9090900000000000
  2.2735532057309999  5.3607946730879998  5.7272699999999999
  3.0984957942689997  0.1020013269120000  1.9090900000000000
  4.2454980924059997  4.3135002007440004  7.3296914187600004
  1.1265509075939999  1.1492957992560000  3.5115114187600001
  1.1265509075939999  1.1492957992560000  0.3066685812400000
  4.2454980924059997  4.3135002007440004  4.1248485812399993
  3.8125754075939993  1.5821022007440000  7.3296914187600004
  1.5594735924059999  3.8806937992560000  3.5115114187600001
  1.5594735924059999  3.8806937992560000  0.3066685812400000
  3.8125754075939993  1.5821022007440000  4.1248485812399993
