Cs Au Br
 1.0000000000000000
     6.7975510000000003    0.0000000000000000   -3.8459650000000001
    -2.1759960000000000    6.4398569999999999   -3.8459650000000001
     0.0160540000000000    0.0223700000000000    7.9585229999999996
 Cs  Au  Br 
   2   2   6
Cartesian
  4.5621912500000006  1.6211492500000000  0.1332964999999997
  0.0754177500000001  4.8410777500000002  0.1332964999999997
  0.0000000000000000  0.0000000000000000  0.0000000000000000
  2.3107775000000004  3.2199285000000000 -3.8459650000000001
  1.3351777655590003  1.8604891959330001  2.3598438893979994
  4.7745096965849996  1.4518335613650000 -3.8459650000000001
  3.3024312344410003  4.6017378040669996 -2.0932508893980009
  1.0419064669750002  1.4518335613650000 -1.7341071588500001
 -0.1529546965849999  4.9880234386349995 -3.8459650000000001
  3.5796485330249999  4.9880234386349995 -5.9578228411500005
