Sm Tl C 
 1.0000000000000000
     5.0420790000000002    0.0000000000000000    0.0000000000000000
     0.0000000000000000    5.0420790000000002    0.0000000000000000
     0.0000000000000000    0.0000000000000000    5.0420790000000002
 Sm  Tl  C  
   3   1   1
Cartesian
  2.5210395000000001  0.0000000000000000  2.5210395000000001
  0.0000000000000000  2.5210395000000001  2.5210395000000001
  2.5210395000000001  2.5210395000000001  0.0000000000000000
  0.0000000000000000  0.0000000000000000  0.0000000000000000
  2.5210395000000001  2.5210395000000001  2.5210395000000001
