Li Hg Pd
 1.0000000000000000
     0.0000000000000000    3.2829020000000000    3.2829020000000000
     3.2829020000000000    0.0000000000000000    3.2829020000000000
     3.2829020000000000    3.2829020000000000    0.0000000000000000
 Li  Hg  Pd 
   1   2   1
Cartesian
  1.6414510000000000  1.6414510000000000  1.6414510000000000
  0.0000000000000000  0.0000000000000000  0.0000000000000000
  3.2829085658040000  3.2829085658040000  3.2829085658040000
  4.9243530000000000  4.9243530000000000  4.9243530000000000
