Nd Cd
 1.0000000000000000
     3.8446069999999999    0.0000000000000000    0.0000000000000000
     0.0000000000000000    3.8446069999999999    0.0000000000000000
     0.0000000000000000    0.0000000000000000    3.8446069999999999
 Nd  Cd 
   1   1
Cartesian
  1.9223034999999999  1.9223034999999999  1.9223034999999999
  0.0000000000000000  0.0000000000000000  0.0000000000000000
