Te O 
 1.0000000000000000
     5.3731929999999997    0.0000000000000000   -1.2203539999999999
     0.0000000000000000    4.7925540000000000    0.0000000000000000
     0.0059700000000000    0.0000000000000000    8.1509250000000009
 Te  O  
   4  10
Cartesian
  4.6802074358359995  0.5455603845900000  4.0518424148720005
  0.6989555641640000  2.9418373845899999  2.8787285851280000
  4.0012064513330001  2.4385760816039999  7.1611767150560004
  1.3779565486669998  0.0422990816040000 -0.2306057150559999
  0.6511413516229999  4.5861722470980002  3.8312662183610007
  4.7280216483770001  2.1898952470979998  3.0993047816390007
  1.7601096074780000  3.9703003027740000  1.4079977234960002
  3.6190533925219999  1.5740233027739998  5.5225732765040014
  0.9458587732389999  0.9581657361120000  6.2413193331130001
  4.4333042267609999  3.3544427361119999  0.6892516668870000
  0.1838475447210000  1.3138403386680000  0.7557905297970001
  5.1953154552789993  3.7101173386679998  6.1747804702030011
  2.8485199496259996  1.2766884600600001  0.1119021822970002
  2.5306430503739996  3.6729654600599999  6.8186688177030010
