U  Si Rh
 1.0000000000000000
     3.8094190000000001    0.0000000000000000   -1.4144790000000000
    -0.5252110000000000    3.7730399999999999   -1.4144790000000000
    -0.0369290000000000   -0.0424260000000000    5.7374739999999997
 U   Si  Rh 
   1   2   2
Cartesian
  0.0000000000000000  0.0000000000000000  0.0000000000000000
  2.0253042174000004  2.3267568724320000 -0.3824590496400002
  1.2219747826000000  1.4038571275679999  3.2909750496399996
  2.7072970000000001  0.9220469999999999  1.4542579999999998
  0.5399820000000001  2.8085670000000000  1.4542579999999998
