Hf Al
 1.0000000000000000
     8.1209760000000006    0.0000000000000000    0.0000000000000000
    -4.0604880000000003    7.0329720000000000    0.0000000000000000
     0.0000000000000000    0.0000000000000000    5.6941540000000002
 Hf  Al 
  10   6
Cartesian
 -3.0945994170000004  5.3600037855000000  4.2706154999999999
 -0.9658885830000001  1.6729682145000000  1.4235385000000000
  3.0945994170000004  5.3600037855000000  1.4235385000000000
  6.1891988340000008  0.0000000000000000  4.2706154999999999
  0.9658885830000001  1.6729682145000000  4.2706154999999999
  1.9317771660000003  0.0000000000000000  1.4235385000000000
 -0.0000040604880001  4.6886503443240004  2.8470770000000001
  4.0604920604880004  2.3443216556760000  0.0000000000000000
  4.0604920604880004  2.3443216556760000  2.8470770000000001
 -0.0000040604880001  4.6886503443240004  0.0000000000000000
  3.2208684123360003  0.0000000000000000  4.2706154999999999
  1.6104342061680001  2.7893540578920000  1.4235385000000000
 -2.4500537938320002  4.2436179421080000  1.4235385000000000
 -1.6104342061680001  2.7893540578920000  4.2706154999999999
  2.4500537938320002  4.2436179421080000  4.2706154999999999
  4.9001075876640003  0.0000000000000000  1.4235385000000000
