Yb Ni Sn
 1.0000000000000000
    -3.1754570000000002   -3.1754570000000002    0.0000000000000000
    -3.1754570000000002    0.0000000000000000   -3.1754570000000002
     0.0000000000000000   -3.1754570000000002   -3.1754570000000002
 Yb  Ni  Sn 
   1   2   1
Cartesian
 -3.1754570000000002 -3.1754570000000002 -3.1754570000000002
 -4.7631855000000005 -4.7631855000000005 -4.7631855000000005
 -1.5877285000000001 -1.5877285000000001 -1.5877285000000001
  0.0000000000000000  0.0000000000000000  0.0000000000000000
