Li Ga Te
 1.0000000000000000
     5.7553840000000003    0.0000000000000000   -2.7004020000000000
    -1.2670180000000000    5.6141889999999997   -2.7004020000000000
    -0.0199540000000000   -0.0249590000000000    7.4409179999999999
 Li  Ga  Te 
   2   2   4
Cartesian
  3.9898065000000003  1.3910677499999999  1.0200570000000000
  2.2441830000000000  2.8070944999999998 -2.7004020000000000
  0.4786055000000001  4.1981622499999993  1.0200570000000000
  0.0000000000000000  0.0000000000000000  0.0000000000000000
  4.0150049431679999  4.9061756250000004 -2.9089558730040004
  3.4441737738359999  0.5926547037220000  3.5988688730040002
 -0.1078302738359999  3.5805485462779991  3.5119051269960000
  1.5854755568319998  2.0990811249999997 -0.1215901269960000
