Sr Al Si
 1.0000000000000000
     4.2497800000000003    0.0000000000000000    0.0000000000000000
    -2.1248909999999999    3.6804180000000000    0.0000000000000000
     0.0000000000000000    0.0000000000000000    4.7794960000000000
 Sr  Al  Si 
   1   1   1
Cartesian
  0.0000000000000000  0.0000000000000000  0.0000000000000000
  2.1248917915570003  1.2268047731939999  2.3897480000000000
 -0.0000027915569999  2.4536132268060000  2.3897480000000000
