Ca Bi
 1.0000000000000000
     8.4564660000000007    0.0000000000000000   -0.0000020000000000
     0.0000000000000000    9.7466139999999992    0.0000000000000000
    -0.0000020000000000    0.0000000000000000   12.7890890000000006
 Ca  Bi 
  20  12
Cartesian
  2.5869241205260001  9.3254628090599994 11.8299067131780014
  6.8151578205240009  0.4211511909400000  7.3537373522670002
  5.8695483359400002  4.4521558090599997  0.9591802868200000
  1.6413061794740003  5.2944581909399995  5.4353624368220004
  5.8695398794739999  0.4211511909400000  0.9591802868220000
  1.6413061794740003  9.3254628090599994  5.4353624368220004
  2.5869241205260001  5.2944581909399995 11.8299067131780014
  6.8151578205240009  4.4521558090599997  7.3537373522670002
  5.7528561691140006  7.3099604999999990  9.8635323743120011
  1.5246232540960001  2.4366534999999998  9.3201121936130011
  2.7036162873520002  2.4366534999999998  2.9255546256860003
  6.9318407459040010  7.3099604999999990  3.4689748063870005
  1.2833772295960002  7.3099604999999990  9.0800098937830001
  5.5116185259860009  2.4366534999999998 10.1036219991630016
  7.1730783139380003  2.4366534999999998  3.7090771062190004
  2.9448454740140004  7.3099604999999990  2.6854650008370000
  4.5265507625620005  7.3099604999999990  6.3211340585859999
  0.2983102831360001  2.4366534999999998  0.0734093003080000
  3.9299132374360002  2.4366534999999998  6.4679657305029998
  8.1581452604000013  7.3099604999999990 12.7156649106050015
  7.9059061229120005  0.1277488696980000 10.6031632492410015
  3.6776734392260000  9.6188651303019999  8.5804803002680003
  0.5505578770900000  5.0010558696979990  2.1859109616699999
  4.7787905607720003  4.7455581303020002  4.2086194888210002
  0.5505578770900000  9.6188651303019999  2.1859109616699999
  4.7787905607720003  0.1277488696980000  4.2086194888210002
  7.9059061229120005  4.7455581303020002 10.6031632492410015
  3.6776734392260000  5.0010558696979990  8.5804803002680003
  4.8849536600580006  7.3099604999999990  0.2112490167840000
  0.6567197261300001  2.4366534999999998  6.1832941725800001
  3.5715103399420003  2.4366534999999998 12.5778379832159999
  7.7997527303360004  7.3099604999999990  6.6057928274180009
