Li Nb N 
 1.0000000000000000
     9.7632220000000007    0.0000000000000000    0.0000000000000000
     0.0000000000000000    9.7632220000000007    0.0000000000000000
     0.0000000000000000    0.0000000000000000    9.7632220000000007
 Li  Nb  N  
  56   8  32
Cartesian
  1.2806711194060003  3.6009398805940003  6.1622821194060000
  3.6009398805940003  6.1622821194060000  1.2806711194060003
  6.1622821194060000  1.2806711194060003  3.6009398805940003
  8.4825508805940011  8.4825508805940011  8.4825508805940011
  8.4825508805940011  6.1622821194060000  3.6009398805940003
  6.1622821194060000  3.6009398805940003  8.4825508805940011
  3.6009398805940003  8.4825508805940011  6.1622821194060000
  1.2806711194060003  1.2806711194060003  1.2806711194060003
  6.0563218710400006  8.7872415127700005  6.1690870851400010
  1.1747108710400000  5.8575914872300006  3.5941349148600006
  3.7069001289600005  3.9056305127700002  8.4757459148600010
  5.8575914872300006  3.5941349148600006  1.1747108710400000
  8.4757459148600010  3.7069001289600005  3.9056305127700002
  3.5941349148600006  1.1747108710400000  5.8575914872300006
  8.7872415127700005  6.1690870851400010  6.0563218710400006
  6.1690870851400010  6.0563218710400006  8.7872415127700005
  3.9056305127700002  8.4757459148600010  3.7069001289600005
  0.9759804872300001  1.2874760851400000  8.5885111289600005
  1.2874760851400000  8.5885111289600005  0.9759804872300001
  8.5885111289600005  0.9759804872300001  1.2874760851400000
  3.7069001289600005  0.9759804872300001  3.5941349148600006
  8.5885111289600005  3.9056305127700002  6.1690870851400010
  6.0563218710400006  5.8575914872300006  1.2874760851400000
  6.2471049921420008  1.1371419927840001  8.4805884729720002
  3.9056305127700002  6.1690870851400010  8.5885111289600005
  6.1690870851400010  8.5885111289600005  3.9056305127700002
  0.9759804872300001  3.5941349148600006  3.7069001289600005
  3.5941349148600006  3.7069001289600005  0.9759804872300001
  5.8575914872300006  1.2874760851400000  6.0563218710400006
  8.7872415127700005  8.4757459148600010  1.1747108710400000
  8.4757459148600010  1.1747108710400000  8.7872415127700005
  1.1747108710400000  8.7872415127700005  8.4757459148600010
  1.2826335270280000  1.3654939921420002  3.7444690072160003
  6.1642445270280000  3.5161170078580000  6.0187529927840009
  8.4805884729720002  6.2471049921420008  1.1371419927840001
  3.5161170078580000  6.0187529927840009  6.1642445270280000
  1.1371419927840001  8.4805884729720002  6.2471049921420008
  6.0187529927840009  6.1642445270280000  3.5161170078580000
  1.3654939921420002  3.7444690072160003  1.2826335270280000
  3.7444690072160003  1.2826335270280000  1.3654939921420002
  6.1642445270280000  1.3654939921420002  1.1371419927840001
  1.1371419927840001  6.1642445270280000  1.3654939921420002
  1.3654939921420002  1.1371419927840001  6.1642445270280000
  3.5161170078580000  8.6260800072160002  1.2826335270280000
  6.0187529927840009  8.4805884729720002  8.3977280078580012
  8.3977280078580012  6.0187529927840009  8.4805884729720002
  3.7444690072160003  3.5989774729720003  6.2471049921420008
  8.6260800072160002  1.2826335270280000  3.5161170078580000
  6.2471049921420008  3.7444690072160003  3.5989774729720003
  1.2826335270280000  3.5161170078580000  8.6260800072160002
  3.5989774729720003  6.2471049921420008  3.7444690072160003
  8.4805884729720002  8.3977280078580012  6.0187529927840009
  3.5989774729720003  8.3977280078580012  8.6260800072160002
  8.6260800072160002  3.5989774729720003  8.3977280078580012
  8.3977280078580012  8.6260800072160002  3.5989774729720003
  1.2874760851400000  6.0563218710400006  5.8575914872300006
  3.6372200135460004  1.2443909864539999  8.5188310135460004
  1.2443909864539999  8.5188310135460004  3.6372200135460004
  8.5188310135460004  3.6372200135460004  1.2443909864539999
  6.1260019864540007  6.1260019864540007  6.1260019864540007
  6.1260019864540007  8.5188310135460004  1.2443909864539999
  8.5188310135460004  1.2443909864539999  6.1260019864540007
  1.2443909864539999  6.1260019864540007  8.5188310135460004
  3.6372200135460004  3.6372200135460004  3.6372200135460004
  2.5061702712900003  2.3754407287100001  7.3877812712900006
  2.3754407287100001  7.3877812712900006  2.5061702712900003
  7.3877812712900006  2.5061702712900003  2.3754407287100001
  7.2570517287100005  7.2570517287100005  7.2570517287100005
  7.2570517287100005  7.3877812712900006  2.3754407287100001
  7.3877812712900006  2.3754407287100001  7.2570517287100005
  2.3754407287100001  7.2570517287100005  7.3877812712900006
  2.5061702712900003  2.5061702712900003  2.5061702712900003
  7.3682548272900004  0.1248520829360000  4.9693921290020002
  2.4866438272900004  4.7567589170640003  4.7938298709980005
  2.3949671727099999  5.0064630829360004  9.6754408709980009
  4.7567589170640003  4.7938298709980005  2.4866438272900004
  9.6754408709980009  2.3949671727099999  5.0064630829360004
  4.7938298709980005  2.4866438272900004  4.7567589170640003
  0.1248520829360000  4.9693921290020002  7.3682548272900004
  4.9693921290020002  7.3682548272900004  0.1248520829360000
  5.0064630829360004  9.6754408709980009  2.3949671727099999
  9.6383699170640007  0.0877811290020000  7.2765781727100007
  0.0877811290020000  7.2765781727100007  9.6383699170640007
  7.2765781727100007  9.6383699170640007  0.0877811290020000
  2.3949671727099999  9.6383699170640007  4.7938298709980005
  7.2765781727100007  5.0064630829360004  4.9693921290020002
  7.3682548272900004  4.7567589170640003  0.0877811290020000
  5.0064630829360004  4.9693921290020002  7.2765781727100007
  0.0877811290020000  7.3682548272900004  4.7567589170640003
  4.9693921290020002  7.2765781727100007  5.0064630829360004
  9.6383699170640007  4.7938298709980005  2.3949671727099999
  4.7938298709980005  2.3949671727099999  9.6383699170640007
  4.7567589170640003  0.0877811290020000  7.3682548272900004
  0.1248520829360000  9.6754408709980009  2.4866438272900004
  9.6754408709980009  2.4866438272900004  0.1248520829360000
  2.4866438272900004  0.1248520829360000  9.6754408709980009
