Ca In N 
 1.0000000000000000
     3.4502959999999998    0.0000000000000000   -0.6031700000000000
     0.0000000000000000    4.9745179999999998    0.0000000000000000
     0.0221800000000000    0.0000000000000000   10.2967770000000005
 Ca  In  N  
   4   2   2
Cartesian
  2.7076914801559999  1.2436294999999999  5.3188211071270004
  0.7647845198440000  3.7308884999999998  4.3747858928730006
  2.1483333683199994  1.2436294999999999  2.1191505504800001
  1.3241426316799998  3.7308884999999998  7.5744564495200004
  3.3388542888239998  1.2436294999999999  8.9292340838219992
  0.1336217111760000  3.7308884999999998  0.7643729161780001
  0.6963800789400000  1.2436294999999999  3.9834735229030001
  2.7760959210600000  3.7308884999999998  5.7101334770970009
