Th H 
 1.0000000000000000
     7.4516530000000003    0.0000000000000000   -2.6345559999999999
    -3.7258260000000001    6.4533220000000000   -2.6345570000000000
     0.0000000000000000    0.0000000000000000    7.9036730000000004
 Th  H  
   8  30
Cartesian
  3.4110691350400004  5.9081453574399996  2.4119844675269997
 -1.2333973545600001  3.2266610000000000 -1.5398457908800001
  3.7258265000000002  0.0000000000000000 -0.6495757049599999
 -0.3147577804800000  0.5451766425600000  3.7292691246400000
  3.7258265000000002  0.0000000000000000  3.3022607950400005
 -2.1776745063060003  3.7718440958820003  2.4119879900830004
  2.4924365970930005  3.2266610000000000 -2.8571264254360003
  1.5481481833870003  2.6814843574400000  1.0947150057560002
  0.3538420696110001  4.2192593634639994  4.9510883990190004
  5.4836678271620007  1.4234544067940000 -0.3180290713669994
  3.2676393526609999  1.1916059073000000  1.3177830416760001
  0.5828832483530001  0.6116071392280000  1.6278486672840002
 -0.3348547911500000  1.8032001398840001  0.0069318654590000
  1.6141585065319999  0.8105953230980000 -0.3180142719429999
  4.7676386146850005  3.0276599094860002 -2.3239889697109999
  3.3909570261220003  4.6501218601160001 -1.3103323000220002
 -0.4657280000000000  4.0333262500000000  0.6586402500000000
  1.8629133750000002  1.6133305000000000  3.2931978750000002
 -1.8629128750000001  4.8399915000000000  4.6104766250000004
  6.0544681250000005  0.8066652500000000  3.2931986250000005
  3.2600983750000001  2.4199957500000000 -0.6586381249999997
  2.3286420000000003  5.6466567500000000 -3.2931952499999997
  1.7578267032790003  5.0298675932060002  0.9992629396870005
  0.4687240346809999  2.0350550927000000  5.2760632397620002
  5.8269506544730003  2.4160656769019999  1.6278476250609997
  1.2610474475979994  6.2543209094860002 -1.3167554551199996
  1.0417972422160000  3.4256620905139998 -1.0066977044149998
 -0.1338538402259997  2.6150538607720000  2.6415003040190004
 -0.8028704777379998  5.4607236365360006 -1.3167613703220002
 -3.1429279431150001  5.8417148607720000  2.9451384211960003
 -0.4581793803360002  5.2617160927000004  2.6350672568430005
  2.9229631277270003  0.9925983634640000  5.2696378602310006
  4.1945432676780001  4.4182669072999996 -3.9448924754050001
  4.0796609641460000  2.2340626365360001  3.6338046684660004
 -2.1116750707300000  5.6427266769019999  0.9992516784400000
  2.1011391833880002  4.0372563230980001  2.9451286364489997
  3.5919653028950003  3.8382681392280000  1.3242094155510000
  4.9868809300879997  0.1990010905140000  5.2696196954890002
