Sn Pt
 1.0000000000000000
     6.5422960000000003    0.0000000000000000    0.0000000000000000
     0.0000000000000000   11.6396189999999997    0.0000000000000000
     0.0000000000000000    0.0000000000000000    6.5104470000000001
 Sn  Pt 
  16   4
Cartesian
  4.3641301389440006 10.1884611407940007  2.7110803397400001
  5.4493138610559999  1.4511578592059999  2.7110803397400001
  4.3641301389440006  1.4511578592059999  5.9663038397400001
  5.4493138610559999 10.1884611407940007  5.9663038397400001
  1.0929821389440000 10.1884611407940007  3.7993666602600000
  2.1781658610560002  1.4511578592059999  3.7993666602600000
  2.1781658610560002 10.1884611407940007  0.5441431602600000
  1.0929821389440000  1.4511578592059999  0.5441431602600000
  1.0929821389440000  4.3686516407939999  2.7110803397400001
  2.1781658610560002  7.2709673592059989  2.7110803397400001
  1.0929821389440000  7.2709673592059989  5.9663038397400001
  2.1781658610560002  4.3686516407939999  5.9663038397400001
  4.3641301389440006  4.3686516407939999  3.7993666602600000
  5.4493138610559999  7.2709673592059989  3.7993666602600000
  5.4493138610559999  4.3686516407939999  0.5441431602600000
  4.3641301389440006  7.2709673592059989  0.5441431602600000
  0.0000000000000000  8.7297142500000007  1.6276117500000000
  3.2711480000000002  8.7297142500000007  4.8828352500000003
  3.2711480000000002  2.9099047499999999  1.6276117500000000
  0.0000000000000000  2.9099047499999999  4.8828352500000003
