Ce Si Pd
 1.0000000000000000
     3.9477020000000000    0.0000000000000000   -1.5349960000000000
    -0.5968560000000001    3.9023200000000000   -1.5349960000000000
    -0.0216700000000000   -0.0252370000000000    5.7881159999999996
 Ce  Si  Pd 
   1   2   2
Cartesian
  0.0000000000000000  0.0000000000000000  0.0000000000000000
  2.0693437004339996  2.4099110572279998 -0.5219228984720000
  1.2598322995659998  1.4671719427720000  3.2400468984719999
  2.8007274999999998  0.9629615000000000  1.3590619999999998
  0.5284485000000000  2.9141215000000003  1.3590619999999998
