Pr Si
 1.0000000000000000
     4.1611310000000001   -0.0000000000000000   -1.2082459999999999
    -0.3508330000000000    4.1463150000000004   -1.2082459999999999
    -0.0991200000000000   -0.1078600000000000    7.4281079999999999
 Pr  Si 
   2   4
Cartesian
  3.3969390000000002  2.5644818750000002  0.0446580000000001
  0.3142390000000000  1.4739731250000001  4.9669580000000000
  2.5300900050440007  3.8852325457100005  4.8287521790319996
  1.8024920050439999  0.8294262957100000  2.3229441790320000
  1.9086859949560000  3.2090287042900001  2.6886718209680005
  1.1810879949560003  0.1532224542900000  0.1828638209680001
