Li Sm Os
 1.0000000000000000
     0.0000000000000000    3.5194589999999999    3.5194589999999999
     3.5194589999999999    0.0000000000000000    3.5194589999999999
     3.5194589999999999    3.5194589999999999    0.0000000000000000
 Li  Sm  Os 
   1   2   1
Cartesian
  1.7597294999999999  1.7597294999999999  1.7597294999999999
  0.0000000000000000  0.0000000000000000  0.0000000000000000
  3.5194519610819999  3.5194519610819999  3.5194519610819999
  5.2791955389179996  5.2791955389179996  5.2791955389179996
