Sr Mg Si O 
 1.0000000000000000
     8.0971799999999998    0.0000000000000000    0.0000000000000000
     0.0000000000000000    8.0971799999999998    0.0000000000000000
     0.0000000000000000    0.0000000000000000    5.2265400000000000
 Sr  Mg  Si  O  
   4   2   4  14
Cartesian
  5.3938878739199998  1.3452978739199999  2.6544499086599997
  6.7518821260799999  5.3938878739199998  2.5720900913399998
  1.3452978739199999  2.7032921260800000  2.5720900913399998
  2.7032921260800000  6.7518821260799999  2.6544499086599997
  0.0000000000000000  0.0000000000000000  0.0000000000000000
  4.0485899999999999  4.0485899999999999  0.0000000000000000
  6.9741173283600002  2.9255273283599998  4.9313607004200000
  1.1230626716399998  5.1716526716399995  4.9313607004200000
  5.1716526716399995  6.9741173283600002  0.2951792995800000
  2.9255273283599998  1.1230626716399998  0.2951792995800000
  5.5862768707199999  3.4044593310000000  4.1890509038400001
  2.5109031292799999  4.6927206689999998  4.1890509038400001
  3.4044593310000000  2.5109031292799999  1.0374890961600001
  4.6927206689999998  5.5862768707199999  1.0374890961600001
  7.4530493309999999  1.5376868707200000  4.1890509038400001
  6.5594931292799998  7.4530493309999999  1.0374890961600001
  1.5376868707200000  0.6441306689999999  1.0374890961600001
  0.6441306689999999  6.5594931292799998  4.1890509038400001
  6.9633399817799999  2.9147499817800000  1.3251160454399999
  5.1824300182199998  6.9633399817799999  3.9014239545600002
  4.0485899999999999  0.0000000000000000  0.8611874488800000
  0.0000000000000000  4.0485899999999999  4.3653525511200000
  1.1338400182199999  5.1824300182199998  1.3251160454399999
  2.9147499817800000  1.1338400182199999  3.9014239545600002
