Na Zn F 
 1.0000000000000000
     5.3505159999999998    0.0000000000000000    0.0000000000000000
     0.0000000000000000    5.5832600000000001    0.0000000000000000
     0.0000000000000000    0.0000000000000000    7.7017160000000002
 Na  Zn  F  
   4   4  12
Cartesian
  0.1010337936280000  5.2345574966999999  5.7762869999999999
  2.7762917936279998  3.1403325033000002  1.9254290000000001
  2.5742242063720000  2.4429274967000003  5.7762869999999999
  5.2494822063719999  0.3487025033000000  1.9254290000000001
  2.6752579999999999  0.0000000000000000  3.8508580000000001
  0.0000000000000000  2.7916300000000001  3.8508580000000001
  0.0000000000000000  2.7916300000000001  0.0000000000000000
  2.6752579999999999  0.0000000000000000  0.0000000000000000
  3.7138680628239999  1.6828057305200002  3.4033497918199997
  1.0386100628240000  1.1088242694799999  4.2983662081800000
  4.3119059371760002  4.4744357305199998  0.4475082081800000
  1.6366479371759999  3.9004542694800004  7.2542077918200008
  1.6366479371759999  3.9004542694800004  4.2983662081800000
  4.3119059371760002  4.4744357305199998  3.4033497918199997
  1.0386100628240000  1.1088242694799999  7.2542077918200008
  3.7138680628239999  1.6828057305200002  0.4475082081800000
  0.5958869669200000  2.5643019858400002  1.9254290000000001
  3.2711449669199997  0.2273280141600000  5.7762869999999999
  2.0793710330799997  5.3559319858399999  1.9254290000000001
  4.7546290330799996  3.0189580141599999  5.7762869999999999
