Cs Te I 
 1.0000000000000000
     7.2655839999999996    0.0000000000000000    4.1947869999999998
     2.4218609999999998    6.8500579999999998    4.1947869999999998
     0.0000000000000000    0.0000000000000000    8.3895730000000004
 Cs  Te  I  
   2   1   6
Cartesian
  2.4218612500000001  1.7125144999999999  4.1947867500000005
  7.2655837499999993  5.1375434999999996 12.5843602499999996
  0.0000000000000000  0.0000000000000000  0.0000000000000000
  6.0581697928980001  1.7075413578920000  6.2860894200019999
  7.2726168350699991  5.1425166421080002  8.3895737507259991
  2.4148281649299999  1.7075413578920000  8.3895732492740009
  6.0581697928980001  1.7075413578920000 10.4930575799980002
  3.6292752071019998  5.1425166421080002  6.2860894200019999
  3.6292752071019998  5.1425166421080002 10.4930575799980002
