Ca Al
 1.0000000000000000
     4.3487200000000001    0.0000000000000000    0.0000000000000000
     0.0000000000000000    4.3487200000000001    0.0000000000000000
     0.0000000000000000    0.0000000000000000   11.2325199999999992
 Ca  Al 
   2   8
Cartesian
  0.0000000000000000  0.0000000000000000  0.0000000000000000
  2.1743600000000001  2.1743600000000001  5.6162599999999996
  2.1743600000000001  0.0000000000000000  8.4243899999999989
  2.1743600000000001  2.1743600000000001  9.9559665670399990
  2.1743600000000001  2.1743600000000001  1.2765534329599999
  0.0000000000000000  2.1743600000000001  8.4243899999999989
  0.0000000000000000  2.1743600000000001  2.8081299999999998
  0.0000000000000000  0.0000000000000000  4.3397065670399995
  0.0000000000000000  0.0000000000000000  6.8928134329599988
  2.1743600000000001  0.0000000000000000  2.8081299999999998
