Ca P  Cl
 1.0000000000000000
     5.6894739999999997    0.0000000000000000    0.0000000000000000
     0.0000000000000000    5.6894739999999997    0.0000000000000000
     0.0000000000000000    0.0000000000000000    5.6894739999999997
 Ca  P   Cl 
   3   1   3
Cartesian
  0.0000000000000000  2.8447369999999998  0.0000000000000000
  0.0000000000000000  0.0000000000000000  2.8447369999999998
  2.8447369999999998  0.0000000000000000  0.0000000000000000
  0.0000000000000000  0.0000000000000000  0.0000000000000000
  2.8447369999999998  2.8447369999999998  0.0000000000000000
  0.0000000000000000  2.8447369999999998  2.8447369999999998
  2.8447369999999998  0.0000000000000000  2.8447369999999998
