Sm Bi Br O 
 1.0000000000000000
     3.9582920000000001    0.0000000000000000    0.0000000000000000
     0.0000000000000000    3.9582920000000001    0.0000000000000000
     0.0000000000000000    0.0000000000000000    9.4043299999999999
 Sm  Bi  Br  O  
   1   2   1   4
Cartesian
  0.0000000000000000  0.0000000000000000  0.0000000000000000
  1.9791460000000001  1.9791460000000001  2.5400060853700004
  1.9791460000000001  1.9791460000000001  6.8643239146299999
  0.0000000000000000  0.0000000000000000  4.7021649999999999
  1.9791460000000001  0.0000000000000000  1.4362762992500000
  1.9791460000000001  0.0000000000000000  7.9680537007499996
  0.0000000000000000  1.9791460000000001  7.9680537007499996
  0.0000000000000000  1.9791460000000001  1.4362762992500000
