Ti Ni S 
 1.0000000000000000
     5.2842789999999997    0.0034770000000000    4.0022479999999998
     1.9912799999999999    4.8947250000000002    4.0022609999999998
     0.0051570000000000    0.0034540000000000    6.6288410000000004
 Ti  Ni  S  
   3   1   6
Cartesian
  4.8850857600719992  3.2888298077969997  9.8184257849609988
  2.3956302399279998  1.6128261922030003  4.8149242150390004
  0.0000000000000000  0.0000000000000000  0.0000000000000000
  3.6403579999999995  2.4508280000000000  7.3166750000000000
  1.9671957293699998  3.6608030574069996  6.1029026915089997
  4.7768633458250003  2.0336048147490002  5.2500278600499994
  2.3757148213930002  0.4453721218520000  6.9767012249910003
  5.3135202706299998  1.2408529425929999  8.5304473084910004
  4.9050011786069998  4.4562838781479996  7.6566487750089998
  2.5038526541749997  2.8680511852510002  9.3833221399499998
