Na Pr O 
 1.0000000000000000
     4.4311540000000003    0.0000000000000000   -1.7656600000000000
    -0.7035550000000000    4.3749440000000002   -1.7656600000000000
     0.0272880000000000    0.0320260000000000    6.5115910000000001
 Na  Pr  O  
   2   2   4
Cartesian
  3.8097813750000000  0.5708875000000000  3.1180332499999999
 -0.0548943750000000  3.8360825000000003 -0.1377622500000000
  2.5124601250000000  1.6486105000000002 -0.1377622500000000
  1.2424268750000003  2.7583595000000001  3.1180332499999999
  0.4165360133000000  1.7890425774560001  1.0453522962320001
  1.7138572633000002  0.7113195774560001  4.3011477962319997
  2.0410297367000001  3.6956504225440003 -1.3208767962320000
  3.3383509867000005  2.6179274225440001  1.9349187037680000
