Pr S 
 1.0000000000000000
     3.5561550000000000   -0.0000000000000000    2.0531470000000001
     1.1853840000000000    3.3527740000000001    2.0531470000000001
     0.0000000000000000    0.0000000000000000    4.1062940000000001
 Pr  S  
   1   1
Cartesian
  0.0000000000000000  0.0000000000000000  0.0000000000000000
  2.3707694999999998  1.6763870000000001  4.1062940000000001
