Er Cl O 
 1.0000000000000000
     4.1183909999999999    0.0000000000000000    0.0000000000000000
     0.0000000000000000    8.5840049999999994    0.0000000000000000
     0.0000000000000000    0.0000000000000000    3.7130770000000002
 Er  Cl  O  
   2   2   2
Cartesian
  0.0000000000000000  1.0359949794450001  1.8565385000000001
  2.0591955000000000  7.5480100205549991  0.0000000000000000
  0.0000000000000000  2.9162869386749999  0.0000000000000000
  2.0591955000000000  5.6677180613249991  1.8565385000000001
  0.0000000000000000  8.3182098691800004  0.0000000000000000
  2.0591955000000000  0.2657951308199999  1.8565385000000001
