Er Ir
 1.0000000000000000
     3.3719310000000000    0.0000000000000000    0.0000000000000000
     0.0000000000000000    3.3719310000000000    0.0000000000000000
     0.0000000000000000    0.0000000000000000    3.3719310000000000
 Er  Ir 
   1   1
Cartesian
  0.0000000000000000  0.0000000000000000  0.0000000000000000
  1.6859655000000000  1.6859655000000000  1.6859655000000000
