Li Pd Au
 1.0000000000000000
    -0.0001800000000000    3.0059659999999999    3.0059659999999999
     3.0059659999999999   -0.0001800000000000    3.0059659999999999
     3.0059659999999999    3.0059659999999999   -0.0001800000000000
 Li  Pd  Au 
   2   1   1
Cartesian
  3.0058759999999998  3.0058759999999998  3.0058759999999998
  0.0000060117520000  0.0000060117520000  0.0000060117520000
  4.5088140000000001  4.5088139999999992  4.5088139999999992
  1.5029379999999999  1.5029379999999999  1.5029379999999999
