Li Ni Sn
 1.0000000000000000
     3.6382050000000001    0.0000000000000000    2.1005189999999998
     1.2127349999999999    3.4301330000000001    2.1005189999999998
     0.0000000000000000    0.0000000000000000    4.2010379999999996
 Li  Ni  Sn 
   1   2   1
Cartesian
  2.4254699999999998  1.7150665000000000  4.2010379999999996
  3.6382050000000001  2.5725997500000002  6.3015569999999990
  1.2127349999999999  0.8575332500000000  2.1005189999999998
  0.0000000000000000  0.0000000000000000  0.0000000000000000
