Li Al
 1.0000000000000000
     4.3295990000000000    0.0006870000000000   -1.0206370000000000
    -0.3359350000000000    5.1676250000000001   -1.3937370000000000
     0.0110140000000000   -0.0112930000000000    9.5878879999999995
 Li  Al 
   9   4
Cartesian
  0.7240129030280000  4.3431123323740000  3.0498570808719996
  1.1826768557820000  2.4469983511110001  4.9255327225860004
  2.8220011442180000  2.7100206488890004  2.2479812774140000
  2.2435591618110000  1.6777302934479998 -0.1671280779249999
  3.2806650969720001  0.8139066676259999  4.1236569191279999
  1.7611188381890002  3.4792887065520004  7.3406420779249988
  0.0000000000000000  0.0000000000000000  0.0000000000000000
  3.8473133486819999  1.8468504628710001  6.5246490823020000
  0.1573646513180000  3.3101685371289999  0.6488649176979998
  2.3484687105850002  4.8300872855099994  0.2652778284730001
  1.6562092894150000  0.3269317144900000  6.9082361715269993
  0.5803509624170000  1.1058256223659999  2.4341102043209997
  3.4243270375830002  4.0511933776340010  4.7394037956789994
