Zn P 
 1.0000000000000000
     5.0527189999999997    0.0000000000000000    0.0000000000000000
     0.0000000000000000    5.0527189999999997    0.0000000000000000
     0.0000000000000000    0.0000000000000000   18.4153419999999990
 Zn  P  
   8  16
Cartesian
  1.7431880549999998  4.3606986057599997  8.2715455047719999
  3.3095309450000001  0.6920203942399999 17.4792165047719976
  4.3606986057599997  1.7431880549999998 10.1437964952280009
  1.8343391057599998  0.7831714449999999 12.8753810047719988
  3.2183798942399995  4.2695475549999999  3.6677100047720002
  0.7831714449999999  1.8343391057599998  5.5399609952279993
  4.2695475549999999  3.2183798942399995 14.7476319952279997
  0.6920203942399999  3.3095309450000001  0.9361254952279999
  5.0047484858139999  0.0928184480300000  6.9234503936619998
  0.0479705141860000  4.9599005519699997 16.1311213936619993
  0.0928184480300000  5.0047484858139999 11.4918916063379992
  2.6191779480299999  2.5743300141859997 11.5272858936619986
  2.4335410519699998  2.4783889858140000  2.3196148936619996
  2.5743300141859997  2.6191779480299999  6.8880561063379995
  2.4783889858140000  2.4335410519699998 16.0957271063379999
  4.9599005519699997  0.0479705141860000  2.2842206063379997
  4.0557569086719996  1.6131613842539998  1.0910537674740000
  0.9131981157460000  1.5293974086719999 14.9025602674739996
  4.1395208842539999  3.5233215913280000  5.6948892674739993
  1.5293974086719999  0.9131981157460000  3.5127817325259998
  3.5233215913280000  4.1395208842539999 12.7204527325259988
  0.9969620913279998  3.4395576157459997 10.2987247674740008
  1.6131613842539998  4.0557569086719996 17.3242882325259977
  3.4395576157459997  0.9969620913279998  8.1166172325260000
