Lu Cu Pb
 1.0000000000000000
     2.2574369999999999   -3.9099960000000000    0.0000000000000000
     2.2574369999999999    3.9099960000000000    0.0000000000000000
     0.0000000000000000    0.0000000000000000    7.2274050000000001
 Lu  Cu  Pb 
   2   2   2
Cartesian
  0.0000000000000000  0.0000000000000000  7.1992542575250003
  0.0000000000000000  0.0000000000000000  3.5855517575250002
  2.2574369999999999 -1.3033346066639999  2.4095228707350000
  2.2574369999999999  1.3033346066639999  6.0232253707350001
  2.2574369999999999  1.3033346066639999  1.6442924567399999
  2.2574369999999999 -1.3033346066639999  5.2579949567400002
