Ba Tb Ru O 
 1.0000000000000000
     2.9833580000000000   -5.1673280000000004    0.0000000000000000
     2.9833580000000000    5.1673280000000004    0.0000000000000000
     0.0000000000000000    0.0000000000000000   14.6400140000000007
 Ba  Tb  Ru  O  
   6   2   4  18
Cartesian
  2.9833580000000000  1.7224461115520002  8.7162544152080006
  0.0000000000000000  0.0000000000000000  3.6600035000000002
  2.9833580000000000 -1.7224461115520002  5.9237595847920002
  2.9833580000000000 -1.7224461115520002  1.3962474152080000
  2.9833580000000000  1.7224461115520002 13.2437665847920005
  0.0000000000000000  0.0000000000000000 10.9800105000000006
  0.0000000000000000  0.0000000000000000  7.3200070000000004
  0.0000000000000000  0.0000000000000000  0.0000000000000000
  2.9833580000000000  1.7224461115520002  4.9107438160620003
  2.9833580000000000 -1.7224461115520002 12.2307508160620007
  2.9833580000000000 -1.7224461115520002  9.7292701839380005
  2.9833580000000000  1.7224461115520002  2.4092631839380001
  2.9833580000000000  3.3437779488000001  1.2980422012960002
  1.5792435406580001  0.9117801929280003  1.2980422012960002
  4.3874724593419998  0.9117801929280004  1.2980422012960002
  1.5792435406579999 -0.9117801929280002  8.6180492012959995
  4.3874724593419998 -0.9117801929280004 13.3419717987040016
  2.9833580000000000 -3.3437779488000006  8.6180492012959995
  4.3874724593419998 -0.9117801929280004  8.6180492012959995
  2.9833580000000000  3.3437779488000001  6.0219647987040004
  4.3874724593419998  0.9117801929280004  6.0219647987040004
  1.5792435406579999 -0.9117801929280002 13.3419717987040016
  2.9833580000000000 -3.3437779488000006 13.3419717987040016
  1.5792435406580001  0.9117801929280003  6.0219647987040004
  4.3876812944020003  2.5332257113919998  3.6600035000000002
  2.9833580000000000 -0.1008662425599997 10.9800105000000006
  4.3876812944020003 -2.5332257113920003 10.9800105000000006
  1.5790347055979999  2.5332257113920003  3.6600035000000002
  2.9833580000000000  0.1008662425599997  3.6600035000000002
  1.5790347055980001 -2.5332257113919998 10.9800105000000006
