Fe Cu Pt
 1.0000000000000000
     3.9661580000000001    0.0000000000000000    0.0000000000000000
     0.0000000000000000    3.9661580000000001    0.0000000000000000
     0.0000000000000000    0.0000000000000000    3.5886740000000001
 Fe  Cu  Pt 
   1   1   2
Cartesian
  1.9830790000000000  1.9830790000000000  0.0000000000000000
  0.0000000000000000  0.0000000000000000  0.0000000000000000
  0.0000000000000000  1.9830790000000000  1.7943370000000001
  1.9830790000000000  0.0000000000000000  1.7943370000000001
