Hf In
 1.0000000000000000
     3.0573640000000002    0.0000000000000000    0.0000000000000000
     0.0000000000000000   10.3084249999999997    0.0000000000000000
     0.0000000000000000    0.0000000000000000   10.3084249999999997
 Hf  In 
   4  10
Cartesian
  1.5286820000000001  8.4547743249250011  3.3005618249249999
  1.5286820000000001  7.0078631750749993  8.4547743249250011
  1.5286820000000001  3.3005618249249999  1.8536506750749999
  1.5286820000000001  1.8536506750749999  7.0078631750749993
  0.0000000000000000  2.9972879614249996  4.5156674217999999
  0.0000000000000000  7.3111370385749996  5.7927575781999998
  0.0000000000000000  4.5156674217999999  7.3111370385749996
  0.0000000000000000  5.7927575781999998  2.9972879614249996
  0.0000000000000000  0.0000000000000000  5.1542124999999999
  0.0000000000000000  5.1542124999999999  0.0000000000000000
  0.0000000000000000  0.6385450781999999  2.1569245385750002
  0.0000000000000000  8.1515004614250000  0.6385450781999999
  0.0000000000000000  2.1569245385750002  9.6698799217999998
  0.0000000000000000  9.6698799217999998  8.1515004614250000
