Eu Mg Sb
 1.0000000000000000
     4.7072799999999999    0.0000000000000000    0.0000000000000000
    -2.3536400000000000    4.0766239999999998    0.0000000000000000
     0.0000000000000000    0.0000000000000000    7.7163979999999999
 Eu  Mg  Sb 
   1   2   2
Cartesian
  0.0000000000000000  0.0000000000000000  0.0000000000000000
  2.3536423536400002  1.3588733077919999  2.8484697397100001
 -0.0000023536400000  2.7177506922079999  4.8679282602900003
 -0.0000023536400000  2.7177506922079999  1.9522641267959999
  2.3536423536400002  1.3588733077919999  5.7641338732039999
