Ca Zn Sn
 1.0000000000000000
     4.6998490000000004    0.0000000000000000    0.0000000000000000
    -2.3499249999999998    4.0701890000000001    0.0000000000000000
     0.0000000000000000    0.0000000000000000    7.6006010000000002
 Ca  Zn  Sn 
   2   2   2
Cartesian
  0.0000000000000000  0.0000000000000000  1.8614023861020002
  0.0000000000000000  0.0000000000000000  5.6617028861019998
 -0.0000026832579998  2.7134606900630001  0.4290159234450000
  2.3499266832580004  1.3567283099370000  4.2293164234449998
 -0.0000026832579998  2.7134606900630001  3.5301219362530003
  2.3499266832580004  1.3567283099370000  7.3304224362530004
