Ba S  O 
 1.0000000000000000
     5.4690320000000003    0.0000000000000000    0.0000000000000000
     0.0000000000000000    7.1882539999999997    0.0000000000000000
     0.0000000000000000    0.0000000000000000    8.9139389999999992
 Ba  S   O  
   4   4  16
Cartesian
  1.3672580000000001  6.0614161147059997  6.1069930925339992
  4.1017740000000007  1.1268378852940000  2.8069459074659999
  4.1017740000000007  2.4672891147059999  7.2639154074659995
  1.3672580000000001  4.7209648852940003  1.6500235925339999
  1.3672580000000001  2.2232191383899997  5.0089473446969990
  4.1017740000000007  4.9650348616099995  3.9049916553029997
  4.1017740000000007  5.8173461383899996  8.3619611553029998
  1.3672580000000001  1.3709078616099999  0.5519778446970000
  2.8998667134880001  5.8273809409739998  3.7425618588449994
  0.1653507134880000  1.3608730590259999  5.1713771411549994
  2.5691652865120003  2.2332539409740000  0.7144076411549999
  5.3036812865120000  4.9550000590260002  8.1995313588449985
  2.5691652865120003  1.3608730590259999  5.1713771411549994
  5.3036812865120000  5.8273809409739998  3.7425618588449994
  2.8998667134880001  4.9550000590260002  8.1995313588449985
  0.1653507134880000  2.2332539409740000  0.7144076411549999
  1.3672580000000001  2.8126847194060001  3.6691912269359994
  4.1017740000000007  4.3755692805940001  5.2447477730639998
  4.1017740000000007  6.4068117194059999  0.7877782730639999
  1.3672580000000001  0.7814422805940000  8.1261607269359999
  1.3672580000000001  0.3524257171120000  1.6182632278769999
  4.1017740000000007  6.8358282828880004  7.2956757721229994
  4.1017740000000007  3.9465527171119996  2.8387062721229999
  1.3672580000000001  3.2417012828879996  6.0752327278769993
