Be Cu
 1.0000000000000000
     2.6965479999999999    0.0000000000000000    0.0000000000000000
     0.0000000000000000    2.6965479999999999    0.0000000000000000
     0.0000000000000000    0.0000000000000000    2.6965479999999999
 Be  Cu 
   1   1
Cartesian
  0.0000000000000000  0.0000000000000000  0.0000000000000000
  1.3482740000000000  1.3482740000000000  1.3482740000000000
