Lu Ga Rh
 1.0000000000000000
    -0.0000070000000000    3.1566909999999999    3.1566909999999999
     3.1566909999999999   -0.0000070000000000    3.1566909999999999
     3.1566909999999999    3.1566909999999999   -0.0000070000000000
 Lu  Ga  Rh 
   1   1   2
Cartesian
  4.7350375633750001  4.7350375633750001  4.7350375633750001
  1.5783437499999999  1.5783437499999999  1.5783437499999999
  0.0000000000000000  0.0000000000000000  0.0000000000000000
  3.1566811866250002  3.1566811866250002  3.1566811866250002
