Ti Ge Pt
 1.0000000000000000
     2.9741719999999998    2.9741719999999998    0.0000000000000000
     2.9741719999999998    0.0000000000000000   -2.9741719999999998
     0.0000000000000000    2.9741719999999998   -2.9741719999999998
 Ti  Ge  Pt 
   1   1   1
Cartesian
  0.0000000000000000  0.0000000000000000  0.0000000000000000
  2.9741719999999998  2.9741719999999998 -2.9741719999999998
  4.4612579999999999  4.4612579999999999 -4.4612579999999999
