Eu Cd
 1.0000000000000000
     3.9168539999999998    0.0000000000000000    0.0000000000000000
     0.0000000000000000    3.9168539999999998    0.0000000000000000
     0.0000000000000000    0.0000000000000000    3.9168539999999998
 Eu  Cd 
   1   1
Cartesian
  1.9584269999999999  1.9584269999999999  1.9584269999999999
  0.0000000000000000  0.0000000000000000  0.0000000000000000
