Na Pt O 
 1.0000000000000000
    -1.5699909999999999    2.2770739999999998    4.7157989999999996
     1.5699909999999999   -2.2770739999999998    4.7157989999999996
     1.5699909999999999    2.2770739999999998   -4.7157989999999996
 Na  Pt  O  
   2   1   2
Cartesian
  0.0000000000000001  0.0000000000000000  6.3805137733919999
  0.0000000000000000 -0.0000000000000000  3.0510842266079998
  0.0000000000000000  0.0000000000000000  0.0000000000000000
  0.0000000000000001  2.2770739999999998  3.3909424289400003
  1.5699909999999999  0.0000000000000000  1.3248565710599998
