Mn Rh
 1.0000000000000000
     3.0416539999999999    0.0000000000000000    0.0000000000000000
     0.0000000000000000    3.0416539999999999    0.0000000000000000
     0.0000000000000000    0.0000000000000000    3.0416539999999999
 Mn  Rh 
   1   1
Cartesian
  0.0000000000000000  0.0000000000000000  0.0000000000000000
  1.5208269999999999  1.5208269999999999  1.5208269999999999
