Al Re
 1.0000000000000000
     3.0030939999999999    0.0000000000000000    0.0000000000000000
     0.0000000000000000    3.0030939999999999    0.0000000000000000
     0.0000000000000000    0.0000000000000000    9.6683550000000000
 Al  Re 
   2   4
Cartesian
  0.0000000000000000  0.0000000000000000  0.0000000000000000
  1.5015470000000000  1.5015470000000000  4.8341775000000000
  1.5015470000000000  1.5015470000000000  8.0381253216750004
  1.5015470000000000  1.5015470000000000  1.6302296783249999
  0.0000000000000000  0.0000000000000000  3.2039478216749999
  0.0000000000000000  0.0000000000000000  6.4644071783249997
