Cd In S 
 1.0000000000000000
     0.0000000000000000    5.4630590000000003    5.4630590000000003
     5.4630590000000003    0.0000000000000000    5.4630590000000003
     5.4630590000000003    5.4630590000000003    0.0000000000000000
 Cd  In  S  
   2   4   8
Cartesian
  5.4630590000000003  5.4630590000000003  5.4630590000000003
  8.1945885000000001  8.1945885000000001  8.1945885000000001
  4.0972942500000000  4.0972942500000000  1.3657647500000001
  1.3657647500000001  1.3657647500000001  1.3657647500000001
  4.0972942500000000  1.3657647500000001  4.0972942500000000
  1.3657647500000001  4.0972942500000000  4.0972942500000000
  6.7237035687220006  6.7237035687220006  9.6654734312780004
  9.6654734312780004  6.7237035687220006  6.7237035687220006
  6.7237035687220006  9.6654734312780004  6.7237035687220006
  3.9921740687220004  3.9921740687220004  3.9921740687220004
  9.6654734312780004  9.6654734312780004  9.6654734312780004
  3.9921740687220004  6.9339439312780007  6.9339439312780007
  6.9339439312780007  3.9921740687220004  6.9339439312780007
  6.9339439312780007  6.9339439312780007  3.9921740687220004
