Nd Cl
 1.0000000000000000
     7.4747709999999996    0.0000070000000000    0.0000000000000000
    -3.7373900000000000    6.4733359999999998    0.0000000000000000
     0.0000000000000000    0.0000000000000000    4.2492760000000001
 Nd  Cl 
   2   6
Cartesian
  3.7373877373869999  2.1577811755570000  3.1869570000000000
 -0.0000067373870003  4.3155618244429998  1.0623190000000000
  1.9595417192170004  4.5096214310589993  3.1869570000000000
  4.5490942974419992  3.9518291380960000  1.0623190000000000
  1.7778392807829999  1.9637215689409999  1.0623190000000000
 -0.8117132974420002  2.5215138619039998  3.1869570000000000
 -1.1478374217750003  5.9155437070370001  3.1869570000000000
  4.8852184217749990  0.5577992929629999  1.0623190000000000
