Sc Si
 1.0000000000000000
     7.8990929999999997    0.0000000000000000    0.0000000000000000
    -3.9495459999999998    6.8408150000000001    0.0000000000000000
     0.0000000000000000    0.0000000000000000    5.8322839999999996
 Sc  Si 
  10   6
Cartesian
 -2.9958807237479999  5.1890181284700008  4.3742129999999992
 -0.9536652762520000  1.6517968715300000  1.4580709999999999
  2.9958814822860003  5.1890181284700008  1.4580709999999999
  5.9917622060340001  0.0000000000000000  4.3742129999999992
  0.9536655177140000  1.6517968715300000  4.3742129999999992
  1.9073307939660000  0.0000000000000000  1.4580709999999999
 -0.0000036162129999  4.5605456136050000  2.9161419999999998
  3.9495506162130001  2.2802693863950001  0.0000000000000000
  3.9495506162130001  2.2802693863950001  2.9161419999999998
 -0.0000036162129999  4.5605456136050000  0.0000000000000000
  3.1211291216250001  0.0000000000000000  4.3742129999999992
  1.5605647583750002  2.7029770268750002  1.4580709999999999
 -2.3889816367500001  4.1378379731250003  1.4580709999999999
 -1.5605643632499999  2.7029770268750002  4.3742129999999992
  2.3889822416249999  4.1378379731250003  4.3742129999999992
  4.7779638783750000  0.0000000000000000  1.4580709999999999
