Li Pd
 1.0000000000000000
     3.8508380000000000    0.0000000000000000   -0.0000010000000000
     0.0000000000000000    3.8506640000000001    0.0000000000000000
    -0.0000010000000000    0.0000000000000000    3.8484900000000000
 Li  Pd 
   1   3
Cartesian
  0.0000000000000000  0.0000000000000000  0.0000000000000000
  0.0000033508380000  1.9253320000000000  1.9242449999989999
  1.9254184999990001  0.0000038506640000  1.9242483484900001
  1.9254228508369999  1.9253358506640001  0.0000033484890000
