Te As
 1.0000000000000000
     4.0351480000000004    0.0000000000000000    0.0000000000000000
    -2.0175740000000002    7.4764720000000002   -0.6139640000000000
     0.0000000000000000    0.0702010000000000   10.1544729999999994
 Te  As 
   6   4
Cartesian
 -0.0000000000000000  0.6250165950630001  2.8787138391989999
  2.0175740000000006  6.9216564049370000  6.6617951608010006
  2.0175699648520000  4.1794808154609999  3.0434444926929998
  0.0000040351480000  3.3671921845389998  6.4970645073069999
 -0.0000060527220000  5.5098882717160000 -0.1660723799120000
  2.0175800527220003  2.0367847282840001  9.7065813799119987
  2.0175760175739996  1.8432547907550003  4.2653593969349997
 -0.0000020175740001  5.7034182092450001  5.2751496030650005
 -0.0000020175739999  3.1087354687760000  1.1811260459480000
  2.0175760175740001  4.4379375312239997  8.3593829540520002
