Mg Cl
 1.0000000000000000
     3.6381340000000000    0.0000000000000000    0.0000000000000000
    -1.8190670000000000    3.1507170000000002    0.0000000000000000
     0.0000000000000000    0.0000000000000000   18.1865600000000001
 Mg  Cl 
   3   6
Cartesian
  0.0000000000000000  0.0000000000000000  0.0000000000000000
  1.8190688190670001  1.0502379497609999  6.0621806044800000
 -0.0000018190670001  2.1004790502390001 12.1243793955200001
  0.0000000000000000  0.0000000000000000  4.6933509795199999
  1.8190688190670001  1.0502379497609999  1.3688478115200000
  1.8190688190670001  1.0502379497609999 10.7555315839999999
 -0.0000018190670001  2.1004790502390001  7.4310284160000002
 -0.0000018190670001  2.1004790502390001 16.8177121884800016
  0.0000000000000000  0.0000000000000000 13.4932090204799984
