Fe Si
 1.0000000000000000
     9.8771719999999998    0.0000000000000000    0.0000000000000000
     0.0000000000000000    7.7732070000000002    0.0000000000000000
     0.0000000000000000    0.0000000000000000    7.8175939999999997
 Fe  Si 
  16  32
Cartesian
  0.0000000000000000  1.4964667188120000  6.3502706941699998
  0.0000000000000000  2.3901367811880001  2.4414736941699999
  0.0000000000000000  5.3830702188120005  5.3761203058299998
  0.0000000000000000  6.2767402811880002  1.4673233058299999
  7.0772604216440005  0.0000000000000000  3.9087969999999999
  7.7384975783559993  0.0000000000000000  0.0000000000000000
  2.7999115783559998  0.0000000000000000  3.9087969999999999
  2.1386744216440001  0.0000000000000000  0.0000000000000000
  4.9385859999999999  5.3830702188120005  6.3502706941699998
  4.9385859999999999  6.2767402811880002  2.4414736941699999
  4.9385859999999999  1.4964667188120000  5.3761203058299998
  4.9385859999999999  2.3901367811880001  1.4673233058299999
  2.1386744216440001  3.8866035000000001  3.9087969999999999
  2.7999115783559998  3.8866035000000001  0.0000000000000000
  7.7384975783559993  3.8866035000000001  3.9087969999999999
  7.0772604216440005  3.8866035000000001  0.0000000000000000
  6.1882951872999996  0.3483873645330000  1.7733273877719999
  8.6274628126999993  7.4248196354670002  5.6821243877719994
  8.6274628126999993  0.3483873645330000  2.1354696122279999
  6.1882951872999996  7.4248196354670002  6.0442666122280002
  3.6888768126999998  7.4248196354670002  6.0442666122280002
  1.2497091872999999  0.3483873645330000  2.1354696122279999
  1.2497091872999999  7.4248196354670002  5.6821243877719994
  3.6888768126999998  0.3483873645330000  1.7733273877719999
  1.2657398374560000  2.1273868381740000  0.3890816533800000
  8.6114321625440002  1.7592166618259999  4.2978786533799997
  8.6114321625440002  6.0139903381739996  3.5197153466200000
  1.2657398374560000  5.6458201618260002  7.4285123466199998
  8.6114321625440002  5.6458201618260002  7.4285123466199998
  1.2657398374560000  6.0139903381739996  3.5197153466200000
  1.2657398374560000  1.7592166618259999  4.2978786533799997
  8.6114321625440002  2.1273868381740000  0.3890816533800000
  1.2497091872999999  4.2349908645330006  1.7733273877719999
  3.6888768126999998  3.5382161354670001  5.6821243877719994
  3.6888768126999998  4.2349908645330006  2.1354696122279999
  1.2497091872999999  3.5382161354670001  6.0442666122280002
  8.6274628126999993  3.5382161354670001  6.0442666122280002
  6.1882951872999996  4.2349908645330006  2.1354696122279999
  6.1882951872999996  3.5382161354670001  5.6821243877719994
  8.6274628126999993  4.2349908645330006  1.7733273877719999
  6.2043258374560004  6.0139903381739996  0.3890816533800000
  3.6728461625440003  5.6458201618260002  4.2978786533799997
  3.6728461625440003  2.1273868381740000  3.5197153466200000
  6.2043258374560004  1.7592166618259999  7.4285123466199998
  3.6728461625440003  1.7592166618259999  7.4285123466199998
  6.2043258374560004  2.1273868381740000  3.5197153466200000
  6.2043258374560004  5.6458201618260002  4.2978786533799997
  3.6728461625440003  6.0139903381739996  0.3890816533800000
