Er N 
 1.0000000000000000
     2.9501650000000001    0.0000000000000000    1.7032790000000000
     0.9833880000000000    2.7814420000000002    1.7032790000000000
     0.0000000000000000    0.0000000000000000    3.4065569999999998
 Er  N  
   1   1
Cartesian
  0.0000000000000000  0.0000000000000000  0.0000000000000000
  1.9667765000000001  1.3907210000000001  3.4065574999999999
