Li
 1.0000000000000000
     3.0655630000000000    0.0000000000000000    0.0000000000000000
    -1.5327809999999999    2.6548550000000000    0.0000000000000000
     0.0000000000000000    0.0000000000000000    4.9791330000000000
 Li 
   2
Cartesian
 -0.0000011994479999  1.7699042182850000  1.2447832500000000
  1.5327831994480001  0.8849507817150000  3.7343497499999998
