Sc Si Ni
 1.0000000000000000
    -0.0003320000000000    5.6753650000000002    5.6753640000000001
     5.6753770000000001   -0.0003450000000000    5.6753770000000001
     5.6753689999999999    5.6753689999999999   -0.0003360000000000
 Sc  Si  Ni 
   6   7  16
Cartesian
  5.6751337696510005  5.6751217327980008  8.0419304323540004
  5.6753005928359999  3.3084718256599999  5.6752752665520001
  3.3084788584629998  5.6752883013360007  5.6752755211480004
  5.6752802303489993  5.6752672672019999  3.3084745676459999
  5.6751190825330005  8.0419228497089996  5.6751297331119996
  8.0419351415369995  5.6751006986640000  5.6751294788519999
  5.6750449999999999  5.6750200000000000 11.3507409999999993
  8.5127295009639994  8.5127101767610007 11.3505332710559994
  8.5129011743490004  5.6750617286059999  8.5128909986169994
  5.6750750532340000  8.5128769989770010  8.5128844990310011
  8.5128971744049995  8.5128789986080005  5.6750742286079996
  8.5127255010200003 11.3505274467629995  8.5127165010470005
 11.3505459467659993  8.5127065010229988  8.5127230009690003
  7.0311280000590006  7.0310435538420002  9.9946213325700004
  7.0310954450179999  9.9946062681920012  7.0310648173920001
  9.9946385195270011  7.0310626688460003  7.0311170095850004
  9.9944367938459990  9.9943523477039982  9.9944118419789980
  4.3197740956069994  4.3198335428989996  1.3552955422230000
  4.3198066520239999  1.3552946057410000  4.3198282800370000
  1.3552873555670000  4.3198144272070005  4.3197760856079999
  1.3554834629829999  1.3555429101999998  1.3555050909419999
  9.4267639600659994  9.4267188444559995  7.5987893011010001
  9.4267665366180005  7.5987473121899995  9.4267605112980011
  7.5988079667710000  9.4267005297440001  9.4267392979859999
  7.5990283961589995  7.5989832802739992  7.5990223707399993
  1.9231108643269998  1.9231309787369999  3.7521605825150002
  1.9231026108699998  3.7521865727219996  1.9230996357579999
  3.7521452411360001  1.9231492945580000  1.9231208515530001
  3.7519304237130000  3.7519505383979999  3.7519274487000001
