Mn Al Cu
 1.0000000000000000
     5.9383450000000000    0.0000000000000000    0.0000000000000000
     0.0000000000000000    5.9383450000000000    0.0000000000000000
     0.0000000000000000    0.0000000000000000    5.9383450000000000
 Mn  Al  Cu 
   4   4   8
Cartesian
  0.0000000000000000  0.0000000000000000  0.0000000000000000
  0.0000000000000000  2.9691725000000000  2.9691725000000000
  2.9691725000000000  0.0000000000000000  2.9691725000000000
  2.9691725000000000  2.9691725000000000  0.0000000000000000
  2.9691725000000000  0.0000000000000000  0.0000000000000000
  2.9691725000000000  2.9691725000000000  2.9691725000000000
  0.0000000000000000  0.0000000000000000  2.9691725000000000
  0.0000000000000000  2.9691725000000000  0.0000000000000000
  1.4845862500000000  4.4537587500000004  4.4537587500000004
  4.4537587500000004  1.4845862500000000  1.4845862500000000
  1.4845862500000000  1.4845862500000000  1.4845862500000000
  4.4537587500000004  4.4537587500000004  4.4537587500000004
  4.4537587500000004  4.4537587500000004  1.4845862500000000
  1.4845862500000000  1.4845862500000000  4.4537587500000004
  4.4537587500000004  1.4845862500000000  4.4537587500000004
  1.4845862500000000  4.4537587500000004  1.4845862500000000
