Cd Au
 1.0000000000000000
     5.1511560000000003    0.0000000000000000    1.8171340000000000
     2.5755780000000001    7.6382389999999996    0.9085680000000000
     0.0345620000000000    0.0000000000000000    8.1117570000000008
 Cd  Au 
  10   6
Cartesian
  4.7813619760820005  5.3120133125499995  2.8654230479070004
  2.9799340239180001  2.3262256874499996  7.9720359520930009
  5.9595869983780005  6.5266384400910002  7.7351612485360004
  1.8017090016220001  1.1116005599090000  3.1022977514640000
  6.9528650016220013  6.5266384400910002  4.9194324604020006
  2.9799391750740005  5.3120133125499995  7.9720381601270009
  2.5928590000000002  3.8191194999999998  4.9644460000000006
  5.1684369999999999  3.8191194999999998  5.8730130000000003
  0.8084309983780000  1.1116005599090000  5.9180265395980003
  4.7813568249260001  2.3262256874499996  2.8654208398729999
  5.6179244243479998  3.8191194999999998  8.7036702830060015
  3.8806531511560007  1.2992186244659998  5.4187309872280007
  3.8806428488440003  6.3390203755340000  5.4187280127720001
  2.1433715756520000  3.8191194999999998  2.1337887169940002
  3.8633670000000002  0.0000000000000000  1.3628505000000000
  1.2877890000000001  0.0000000000000000  0.4542835000000000
