Hf Ni Sb
 1.0000000000000000
     7.6577599999999997    0.0000000000000000    0.0000000000000000
    -3.8288799999999998    6.6318149999999996    0.0000000000000000
     0.0000000000000000    0.0000000000000000    3.6136689999999998
 Hf  Ni  Sb 
   6   1   2
Cartesian
  5.8255643423999999  0.0000000000000000  1.8068344999999999
  0.9160978288000000  1.5867280569000000  1.8068344999999999
 -2.9127821711999999  5.0450869430999994  1.8068344999999999
 -1.5248706044000000  2.6411534828250001  0.0000000000000000
  2.3040093955999996  3.9906615171749995  0.0000000000000000
  3.0497412088000000  0.0000000000000000  0.0000000000000000
  0.0000000000000000  0.0000000000000000  0.0000000000000000
 -0.0000038288800003  4.4212122106049998  1.8068344999999999
  3.8288838288799996  2.2106027893949998  1.8068344999999999
