Er Al Si
 1.0000000000000000
     4.0098219999999998    0.0000110000000000   -0.0031070000000000
    -2.0041810000000000    4.9272489999999998   -0.9321100000000000
    -0.0050660000000000   -0.0053690000000000    6.5439610000000004
 Er  Al  Si 
   2   3   2
Cartesian
 -0.0036967539770000  3.7468948037929999  3.7230959668060000
  2.0042717539770001  1.1749961962069999  1.8856480331940002
  2.0016783346239997  1.9186414934990002  5.3121898920430004
  0.0000000000000000  0.0000000000000000  0.0000000000000000
 -0.0011033346240002  3.0032495065010001  0.2965541079570000
  2.0031653277459998  4.0088590242370001  1.5928049245390001
 -0.0025903277460000  0.9130319757629999  4.0159390754610005
