Nd Zn Sn
 1.0000000000000000
     4.5238940000000003    0.0000000000000000    0.0000000000000000
    -2.2619470000000002    3.9178069999999998    0.0000000000000000
     0.0000000000000000    0.0000000000000000   16.7966639999999998
 Nd  Zn  Sn 
   4   4   4
Cartesian
  0.0000000000000000  0.0000000000000000 12.5974979999999999
  0.0000000000000000  0.0000000000000000  4.1991660000000000
  0.0000000000000000  0.0000000000000000  8.3983319999999999
  0.0000000000000000  0.0000000000000000  0.0000000000000000
  2.2619492619470001  1.3059343607309999 14.1527683064159984
  2.2619492619470001  1.3059343607309999 11.0422276935840014
 -0.0000022619470000  2.6118726392689999  2.6438956935839997
 -0.0000022619470000  2.6118726392689999  5.7544363064160002
  2.2619492619470001  1.3059343607309999  1.9555684028639999
  2.2619492619470001  1.3059343607309999  6.4427635971360004
 -0.0000022619470000  2.6118726392689999 14.8410955971359986
 -0.0000022619470000  2.6118726392689999 10.3539004028640012
