Sm In Ag
 1.0000000000000000
     4.3053800000000004    0.0000000000000000    2.4857119999999999
     1.4351270000000000    4.0591510000000000    2.4857119999999999
    -0.0000000000000000    0.0000000000000000    4.9714250000000000
 Sm  In  Ag 
   1   1   2
Cartesian
  2.8702535000000005  2.0295755000000000  4.9714244999999995
  0.0000000000000000  0.0000000000000000  0.0000000000000000
  1.4351267500000002  1.0147877500000000  2.4857122499999997
  4.3053802500000007  3.0443632500000000  7.4571367500000001
