Pm
 1.0000000000000000
     3.6761810000000001   -0.0000000000000000    0.0000000000000000
    -1.8380909999999999    3.1836660000000001    0.0000000000000000
     0.0000000000000000    0.0000000000000000   11.7991109999999999
 Pm 
   4
Cartesian
  0.0000000000000000  0.0000000000000000  0.0000000000000000
  0.0000015047570000  2.1224450612220003  2.9497777500000000
  0.0000000000000000  0.0000000000000000  5.8995555000000000
  1.8380903333340000  1.0612177551120001  8.8493332500000008
