Li Rh Pb
 1.0000000000000000
     0.0000000000000000    3.1383709999999998    3.1383709999999998
     3.1383709999999998    0.0000000000000000    3.1383709999999998
     3.1383709999999998    3.1383709999999998    0.0000000000000000
 Li  Rh  Pb 
   1   2   1
Cartesian
  1.5691854999999999  1.5691854999999999  1.5691854999999999
  0.0000000000000000  0.0000000000000000  0.0000000000000000
  3.1383709999999998  3.1383709999999998  3.1383709999999998
  4.7075564999999999  4.7075564999999999  4.7075564999999999
