Tm Pd
 1.0000000000000000
     4.0590130000000002    0.0000000000000000    0.0000000000000000
     0.0000000000000000    4.0590130000000002    0.0000000000000000
     0.0000000000000000    0.0000000000000000    4.0590130000000002
 Tm  Pd 
   1   3
Cartesian
  0.0000000000000000  0.0000000000000000  0.0000000000000000
  2.0295065000000001  0.0000000000000000  2.0295065000000001
  0.0000000000000000  2.0295065000000001  2.0295065000000001
  2.0295065000000001  2.0295065000000001  0.0000000000000000
