Co Sb
 1.0000000000000000
     9.1156170000000003    0.0000000000000000    0.0000000000000000
     0.0000000000000000    9.1156170000000003    0.0000000000000000
     0.0000000000000000    0.0000000000000000    9.1156170000000003
 Co  Sb 
   8  24
Cartesian
  6.8367127500000002  2.2789042500000001  2.2789042500000001
  6.8367127500000002  2.2789042500000001  6.8367127500000002
  2.2789042500000001  2.2789042500000001  2.2789042500000001
  6.8367127500000002  6.8367127500000002  2.2789042500000001
  2.2789042500000001  6.8367127500000002  6.8367127500000002
  2.2789042500000001  6.8367127500000002  2.2789042500000001
  6.8367127500000002  6.8367127500000002  6.8367127500000002
  2.2789042500000001  2.2789042500000001  6.8367127500000002
  1.4536674429900001  0.0000000000000000  6.0768440324970001
  0.0000000000000000  3.0387729675030002  7.6619495570100007
  3.0387729675030002  1.4536674429900001  0.0000000000000000
  0.0000000000000000  3.0387729675030002  1.4536674429900001
  6.0768440324970001  7.6619495570100007  0.0000000000000000
  0.0000000000000000  6.0768440324970001  1.4536674429900001
  6.0768440324970001  1.4536674429900001  0.0000000000000000
  3.0387729675030002  7.6619495570100007  0.0000000000000000
  0.0000000000000000  6.0768440324970001  7.6619495570100007
  1.4536674429900001  0.0000000000000000  3.0387729675030002
  7.6619495570100007  0.0000000000000000  6.0768440324970001
  7.6619495570100007  0.0000000000000000  3.0387729675030002
  6.0114759429899998  4.5578085000000002  1.5190355324970002
  4.5578085000000002  7.5965814675030003  3.1041410570100001
  7.5965814675030003  6.0114759429899998  4.5578085000000002
  4.5578085000000002  7.5965814675030003  6.0114759429899998
  1.5190355324970002  3.1041410570100001  4.5578085000000002
  4.5578085000000002  1.5190355324970002  6.0114759429899998
  1.5190355324970002  6.0114759429899998  4.5578085000000002
  7.5965814675030003  3.1041410570100001  4.5578085000000002
  4.5578085000000002  1.5190355324970002  3.1041410570100001
  6.0114759429899998  4.5578085000000002  7.5965814675030003
  3.1041410570100001  4.5578085000000002  1.5190355324970002
  3.1041410570100001  4.5578085000000002  7.5965814675030003
