In B  O 
 1.0000000000000000
     4.4175370000000003   -0.0006750000000000    3.8838119999999998
     1.7564109999999999    4.0533520000000003    3.8838119999999998
    -0.0010290000000000   -0.0006750000000000    5.8820610000000002
 In  B   O  
   2   2   6
Cartesian
  3.0864595000000001  2.0260009999999999  6.8248424999999999
  0.0000000000000000  0.0000000000000000  0.0000000000000000
  4.6296892500000002  3.0390015000000004 10.2372637500000003
  1.5432297500000001  1.0130005000000000  3.4124212500000000
  5.2042698340980005  2.1647921334790001  7.2962332499999993
  2.8000409791199998  3.9138858665210003  7.8642894809730004
  2.7982974367820002  1.0123255000000000  8.7264260190270004
  0.9686491659020000  1.8872098665210002  6.3534517499999996
  3.3728780208800004  0.1381161334790000  5.7853955190270003
  3.3746215632180001  3.0396765000000001  4.9232589809730003
