Fe Ge Ru
 1.0000000000000000
     0.0000000000000000    2.9817890000000000    2.9817890000000000
     2.9817890000000000    0.0000000000000000    2.9817890000000000
     2.9817890000000000    2.9817890000000000    0.0000000000000000
 Fe  Ge  Ru 
   1   1   2
Cartesian
  2.9817890000000000  2.9817890000000000  2.9817890000000000
  0.0000000000000000  0.0000000000000000  0.0000000000000000
  4.4726835000000005  4.4726835000000005  4.4726835000000005
  1.4908945000000000  1.4908945000000000  1.4908945000000000
