Na U  O 
 1.0000000000000000
     5.7452059999999996    0.0000000000000000    0.0000000000000000
     0.0000000000000000    5.9057399999999998    0.0000000000000000
     0.0000000000000000    0.0000000000000000    8.2611620000000006
 Na  U   O  
   4   4  12
Cartesian
  2.9165825519299995  3.1658841360599999  2.0652905000000001
  0.0439795519300000  5.6927258639399998  6.1958715000000009
  5.7012264480699999  0.2130141360600000  2.0652905000000001
  2.8286234480699997  2.7398558639399999  6.1958715000000009
  0.0000000000000000  2.9528699999999999  0.0000000000000000
  2.8726029999999998  0.0000000000000000  0.0000000000000000
  2.8726029999999998  0.0000000000000000  4.1305810000000003
  0.0000000000000000  2.9528699999999999  4.1305810000000003
  3.9983186636399997  1.7732220579600000  3.6967378164080000
  1.1257156636399999  1.1796479420399999  4.5644241835920001
  4.6194903363599993  4.7260920579599999  0.4338431835920000
  1.7468873363599999  4.1325179420399998  7.8273188164080008
  1.7468873363599999  4.1325179420399998  4.5644241835920001
  4.6194903363599993  4.7260920579599999  3.6967378164080000
  1.1257156636399999  1.1796479420399999  7.8273188164080008
  3.9983186636399997  1.7732220579600000  0.4338431835920000
  0.5774908715020000  2.7332119064399998  2.0652905000000001
  3.4500938715019998  0.2196580935600000  6.1958715000000009
  2.2951121284979998  5.6860819064400001  2.0652905000000001
  5.1677151284980001  3.1725280935599995  6.1958715000000009
