Sc Tl C 
 1.0000000000000000
     4.5442080000000002    0.0000000000000000    0.0000000000000000
     0.0000000000000000    4.5442080000000002    0.0000000000000000
     0.0000000000000000    0.0000000000000000    4.5442080000000002
 Sc  Tl  C  
   3   1   1
Cartesian
  0.0000000000000000  2.2721040000000001  2.2721040000000001
  2.2721040000000001  2.2721040000000001  0.0000000000000000
  2.2721040000000001  0.0000000000000000  2.2721040000000001
  0.0000000000000000  0.0000000000000000  0.0000000000000000
  2.2721040000000001  2.2721040000000001  2.2721040000000001
