Ba I 
 1.0000000000000000
     5.3724170000000004    0.0000000000000000    0.0000000000000000
     0.0000000000000000    8.9963160000000002    0.0000000000000000
     0.0000000000000000    0.0000000000000000   10.8261339999999997
 Ba  I  
   4   8
Cartesian
  1.3431042500000001  6.7202210630520005  4.1588810283679996
  4.0293127500000008  2.2760949369479997  6.6672529716319993
  1.3431042500000001  2.2220630630520000  1.2541859716320001
  4.0293127500000008  6.7742529369479998  9.5719480283680003
  1.3431042500000001  4.7122343355360004  7.2079101035919999
  4.0293127500000008  4.2840816644639999  3.6182238964079998
  1.3431042500000001  0.2140763355360000  9.0312908964079988
  4.0293127500000008  8.7822396644639991  1.7948431035919998
  4.0293127500000008  7.7132074341839996  6.2008089882419997
  1.3431042500000001  1.2831085658160000  4.6253250117580000
  4.0293127500000008  3.2150494341840004 10.0383920117579990
  1.3431042500000001  5.7812665658160007  0.7877419882419999
