Na Al P 
 1.0000000000000000
     5.5399170000000000    0.0000000000000000   -2.2699980000000002
    -1.1733330000000000    6.0273529999999997   -2.8635120000000001
     0.0342400000000000   -0.0118430000000000    7.9786299999999999
 Na  Al  P  
   6   2   4
Cartesian
  3.5662824197970000  3.0136764999999999 -3.1334395707180001
  0.8003015802030000  3.0136764999999999 -2.0000704292820002
  3.3344387816600007  5.9750444205640001  0.2426206355479993
  0.9951177268319998  3.7570375828420000  2.4285797871239994
  3.4057062731679997  2.2584724171580000  0.4165402128759995
  1.0663852183400000  0.0404655794360000  2.6024993644520000
  1.3850069495849999  0.0000000000000000 -0.5675108499900000
  4.1549100504149994  0.0000000000000000 -1.7024871500100001
  2.1232763474320002  0.5716882256449999  5.1818522007580006
  2.2775476525679998  5.4438217743549995 -2.3367322007580005
  4.1843183854459998  4.2160045264520001  2.3167232324120000
  0.2165056145540001  1.7995054735479998  0.5283967675880000
