Mn P 
 1.0000000000000000
     3.2177259999999999    0.0000000000000000    0.0000000000000000
     0.0000000000000000    5.1549930000000002   -0.0000580000000000
     0.0000000000000000   -0.0000650000000000    5.7960880000000001
 Mn  P  
   4   4
Cartesian
  0.8044315000000000  2.5943128816180003  1.7678240192760000
  2.4132945000000001  2.5606151183820001  4.0282059807240005
  0.8044315000000000  0.0168905598520000  1.1290951404820000
  2.4132945000000001  5.1380374401479996  4.6669348595180002
  0.8044315000000000  3.5418478236239999  5.3708645217699997
  2.4132945000000001  1.6130801763760001  0.4251654782300001
  0.8044315000000000  0.9644825424569999  3.3231819988560005
  2.4132945000000001  4.1904454575430004  2.4728480011439999
