Ti Hg
 1.0000000000000000
     5.2018370000000003    0.0000000000000000    0.0000000000000000
     0.0000000000000000    5.2018370000000003    0.0000000000000000
     0.0000000000000000    0.0000000000000000    5.2018370000000003
 Ti  Hg 
   6   2
Cartesian
  2.6009185000000001  1.3004592500000001  0.0000000000000000
  2.6009185000000001  3.9013777500000000  0.0000000000000000
  1.3004592500000001  0.0000000000000000  2.6009185000000001
  3.9013777500000000  0.0000000000000000  2.6009185000000001
  0.0000000000000000  2.6009185000000001  1.3004592500000001
  0.0000000000000000  2.6009185000000001  3.9013777500000000
  2.6009185000000001  2.6009185000000001  2.6009185000000001
  0.0000000000000000  0.0000000000000000  0.0000000000000000
