Li Ca Si
 1.0000000000000000
     3.7995779999999999    0.0000000000000000    0.0000000000000000
     0.0000000000000000    7.9513650000000000    0.0000000000000000
     0.0000000000000000    0.0000000000000000   10.6516990000000007
 Li  Ca  Si 
   4   4   8
Cartesian
  0.9498945000000000  3.9754121535900002  9.4528183224530000
  2.8496834999999998  3.9759528464099998  1.1988806775470000
  0.9498945000000000  7.9510946535900002  6.5247301775470010
  2.8496834999999998  0.0002703464100000  4.1269688224529997
  0.9498945000000000  5.0330709204300002  3.8846959286980005
  2.8496834999999998  2.9182940795700003  6.7670030713020006
  0.9498945000000000  1.0573884204299999  1.4411535713020001
  2.8496834999999998  6.8939765795699994  9.2105454286979995
  2.8496834999999998  6.1250000704199996  6.0647152528340005
  0.9498945000000000  1.8263649295800000  4.5869837471660002
  2.8496834999999998  2.1493175704200000  9.9128332471660006
  0.9498945000000000  5.8020474295800000  0.7388657528340000
  2.8496834999999998  2.6290472749650000  3.4724006155049998
  0.9498945000000000  5.3223177250350000  7.1792983844950005
  2.8496834999999998  6.6047297749649996  1.8534488844950001
  0.9498945000000000  1.3466352250350000  8.7982501155050006
