Al Zn Te
 1.0000000000000000
     5.5203350000000002    0.0000630000000000   -2.4328799999999999
    -1.0722360000000000    5.4152279999999999   -2.4328210000000001
    -0.0691600000000000   -0.0842750000000000    7.3224819999999999
 Al  Zn  Te 
   2   1   4
Cartesian
  0.5413267500000001  4.0192992500000004  1.2284052499999998
  2.2240495000000000  2.7076454999999999 -2.4328504999999998
  0.0000000000000000  0.0000000000000000  0.0000000000000000
  1.7664467192900000  1.9959676829710000  0.0623260656090001
 -0.0977890770480000  3.2104831066230002  3.6557242573280000
  3.2706634506570000  0.6521725273440000  3.5438033667030004
  3.8185700922430006  4.8033978527320000 -2.3482916897580002
