Ce Fe P 
 1.0000000000000000
     3.5706150000000001    0.0000000000000000   -1.2492470000000000
    -0.4370720000000000    3.5437639999999999   -1.2492470000000000
     0.0300200000000000    0.0339510000000000    5.8132149999999996
 Ce  Fe  P  
   1   2   2
Cartesian
  0.0000000000000000  0.0000000000000000  0.0000000000000000
  0.5798597500000000  2.6747985000000001  1.6573604999999998
  2.5837032500000001  0.9029165000000000  1.6573604999999998
  2.0316166671480000  2.2975816562960003  0.0793788524159996
  1.1319463328519999  1.2801333437039999  3.2353421475839994
