Lu P 
 1.0000000000000000
     3.3825710000000000   -0.0000000000000000    1.9529280000000000
     1.1275230000000001    3.1891180000000001    1.9529280000000000
    -0.0000000000000000    0.0000000000000000    3.9058570000000001
 Lu  P  
   1   1
Cartesian
  0.0000000000000000  0.0000000000000000  0.0000000000000000
  2.2550470000000002  1.5945590000000001  3.9058565000000001
