Ti Cu
 1.0000000000000000
     0.0001270000000000    3.1549049999999998   -0.0000210000000000
     3.1549070000000001    0.0001250000000000   -0.0000250000000000
     0.0001180000000000    0.0001000000000000  -14.0079799999999999
 Ti  Cu 
   4   6
Cartesian
  0.7888088266780000  0.7888040529600000 -7.8470437601519993
  0.7887536335670000  0.7887531617949999 -2.0440699492789998
  2.3663368630270001  2.3663227915850000 -6.1609402158369999
  2.3664015221930002  2.3663863034450001 -11.9640120827290009
  0.7888743483830000  0.7888719318550000 -13.3779545836909985
  0.7888665567660000  0.7888456515700000 -10.5804068899940003
  0.7887950702290001  0.7887785460550000 -4.7159100307310000
  2.3662917524580003  2.3662843481799998 -3.4275490701560001
  2.3662713426380000  2.3662612234000000 -0.6301554641600000
  2.3663600844240000  2.3663451442599999 -9.2921159692520003
