La Cl
 1.0000000000000000
     7.5440120000000004    0.0000030000000000    0.0000000000000000
    -3.7720090000000002    6.5333050000000004    0.0000000000000000
     0.0000000000000000    0.0000000000000000    4.3716809999999997
 La  Cl 
   2   6
Cartesian
  3.7720087720070001  2.1777681555660000  3.2787607500000000
 -0.0000057720070000  4.3555398444340003  1.0929202499999999
  1.9775173203540004  4.5498346328319998  3.2787607500000000
  4.5924833701060006  3.9875009156480004  1.0929202499999999
  1.7944781356340000  1.9834733671650000  1.0929202499999999
 -0.8204765980970000  2.5458005510469999  3.2787607500000000
 -1.1570203182060002  5.9709582162120007  3.2787607500000000
  4.9290233182060001  0.5623497837880000  1.0929202499999999
