Tm Ni Bi
 1.0000000000000000
     3.9056210000000000    0.0000000000000000    2.2549100000000002
     1.3018740000000000    3.6822550000000001    2.2549100000000002
     0.0000000000000000    0.0000000000000000    4.5098219999999998
 Tm  Ni  Bi 
   1   1   1
Cartesian
  2.6037474999999999  1.8411275000000000  4.5098210000000005
  1.3018737499999999  0.9205637500000000  2.2549105000000003
  0.0000000000000000  0.0000000000000000  0.0000000000000000
