Li Pm Os
 1.0000000000000000
     0.0000000000000000    3.5384370000000001    3.5384370000000001
     3.5384370000000001    0.0000000000000000    3.5384370000000001
     3.5384370000000001    3.5384370000000001    0.0000000000000000
 Li  Pm  Os 
   1   2   1
Cartesian
  1.7692185000000000  1.7692185000000000  1.7692185000000000
  0.0000000000000000  0.0000000000000000  0.0000000000000000
  3.5384299231260004  3.5384299231260004  3.5384299231260004
  5.3076625768740007  5.3076625768740007  5.3076625768740007
