Zr Ni Sb
 1.0000000000000000
     4.1491809999999996    0.0000000000000000    0.0000000000000000
     0.0000000000000000    6.7633979999999996    0.0000000000000000
     0.0000000000000000    0.0000000000000000    7.6134259999999996
 Zr  Ni  Sb 
   4   4   4
Cartesian
  3.1118857499999999  0.0037672126860000  1.4703048291200000
  1.0372952499999999  6.7596307873139994  6.1431211708799998
  3.1118857499999999  3.3854662126860000  2.3364081708800000
  1.0372952499999999  3.3779317873140000  5.2770178291199992
  1.0372952499999999  4.6077136822559996  0.6817899117260000
  3.1118857499999999  2.1556843177439999  6.9316360882739989
  1.0372952499999999  1.2260146822559999  3.1249230882740000
  3.1118857499999999  5.5373833177440002  4.4885029117260000
  1.0372952499999999  5.3730733267319994  3.1060494052199998
  3.1118857499999999  1.3903246732679999  4.5073765947799993
  1.0372952499999999  1.9913743267319997  0.7006635947800000
  3.1118857499999999  4.7720236732679995  6.9127624052199996
