Zr Ga Co
 1.0000000000000000
     7.8265700000000002   -0.0000000000000000    0.0000000000000000
    -3.9132859999999998    6.7780100000000001    0.0000000000000000
     0.0000000000000000    0.0000000000000000    3.3560029999999998
 Zr  Ga  Co 
   6   2   1
Cartesian
  1.9437599657800000  0.0000000000000000  0.0000000000000000
  2.9414042654640005  5.0946641044600005  0.0000000000000000
 -0.9718802312439999  1.6833458955400000  0.0000000000000000
 -2.3278181770999997  4.0318992485000003  1.6780014999999999
  1.5854670126000003  2.7461107515000003  1.6780014999999999
  4.6556351645000005  0.0000000000000000  1.6780014999999999
 -0.0000045799520000  4.5186755926700002  0.0000000000000000
  3.9132885799519999  2.2593344073299999  0.0000000000000000
  0.0000000000000000  0.0000000000000000  1.6780014999999999
