Hf Zn Cu
 1.0000000000000000
     0.0000000000000000    3.0531400000000000    3.0531400000000000
     3.0531400000000000    0.0000000000000000    3.0531400000000000
     3.0531400000000000    3.0531400000000000    0.0000000000000000
 Hf  Zn  Cu 
   1   1   2
Cartesian
  1.5265638937199999  1.5265638937199999  1.5265638937199999
  4.5797100000000004  4.5797100000000004  4.5797100000000004
  3.0531338937200001  3.0531338937200001  3.0531338937200001
  0.0000000000000000  0.0000000000000000  0.0000000000000000
