Li Al Rh
 1.0000000000000000
     6.0089370000000004    0.0000000000000000    0.0000000000000000
     0.0000000000000000    6.0089370000000004    0.0000000000000000
     0.0000000000000000    0.0000000000000000    6.0089370000000004
 Li  Al  Rh 
   8   4   4
Cartesian
  1.5022342500000001  4.5067027500000005  4.5067027500000005
  0.0000000000000000  0.0000000000000000  3.0044685000000002
  1.5022342500000001  1.5022342500000001  1.5022342500000001
  0.0000000000000000  3.0044685000000002  0.0000000000000000
  4.5067027500000005  4.5067027500000005  1.5022342500000001
  3.0044685000000002  0.0000000000000000  0.0000000000000000
  4.5067027500000005  1.5022342500000001  4.5067027500000005
  3.0044685000000002  3.0044685000000002  3.0044685000000002
  0.0000000000000000  0.0000000000000000  0.0000000000000000
  0.0000000000000000  3.0044685000000002  3.0044685000000002
  3.0044685000000002  0.0000000000000000  3.0044685000000002
  3.0044685000000002  3.0044685000000002  0.0000000000000000
  4.5067027500000005  1.5022342500000001  1.5022342500000001
  4.5067027500000005  4.5067027500000005  4.5067027500000005
  1.5022342500000001  1.5022342500000001  4.5067027500000005
  1.5022342500000001  4.5067027500000005  1.5022342500000001
