Er Ni B 
 1.0000000000000000
     3.4340060000000001    0.0000000000000000   -0.0000000000000000
     0.0000000000000000    5.7109680000000003   -0.6569440000000000
    -0.0000000000000000   -0.0037340000000000    5.7486269999999999
 Er  Ni  B  
   2   3   6
Cartesian
  3.4340060000000001  4.1375219504999992  1.1067268287700001
  0.0000000000000000  1.5697177604680002  3.9849555142860003
  3.4340060000000001  4.4129360590119999  3.9369809458939997
  0.0000000000000000  1.2942979409880000  1.1547020541060000
  1.7170030000000001  5.7109680000000003 -0.6569440000000000
  1.7170030000000001  2.2096298408760000  1.9713055167019999
  1.7170030000000001  3.4976098700920000  3.1203768263540002
  1.7170030000000001  2.1900709435080001  0.2310238415259999
  1.7170030000000001  3.5171630564920005  4.8606591584739993
  1.7170030000000001  0.4783919747980000  2.1496275299610001
  1.7170030000000001  5.2288420252019998  2.9420554700390000
