Mg Cu P 
 1.0000000000000000
     3.8238810000000001    0.0000000000000000    0.0000000000000000
     0.0000000000000000    6.4950530000000004    0.0000000000000000
     0.0000000000000000    0.0000000000000000    7.0704650000000004
 Mg  Cu  P  
   4   4   4
Cartesian
  2.8679107500000001  3.0464461541730001  2.2511441399550001
  0.9559702500000000  3.4486068458269998  4.8193208600450008
  2.8679107500000001  6.2939726541730003  1.2840883600450002
  0.9559702500000000  0.2010738507740000  5.7863766399549998
  0.9559702500000000  0.8305419122690000  3.0944667823650005
  0.9559702500000000  4.0780684122690003  0.4407657176350000
  2.8679107500000001  2.4169845877310001  6.6296992823650003
  2.8679107500000001  5.6645110877310003  3.9759982176350004
  2.8679107500000001  1.5958734924180003  4.3868275864599999
  0.9559702500000000  1.6516530075820002  0.8515950864600000
  0.9559702500000000  4.8991795075820006  2.6836374135400001
  2.8679107500000001  4.8433999924180000  6.2188699135400007
