Cr Ir C 
 1.0000000000000000
     8.8233020000000000   -1.3647990000000001    0.0033090000000000
     8.8233020000000000    1.3647990000000001    0.0033090000000000
     8.6113099999999996    0.0000000000000000    2.3576860000000002
 Cr  Ir  C  
   2   2   1
Cartesian
  9.8989709988599994  0.0000000000000000  0.8913189649600001
 16.3589430011399983  0.0000000000000000  1.4729850350400000
 23.0628510244800005 -0.0000000000000000  2.0766154892799999
  3.1950629755200000 -0.0000000000000000  0.2876885107200000
  0.0000000000000000  0.0000000000000000  0.0000000000000000
