Nb In O 
 1.0000000000000000
     4.8787640000000003    0.0116460000000000    0.0000000000000000
    -0.0902320000000000    5.1840390000000003    0.0000000000000000
     0.0000000000000000    0.0000000000000000    5.8299479999999999
 Nb  In  O  
   2   2   8
Cartesian
 -0.0676740000000000  3.8880292500000002  1.0452047373360001
 -0.0225580000000000  1.2960097500000001  4.7847432626639996
  2.3717080000000004  3.8938522500000001  3.9681890858880000
  2.4168240000000001  1.3018327500000000  1.8617589141120001
  1.2383739541160002  2.0916870075870002  3.5977891696559996
  3.5952740458840005  0.5119784924130001  3.5977891696559996
  3.5501580458840003  3.1039979924130003  2.2321588303439999
  1.1932579541160000  4.6837065075869999  2.2321588303439999
  1.0149824124120002  2.2662208406340003  0.5996159817480000
  3.8186655875880002  0.3374446593660000  0.5996159817480000
  3.7735495875880001  2.9294641593660002  5.2303320182519997
  0.9698664124120001  4.8582403406339996  5.2303320182519997
