Ti Al Ni
 1.0000000000000000
     3.5795640000000000    0.0000000000000000    2.0666609999999999
     1.1931890000000001    3.3748450000000001    2.0666609999999999
     0.0000000000000000    0.0000000000000000    4.1333229999999999
 Ti  Al  Ni 
   1   1   2
Cartesian
  2.3863764999999999  1.6874225000000000  4.1333225000000002
  0.0000000000000000  0.0000000000000000  0.0000000000000000
  1.1931882500000000  0.8437112500000000  2.0666612500000001
  3.5795647500000003  2.5311337500000000  6.1999837499999995
