Ti C  S 
 1.0000000000000000
     3.2054279999999999   -0.0000000000000000    0.0000000000000000
    -1.6027140000000000    2.7759819999999999    0.0000000000000000
     0.0000000000000000    0.0000000000000000   11.2255520000000004
 Ti  C   S  
   4   2   2
Cartesian
 -0.0000016027140001  1.8506555919940000  4.4996390381280005
  1.6027156027140002  0.9253264080060000 10.1124150381279989
  1.6027156027140002  0.9253264080060000  6.7259129618720008
 -0.0000016027140001  1.8506555919940000  1.1131369618720000
  0.0000000000000000  0.0000000000000000  5.6127760000000002
  0.0000000000000000  0.0000000000000000  0.0000000000000000
  1.6027156027140002  0.9253264080060000  2.8063880000000001
 -0.0000016027140001  1.8506555919940000  8.4191640000000003
