Hf Be Rh
 1.0000000000000000
     0.0000000000000000    3.0454620000000001    3.0454620000000001
     3.0454620000000001    0.0000000000000000    3.0454620000000001
     3.0454620000000001    3.0454620000000001    0.0000000000000000
 Hf  Be  Rh 
   1   1   2
Cartesian
  4.5681990909240007  4.5681990909240007  4.5681990909240007
  1.5227310000000001  1.5227310000000001  1.5227310000000001
  0.0000000000000000  0.0000000000000000  0.0000000000000000
  3.0454680909240004  3.0454680909240004  3.0454680909240004
