Mn Sn C 
 1.0000000000000000
     3.8939780000000002    0.0000000000000000    0.0000000000000000
     0.0000000000000000    3.8939780000000002    0.0000000000000000
     0.0000000000000000    0.0000000000000000    3.8939780000000002
 Mn  Sn  C  
   3   1   1
Cartesian
  0.0000000000000000  1.9469890000000001  1.9469890000000001
  1.9469890000000001  1.9469890000000001  0.0000000000000000
  1.9469890000000001  0.0000000000000000  1.9469890000000001
  0.0000000000000000  0.0000000000000000  0.0000000000000000
  1.9469890000000001  1.9469890000000001  1.9469890000000001
