Ba Y  F 
 1.0000000000000000
     5.2562879999999996    3.4898560000000001    0.0088410000000000
    -5.2562879999999996    3.4898560000000001    0.0088410000000000
     0.0000000000000000    0.7119100000000000    4.2056880000000003
 Ba  Y   F  
   1   2   8
Cartesian
  0.0000000000000000  0.3559550000000000  2.1028440000000002
  1.8498664609919997  3.4898560000000001  0.0088410000000000
 -1.8498664609919997  3.4898560000000001  0.0088410000000000
  1.4719603789439999  5.7169560060580000  0.2814759144960000
 -1.4719603789439999  5.7169560060580000  0.2814759144960000
 -0.0000000000000001  4.7582925578120001  3.0486630819840004
 -2.5298724395519994  3.8458110000000003  2.1116850000000000
  2.5298724395519994  3.8458110000000003  2.1116850000000000
 -0.0000000000000002  2.9333294421880001  1.1747069180160001
  1.4719603789439999  1.9746659939420002  3.9418940855040003
 -1.4719603789439999  1.9746659939420002  3.9418940855040003
