Zr Mo P 
 1.0000000000000000
     6.9400469999999999    0.0000000000000000    0.0000000000000000
    -3.4700240000000000    6.0102580000000003    0.0000000000000000
     0.0000000000000000    0.0000000000000000    3.4453369999999999
 Zr  Mo  P  
   3   3   3
Cartesian
  1.4009211555829999  2.4264673700179999  1.7226684999999999
  4.1382042851129999  0.0000000000000000  1.7226684999999999
 -2.0691024406960001  3.5837906299820004  1.7226684999999999
 -0.8725028345600000  1.5112192715200001  0.0000000000000000
  1.7450054176799998  0.0000000000000000  0.0000000000000000
  2.5975204168800001  4.4990387284800004  0.0000000000000000
  3.4700268033569999  2.0034173299139999  0.0000000000000000
 -0.0000038033570003  4.0068406700860004  0.0000000000000000
  0.0000000000000000  0.0000000000000000  1.7226684999999999
