Mo Ru
 1.0000000000000000
     5.4641820000000001    0.0000000000000000    0.0000000000000000
    -2.7320899999999999    4.7321190000000000    0.0000000000000000
     0.0000000000000000    0.0000000000000000    4.3415119999999998
 Mo  Ru 
   2   6
Cartesian
  2.7320995296060002  1.5773714226269999  1.0853866830240000
  0.0000006666680000  3.1547523094920003  3.2561383415120000
  4.1026036349080002  0.7861138046370000  3.2561383415120000
  1.3615896257019999  0.7861138046370000  3.2561383415120000
  2.7320916677559999  3.1599008549640000  3.2561383415120000
 -1.3705034386340000  3.9460099274820002  1.0853866830240000
  1.3705105705720002  3.9460099274820002  1.0853866830240000
  0.0000030643359999  1.5722228771550000  1.0853866830240000
