Ti Si C 
 1.0000000000000000
     3.0744940000000001    0.0000000000000000    0.0000000000000000
    -1.5372470000000000    2.6625890000000001    0.0000000000000000
     0.0000000000000000    0.0000000000000000   17.7327820000000003
 Ti  Si  C  
   6   2   4
Cartesian
  1.5372485372469999  0.8875287791370000  6.4741323115079998
 -0.0000015372470000  1.7750602208630002 15.3405233115080009
 -0.0000015372470000  1.7750602208630002 11.2586496884919995
  1.5372485372469999  0.8875287791370000  2.3922586884919999
  0.0000000000000000  0.0000000000000000  8.8663910000000001
  0.0000000000000000  0.0000000000000000  0.0000000000000000
  0.0000000000000000  0.0000000000000000 13.2995865000000002
  0.0000000000000000  0.0000000000000000  4.4331955000000001
 -0.0000015372470000  1.7750602208630002  7.5840803352339998
  1.5372485372469999  0.8875287791370000 16.4504713352340026
 -0.0000015372470000  1.7750602208630002  1.2823106647660001
  1.5372485372469999  0.8875287791370000 10.1487016647659996
