Mn Al V 
 1.0000000000000000
     5.8175999999999997    0.0000000000000000    0.0000000000000000
     0.0000000000000000    5.8175999999999997    0.0000000000000000
     0.0000000000000000    0.0000000000000000    5.8175999999999997
 Mn  Al  V  
   8   4   4
Cartesian
  1.4543999999999999  4.3632000000000000  1.4543999999999999
  1.4543999999999999  4.3632000000000000  4.3632000000000000
  1.4543999999999999  1.4543999999999999  4.3632000000000000
  1.4543999999999999  1.4543999999999999  1.4543999999999999
  4.3632000000000000  4.3632000000000000  4.3632000000000000
  4.3632000000000000  4.3632000000000000  1.4543999999999999
  4.3632000000000000  1.4543999999999999  1.4543999999999999
  4.3632000000000000  1.4543999999999999  4.3632000000000000
  0.0000000000000000  0.0000000000000000  0.0000000000000000
  0.0000000000000000  2.9087999999999998  2.9087999999999998
  2.9087999999999998  0.0000000000000000  2.9087999999999998
  2.9087999999999998  2.9087999999999998  0.0000000000000000
  0.0000000000000000  0.0000000000000000  2.9087999999999998
  0.0000000000000000  2.9087999999999998  0.0000000000000000
  2.9087999999999998  0.0000000000000000  0.0000000000000000
  2.9087999999999998  2.9087999999999998  2.9087999999999998
