Mn Al
 1.0000000000000000
     2.7570980000000000    0.0000000000000000    0.0000000000000000
     0.0000000000000000    2.7570980000000000    0.0000000000000000
     0.0000000000000000    0.0000000000000000    3.4803440000000001
 Mn  Al 
   1   1
Cartesian
  1.3785490000000000  1.3785490000000000  1.7401720000000001
  0.0000000000000000  0.0000000000000000  0.0000000000000000
