Cs H  F 
 1.0000000000000000
     5.1974150000000003    0.0084350000000000   -2.6060850000000002
    -3.2193659999999999    4.8039699999999996   -0.6020170000000000
     0.0056510000000000   -0.0084350000000000    5.8141870000000004
 Cs  H   F  
   2   2   4
Cartesian
 -2.4102862499999995  3.5966512499999999  3.9091275000000003
 -0.8034287500000000  1.1988837499999998  1.3030425000000001
  0.9890245000000002  2.4062025000000000 -1.6040510000000001
  2.6015330000000003  0.0000000000000000  1.6040510000000001
  0.0468604444800001  1.7626022007699997  4.2101438182550002
 -0.1921791312549997  4.1688047260749990  1.8488766849400002
  1.9368395555200002  3.0413677992299997 -1.6040588182550002
  2.1758791312550003  0.6351652739249999  0.7572083150600000
