Tl N  O 
 1.0000000000000000
     6.1804790000000001    0.0000000000000000    0.0000000000000000
     0.0000000000000000    7.9133220000000000    0.0000000000000000
     0.0000000000000000    0.0000000000000000   12.1972919999999991
 Tl  N   O  
   8   8  24
Cartesian
  1.8213253565100000  7.8781947636420000  4.5499314401759996
  4.9115648565100001  0.0351272363580000  1.5487145598240000
  4.3591536434900000  3.9215337636419996  7.6473605598239995
  1.2689141434900000  3.9917882363580000 10.6485774401760001
  4.3591536434900000  0.0351272363580000  7.6473605598239995
  1.2689141434900000  7.8781947636420000 10.6485774401760001
  1.8213253565100000  3.9917882363580000  4.5499314401759996
  4.9115648565100001  3.9215337636419996  1.5487145598240000
  4.0951668439629998  1.9783305000000000 10.5058569264839985
  1.0049273439630000  5.9349914999999998  7.7900810735160002
  2.0853121560370003  5.9349914999999998  1.6914350735159998
  5.1755516560370003  1.9783305000000000  4.4072109264839998
  4.5343764036190004  5.9349914999999998 10.8687751526519989
  1.4441369036190002  1.9783305000000000  7.4271628473479989
  1.6461025963809999  1.9783305000000000  1.3285168473480000
  4.7363420963809997  5.9349914999999998  4.7701291526520002
  4.0035103403930004  1.9783305000000000  3.9624244764120000
  0.9132708403930001  5.9349914999999998  2.1362215235879995
  2.1769686596070001  5.9349914999999998  8.2348675235879991
  5.2672081596069997  1.9783305000000000 10.0610704764119987
  5.4274247167240004  1.9783305000000000  5.6348073798239993
  2.3371852167239999  5.9349914999999998  0.4638386201760000
  0.7530542832760000  5.9349914999999998  6.5624846201759990
  3.8432937832759997  1.9783305000000000 11.7334533798240006
  5.1775355897960003  7.0317779291999996  4.3508594374439999
  2.0872960897960002  0.8815440708000000  1.7477865625559998
  1.0029434102040000  3.0751169292000000  7.8464325625559992
  4.0931829102039998  4.8382050708000008 10.4495054374439995
  1.0029434102040000  0.8815440708000000  7.8464325625559992
  4.0931829102039998  7.0317779291999996 10.4495054374439995
  5.1775355897960003  4.8382050708000008  4.3508594374439999
  2.0872960897960002  3.0751169292000000  1.7477865625559998
  3.8056299442500001  5.9349914999999998  5.6437723894439991
  0.7153904442500001  1.9783305000000000  0.4548736105560000
  2.3748490557499999  1.9783305000000000  6.5535196105560001
  5.4650885557499995  5.9349914999999998 11.7424183894439995
  6.1469808038200000  1.9783305000000000  3.5764045791959997
  3.0567413038200000  5.9349914999999998  2.5222414208039998
  0.0334981961800000  5.9349914999999998  8.6208874208039994
  3.1237376961800001  1.9783305000000000  9.6750505791959984
