Ac Hg Ge
 1.0000000000000000
    -0.0000100000000000    3.9671020000000001    3.9671020000000001
     3.9671020000000001   -0.0000100000000000    3.9671020000000001
     3.9671020000000001    3.9671020000000001   -0.0000100000000000
 Ac  Hg  Ge 
   2   1   1
Cartesian
  0.0000000000000000  0.0000000000000000  0.0000000000000000
  3.9670890658060003  3.9670890658060003  3.9670890658060007
  5.9506534341939998  5.9506534341939998  5.9506534341940007
  1.9835484999999999  1.9835484999999999  1.9835485000000002
