Sm Ho Tl
 1.0000000000000000
     0.0000000000000000    3.7997869999999998    3.7997869999999998
     3.7997869999999998    0.0000000000000000    3.7997869999999998
     3.7997869999999998    3.7997869999999998    0.0000000000000000
 Sm  Ho  Tl 
   1   1   2
Cartesian
  5.6996729004259992  5.6996729004259992  5.6996729004259992
  1.8998934999999999  1.8998934999999999  1.8998934999999999
  0.0000000000000000  0.0000000000000000  0.0000000000000000
  3.7997945995740001  3.7997945995740001  3.7997945995740001
