Be Nb
 1.0000000000000000
     6.5301020000000003    0.0000000000000000    0.0000000000000000
     0.0000000000000000    6.5301020000000003    0.0000000000000000
     0.0000000000000000    0.0000000000000000    3.3722539999999999
 Be  Nb 
   4   6
Cartesian
  2.5249227092180000  5.7899737092179997  0.0000000000000000
  0.7401282907820000  2.5249227092180000  0.0000000000000000
  5.7899737092179997  4.0051792907820003  0.0000000000000000
  4.0051792907820003  0.7401282907820000  0.0000000000000000
  0.0000000000000000  0.0000000000000000  0.0000000000000000
  3.2650510000000001  3.2650510000000001  0.0000000000000000
  1.1713827569640001  4.4364337569640009  1.6861269999999999
  2.0936682430360003  1.1713827569640001  1.6861269999999999
  4.4364337569640009  5.3587192430360000  1.6861269999999999
  5.3587192430360000  2.0936682430360003  1.6861269999999999
