Ba Li Si
 1.0000000000000000
     4.6620720000000002    0.0000000000000000    0.0000000000000000
     0.0000000000000000    6.3474329999999997    0.0000000000000000
     0.0000000000000000    0.0000000000000000    6.6878750000000000
 Ba  Li  Si 
   2   4   2
Cartesian
  1.1655180000000001  0.5961318650610000  1.6719687500000000
  3.4965540000000002  5.7513011349389993  5.0159062500000005
  1.1655180000000001  3.7256575365150000  0.3244689435000000
  3.4965540000000002  2.6217754634849997  6.3634060564999997
  3.4965540000000002  2.6217754634849997  3.6684064434999999
  1.1655180000000001  3.7256575365150000  3.0194685565000001
  3.4965540000000002  4.3874535959609995  1.6719687500000000
  1.1655180000000001  1.9599794040389997  5.0159062500000005
