Nd Co Si
 1.0000000000000000
     4.0412559999999997    0.0000000000000000    0.0000000000000000
     0.0000000000000000    4.0323719999999996   -1.0120169999999999
     0.0000000000000000   -0.0306230000000000    8.4174659999999992
 Nd  Co  Si 
   2   2   4
Cartesian
  1.0103139999999999  3.5742413403499995  5.7020657435219997
  3.0309419999999996  0.4275076596500000  1.7033832564779998
  3.0309419999999996  1.2636957174689998  5.0351754167489995
  1.0103139999999999  2.7380532825309998  2.3702735832510000
  1.0103139999999999  0.9931786432230000  3.9573026240339990
  3.0309419999999996  3.0085703567770001  3.4481463759659996
  3.0309419999999996  1.8102735884799999  7.2130013740529995
  1.0103139999999999  2.1914754115199995  0.1924476259470000
