Zr Al Ru
 1.0000000000000000
     0.0000000000000000    3.1283680000000000    3.1283680000000000
     3.1283680000000000    0.0000000000000000    3.1283680000000000
     3.1283680000000000    3.1283680000000000    0.0000000000000000
 Zr  Al  Ru 
   1   1   2
Cartesian
  4.6925582567360005  4.6925582567360005  4.6925582567360005
  1.5641902567359998  1.5641902567359998  1.5641902567359998
  0.0000000000000000  0.0000000000000000  0.0000000000000000
  3.1283680000000000  3.1283680000000000  3.1283680000000000
