Ti Co Ge
 1.0000000000000000
     6.1673700000000000   -0.0001050000000000    0.0000000000000000
    -3.0837740000000000    5.3412379999999997    0.0000000000000000
     0.0000000000000000    0.0000000000000000    3.6934589999999998
 Ti  Co  Ge 
   3   3   3
Cartesian
  3.5094833067939999  0.0000417332720000  1.8467294999999999
  1.3288047699320003  2.3018520677109997  1.8467294999999999
  4.4125884943619997  3.0392570478059997  1.8467294999999999
 -1.5742176815940001  5.3411909349329996  0.0000000000000000
  2.3288704617320004  4.0338212631010002  0.0000000000000000
  5.4126471512399998  1.3071095881199999  0.0000000000000000
 -0.0000099985860000  3.5610431486069998  0.0000000000000000
  3.0834456425159997  1.7803569133980000  0.0000000000000000
  3.0837316862339996  5.3408873031569994  1.8467294999999999
