Sc Ga Ir
 1.0000000000000000
     0.0013480000000000    3.1129950000000002    3.1126490000000002
     3.1129790000000002    0.0017880000000000    3.1124040000000002
     3.1129980000000002    3.1125680000000000    0.0016990000000000
 Sc  Ga  Ir 
   1   1   2
Cartesian
  4.6704750734550000  4.6705132414870008  4.6700515489300001
  1.5568468108700000  1.5568315307350000  1.5566911133680001
  3.1132269808660000  3.1141485799700002  3.1138490208680003
  0.0017804061360000  3.1125188074620000  3.1121759774330000
