Mn Al
 1.0000000000000000
     7.5342450000000003    0.0000000000000000    0.0000000000000000
     0.0000000000000000    6.4616709999999999    0.0000000000000000
     0.0000000000000000    0.0000000000000000    8.8261749999999992
 Mn  Al 
   4  24
Cartesian
  0.0000000000000000  3.5093529051129999  6.6196312499999994
  0.0000000000000000  2.9523180948870000  2.2065437499999998
  3.7671225000000002  0.2785174051130000  6.6196312499999994
  3.7671225000000002  6.1831535948870000  2.2065437499999998
  6.1596144655050002  1.3820351168220000  6.6196312499999994
  1.3746305344950001  5.0796358831779997  2.2065437499999998
  2.4609631840650001  0.0000000000000000  0.0000000000000000
  5.0732818159350002  0.0000000000000000  4.4130874999999996
  5.0732818159350002  0.0000000000000000  0.0000000000000000
  2.4609631840650001  0.0000000000000000  4.4130874999999996
  0.0000000000000000  0.9069278332050000  0.8861744485249999
  0.0000000000000000  5.5547431667950002  5.2992619485249994
  0.0000000000000000  0.9069278332050000  3.5269130514749993
  0.0000000000000000  5.5547431667950002  7.9400005514749994
  6.1596144655050002  5.0796358831779997  2.2065437499999998
  1.3746305344950001  1.3820351168220000  6.6196312499999994
  2.3924919655050001  4.6128706168219997  6.6196312499999994
  5.1417530344950002  1.8488003831779998  2.2065437499999998
  6.2280856840650003  3.2308355000000000  0.0000000000000000
  1.3061593159350000  3.2308355000000000  4.4130874999999996
  1.3061593159350000  3.2308355000000000  0.0000000000000000
  6.2280856840650003  3.2308355000000000  4.4130874999999996
  3.7671225000000002  4.1377633332050001  0.8861744485249999
  3.7671225000000002  2.3239076667949998  5.2992619485249994
  3.7671225000000002  4.1377633332050001  3.5269130514749993
  3.7671225000000002  2.3239076667949998  7.9400005514749994
  2.3924919655050001  1.8488003831779998  2.2065437499999998
  5.1417530344950002  4.6128706168219997  6.6196312499999994
