Fe Sb
 1.0000000000000000
    -4.5817019999999999   -4.5819419999999997    4.5815479999999997
    -4.5816100000000004    4.5815279999999996   -4.5818190000000003
     4.5817280000000000   -4.5821490000000002   -4.5812590000000002
 Fe  Sb 
   4  12
Cartesian
 -2.2907920000000006 -2.2912815000000002 -2.2907650000000004
 -2.2908510000000000 -2.2909709999999999  2.2907739999999999
  2.2908640000000000 -2.2910745000000001 -2.2906295000000001
 -2.2908050000000002  2.2907639999999998 -2.2909095000000002
 -4.5816709746300006 -1.4953437484260006 -3.1330501012220009
 -3.1331194648940004 -4.5824120544840001 -1.4944141083939999
 -1.4957969748480002 -3.1338740596620003 -4.5816676826070006
  0.0001595961080003 -6.0779752944330001 -1.4478449583950004
 -3.1331488093840010 -4.5820719392909997  1.4958097835940001
 -1.4484351906160002 -0.0004910607090003 -6.0773397835940006
  1.4946682217580001 -3.1336839597990007 -4.5814967752470004
 -1.4484645351059999 -0.0001509455160005 -3.0871158916060004
  0.0000869746300000 -3.0872192515740005 -1.4484798987780001
 -3.0857870251519999 -1.4486889403380001  0.0001376826069997
 -4.5817435961079997  1.4954122944329995 -3.1336850416050006
 -6.0762522217580006 -1.4488790402010003 -0.0000332247530004
