Ta Ni Te
 1.0000000000000000
     3.7226170000000001    0.0000000000000000    0.0000000000000000
     0.0000000000000000    7.4272650000000002   -2.4505900000000000
     0.0000000000000000   -0.3049820000000000   10.4262859999999993
 Ta  Ni  Te 
   2   4   6
Cartesian
  0.9306542500000000  1.3381790546400001  6.7736315755999996
  2.7919627500000002  5.7841039453600001  1.2020644243999998
  0.9306542500000000  4.3975060668610002 -0.5021935906580000
  2.7919627500000002  2.7247769331390002  8.4778895906579983
  2.7919627500000002  6.9779064597009999  3.5396938529319990
  0.9306542500000000  0.1443765402990000  4.4360021470679998
  2.7919627500000002  0.1771938510570000  8.4861628591739997
  0.9306542500000000  6.9450891489430004 -0.5104668591740000
  2.7919627500000002  3.1307314595180000  0.6134153386159999
  0.9306542500000000  3.9915515404820008  7.3622806613839993
  0.9306542500000000  5.2555829949780009  3.3699293327259996
  2.7919627500000002  1.8667000050220002  4.6057666672739996
