Sr Ni As
 1.0000000000000000
     3.8126620000000000   -0.0000000000000000   -1.4335350000000000
    -0.5389980000000000    3.7743699999999998   -1.4335350000000000
     0.1553600000000000    0.1791230000000000    6.2000890000000002
 Sr  Ni  As 
   1   2   2
Cartesian
  0.0000000000000000  0.0000000000000000  0.0000000000000000
  0.6265970000000000  2.9203389999999998  1.6665095000000001
  2.8024270000000002  1.0331539999999999  1.6665095000000001
  2.1575494904959998  2.4875462985380001 -0.0486346685859999
  1.2714712358400000  1.4659429270919999  3.3816565356560004
