Ca Sn O 
 1.0000000000000000
     5.5239890000000003    0.0000000000000000    0.0000000000000000
     0.0000000000000000    5.6962780000000004    0.0000000000000000
     0.0000000000000000    0.0000000000000000    7.9070840000000002
 Ca  Sn  O  
   4   4  12
Cartesian
  5.4439243034340006  0.3059527876580000  1.9767710000000001
  2.6819298034340000  2.5421862123420000  5.9303129999999999
  2.8420591965660003  3.1540917876579999  1.9767710000000001
  0.0800646965660000  5.3903252123420007  5.9303129999999999
  0.0000000000000000  2.8481390000000002  3.9535420000000001
  2.7619945000000001  0.0000000000000000  3.9535420000000001
  2.7619945000000001  0.0000000000000000  0.0000000000000000
  0.0000000000000000  2.8481390000000002  0.0000000000000000
  3.8573518027990001  1.6994161859640000  3.5265594640000000
  1.0953573027990000  1.1487228140360002  4.3805245360000002
  4.4286316972010003  4.5475551859640007  0.4269825360000000
  1.6666371972010001  3.9968618140360004  7.4801014639999996
  1.6666371972010001  3.9968618140360004  4.3805245360000002
  4.4286316972010003  4.5475551859640007  3.5265594640000000
  1.0953573027990000  1.1487228140360002  7.4801014639999996
  3.8573518027990001  1.6994161859640000  0.4269825360000000
  0.5696724136030000  2.6306437134040004  1.9767710000000001
  3.3316669136030002  0.2174952865960000  5.9303129999999999
  2.1923220863970001  5.4787827134039997  1.9767710000000001
  4.9543165863970007  3.0656342865960005  5.9303129999999999
