Nd Zr O 
 1.0000000000000000
     0.0000000000000000    5.3519490000000003    5.3519490000000003
     5.3519490000000003    0.0000000000000000    5.3519490000000003
     5.3519490000000003    5.3519490000000003    0.0000000000000000
 Nd  Zr  O  
   4   4  14
Cartesian
  1.3379872500000001  1.3379872500000001  1.3379872500000001
  1.3379872500000001  4.0139617500000000  4.0139617500000000
  4.0139617500000000  4.0139617500000000  1.3379872500000001
  4.0139617500000000  1.3379872500000001  4.0139617500000000
  6.6899362500000006  6.6899362500000006  6.6899362500000006
  6.6899362500000006  4.0139617500000000  4.0139617500000000
  4.0139617500000000  4.0139617500000000  6.6899362500000006
  4.0139617500000000  6.6899362500000006  4.0139617500000000
  0.0000000000000000  0.0000000000000000  0.0000000000000000
  2.6759745000000001  2.6759745000000001  2.6759745000000001
  5.3519490000000003  5.3519490000000003  3.1081657895460002
  8.0279235000000000  8.0279235000000000  5.7841402895460003
  5.3519490000000003  7.5957322104540008  5.3519490000000003
  3.1081657895460002  5.3519490000000003  5.3519490000000003
  7.5957322104540008  5.3519490000000003  5.3519490000000003
  5.3519490000000003  3.1081657895460002  5.3519490000000003
  5.3519490000000003  5.3519490000000003  7.5957322104540008
  5.7841402895460003  8.0279235000000000  8.0279235000000000
 10.2717067104540014  8.0279235000000000  8.0279235000000000
  8.0279235000000000  8.0279235000000000 10.2717067104540014
  8.0279235000000000 10.2717067104540014  8.0279235000000000
  8.0279235000000000  5.7841402895460003  8.0279235000000000
