Li Sn N 
 1.0000000000000000
     2.9935679999999998   -5.2497949999999998    0.0000000000000000
     2.9935679999999998    5.2497949999999998    0.0000000000000000
     0.0000000000000000    0.0000000000000000    5.5464159999999998
 Li  Sn  N  
   2   4   6
Cartesian
  3.9432834351359998 -0.0000000000000001  5.5137753418399997
  2.0438525648639998 -0.0000000000000001  2.7405673418399998
  1.0478146584960000  1.6867801326799998  5.4973912289759994
  1.0478146584960000 -1.6867801326799998  5.4973912289759994
  4.9393213415039989 -1.6867801326800003  2.7241832289760000
  4.9393213415039998  1.6867801326800003  2.7241832289760000
  3.9391912276799994 -3.4113430399749993  2.0540319693600000
  3.9391912276799999  3.4113430399749998  2.0540319693600000
  2.0479447723199997  3.4113430399749998  4.8272399693599999
  2.0479447723199997 -3.4113430399749998  4.8272399693599999
  4.0304022510720001  0.0000000000000001  2.0571324159039999
  1.9567337489279997 -0.0000000000000001  4.8303404159039998
