Ce Zn Pd
 1.0000000000000000
     2.6544960000000000   -4.5977230000000002    0.0000000000000000
     2.6544960000000000    4.5977230000000002    0.0000000000000000
     0.0000000000000000    0.0000000000000000    4.3190309999999998
 Ce  Zn  Pd 
   1   3   2
Cartesian
  0.0000000000000000  0.0000000000000000  0.0000000000000000
  1.3272480000000000  2.2988615000000001  2.1595154999999999
  2.6544960000000000  0.0000000000000000  2.1595154999999999
  1.3272480000000000 -2.2988615000000001  2.1595154999999999
  2.6544960000000000  1.5325773984820001  0.0000000000000000
  2.6544960000000000 -1.5325773984820001  0.0000000000000000
