Al Co Ru
 1.0000000000000000
    -0.0000060000000000    2.9101010000000000    2.9100999999999999
     2.9100990000000002   -0.0000060000000000    2.9100990000000002
     2.9100980000000001    2.9100990000000002   -0.0000050000000000
 Al  Co  Ru 
   2   1   1
Cartesian
  2.9100955000000002  2.9100970000000004  2.9100970000000004
  0.0000000000000000  0.0000000000000000  0.0000000000000000
  1.4550477500000001  1.4550485000000002  1.4550485000000002
  4.3651461600990000  4.3651454999940000  4.3651484100989997
