Ce Se
 1.0000000000000000
     3.6998929999999999   -0.0000000000000000    2.1361340000000002
     1.2332970000000001    3.4882930000000001    2.1361340000000002
     0.0000000000000000    0.0000000000000000    4.2722680000000004
 Ce  Se 
   1   1
Cartesian
  0.0000000000000000  0.0000000000000000  0.0000000000000000
  2.4665949999999999  1.7441465000000000  4.2722680000000004
