Ba Pt
 1.0000000000000000
     5.1451320000000003   -0.0000000000000000    0.0000000000000000
    -2.5725669999999998    4.4558160000000004    0.0000000000000000
     0.0000000000000000    0.0000000000000000    5.4243300000000003
 Ba  Pt 
   2   2
Cartesian
  2.5725682392330000  1.4852705147280001  4.0682475000000000
 -0.0000032392329998  2.9705454852720004  1.3560825000000001
  0.0000000000000000  0.0000000000000000  2.7121650000000002
  0.0000000000000000  0.0000000000000000  0.0000000000000000
