Ca Cd O 
 1.0000000000000000
     0.0000000000000000    2.3987229999999999    2.3987229999999999
    -4.7792029999999999    2.3809689999999999   -2.3809689999999999
    -4.7792029999999999   -2.3809689999999999    2.3809689999999999
 Ca  Cd  O  
   3   1   4
Cartesian
 -4.7792029999999999  0.0000000000000000  0.0000000000000000
 -2.3896014999999999  0.0088770000000000  2.3898459999999999
 -2.3896014999999999  2.3898459999999999  0.0088770000000000
  0.0000000000000000  0.0000000000000000  0.0000000000000000
 -7.1439813196179998  0.0000000000000001 -0.0000000000000001
 -4.7792029999999999  0.0217580422899999  2.3769649577099998
 -4.7792029999999999  2.3769649577099998  0.0217580422900000
 -2.4144246803820000  0.0000000000000000 -0.0000000000000000
