Rb B  F 
 1.0000000000000000
     5.5023710000000001    0.0000000000000000    0.0000000000000000
     0.0000000000000000    7.2184290000000004    0.0000000000000000
     0.0000000000000000    0.0000000000000000    9.0193940000000001
 Rb  B   F  
   4   4  16
Cartesian
  1.3755927500000000  1.1541257390940001  7.3467744408820002
  4.1267782500000001  6.0643032609060006  1.6726195591180000
  4.1267782500000001  4.7633402390940001  6.1823165591180000
  1.3755927500000000  2.4550887609060004  2.8370774408820001
  1.3755927500000000  4.9994911438290002  8.4635738447500000
  1.3755927500000000  5.8281523561710005  3.9538768447500003
  4.1267782500000001  1.3902766438290000  5.0655171552500002
  4.1267782500000001  2.2189378561709998  0.5558201552499999
  2.9812946552199997  2.2084422604050005  5.2018633343480003
  5.2722618447800000  1.4007722395950002  0.6921663343480000
  2.5210763447800000  5.8176567604050007  8.3272276656519999
  0.2301091552200000  5.0099867395950000  3.8175306656520003
  1.3755927500000000  4.4017907857710004  0.7088882908240000
  4.1267782500000001  2.8166382142290005  8.3105057091760006
  4.1267782500000001  0.7925762857710000  3.8008087091760001
  1.3755927500000000  6.4258527142290003  5.2185852908240005
  1.3755927500000000  4.0333044221790004  7.4442109542640003
  4.1267782500000001  3.1851245778210000  1.5751830457359999
  4.1267782500000001  0.4240899221790000  6.0848800457359999
  1.3755927500000000  6.7943390778210002  2.9345139542639997
  0.2301091552200000  5.8176567604050007  8.3272276656519999
  2.9812946552199997  1.4007722395950002  0.6921663343480000
  5.2722618447800000  2.2084422604050005  5.2018633343480003
  2.5210763447800000  5.0099867395950000  3.8175306656520003
