Pr Ni
 1.0000000000000000
     4.9319689999999996    0.0000780000000000    0.0000000000000000
    -2.4659170000000001    4.2712659999999998    0.0000000000000000
     0.0000000000000000    0.0000000000000000    3.9301059999999999
 Pr  Ni 
   1   5
Cartesian
  0.0000000000000000  0.0000000000000000  0.0000000000000000
  0.0000499320589996  2.8475423618179998  0.0000000000000000
  2.4660020679409991  1.4238016381820000  0.0000000000000000
  2.4659844999999998  0.0000390000000000  1.9650529999999999
  1.2330259999999997  2.1356720000000000  1.9650529999999999
 -1.2329585000000001  2.1356329999999999  1.9650529999999999
