Tm Mg Rh
 1.0000000000000000
     0.0000000000000000    3.2286389999999998    3.2286389999999998
     3.2286389999999998    0.0000000000000000    3.2286389999999998
     3.2286389999999998    3.2286389999999998    0.0000000000000000
 Tm  Mg  Rh 
   1   1   2
Cartesian
  4.8429584999999999  4.8429584999999999  4.8429584999999999
  1.6143130427219998  1.6143130427219998  1.6143130427219998
  0.0000000000000000  0.0000000000000000  0.0000000000000000
  3.2286389999999998  3.2286389999999998  3.2286389999999998
