Ti Al Au
 1.0000000000000000
     4.4517030000000002    0.0000000000000000    0.0000000000000000
    -2.2258510000000000    3.8552890000000000    0.0000000000000000
     0.0000000000000000    0.0000000000000000    5.8102900000000002
 Ti  Al  Au 
   2   2   2
Cartesian
  0.0000000000000000  0.0000000000000000  0.0000000000000000
  0.0000000000000000  0.0000000000000000  2.9051450000000001
 -0.0000018925180000  2.5701939517630001  1.4525725000000000
  2.2258538925180003  1.2850950482370000  4.3577174999999997
 -0.0000018925180000  2.5701939517630001  4.3577174999999997
  2.2258538925180003  1.2850950482370000  1.4525725000000000
