Ti S 
 1.0000000000000000
     3.3182930000000002    0.0000000000000000    0.0000000000000000
     0.0000000000000000   11.3512129999999996    0.0000000000000000
     0.0000000000000000    0.0000000000000000   14.0021439999999995
 Ti  S  
  24  12
Cartesian
  1.6591465000000001  4.6613983208759997 10.5980967743039987
  1.6591465000000001  4.3330985384899998  1.0865663744000000
  0.0000000000000000  9.2085466829070004  2.9168006187839999
  0.0000000000000000  5.3399851852289997  5.4564674910719999
  0.0000000000000000  1.0142081791239999  3.5970247743039998
  1.6591465000000001  7.0181144615099997 12.9155776255999992
  0.0000000000000000  6.6937876036740001  1.1069254917759999
  0.0000000000000000 10.3370048208760004 10.4051192256959997
  1.6591465000000001 10.3330318963259984  8.1079974917759987
  0.0000000000000000  9.6159303662639992 13.7196787490879988
  1.6591465000000001  3.5329401829069997  4.0842713812159994
  1.6591465000000001  1.0181811036740001  5.8941465082239999
  1.6591465000000001  0.3356213147710000 12.4575394910719996
  1.6591465000000001 11.0155916852289995  1.5446045089279998
  0.0000000000000000  2.1426663170930000 11.0853433812159992
  1.6591465000000001  7.4108891337360001  6.7186067490879999
  1.6591465000000001  7.8182728170929989  9.9178726187839992
  1.6591465000000001  3.9403238662639999  7.2835372509119995
  0.0000000000000000  4.6574253963259995 12.8952185082239996
  0.0000000000000000  6.0112278147709999  8.5456765089279987
  1.6591465000000001  6.6898146791239999  3.4040472256959999
  0.0000000000000000 10.0087050384899996  5.9145056255999995
  0.0000000000000000  1.7352826337360001  0.2824652509120000
  0.0000000000000000  1.3425079615100000  8.0876383743999991
  0.0000000000000000  6.4210860625619999 11.1167921966399987
  1.6591465000000001  0.7454795625619999  9.8864238033599996
  0.0000000000000000  4.9301269374379997  2.8853518033599999
  0.0000000000000000  8.5559313938979997  8.2447844365119991
  1.6591465000000001  9.2365841790169991 11.9092715406079996
  1.6591465000000001 10.6057334374379995  4.1157201966399999
  1.6591465000000001  2.1146288209830000  2.0928724593919998
  1.6591465000000001  8.4708881061019987  1.2437124365120000
  0.0000000000000000  3.5609776790170002  9.0939444593920005
  1.6591465000000001  2.8803248938980004 12.7584315634879992
  0.0000000000000000  7.7902353209829993  4.9081995406079999
  0.0000000000000000  2.7952816061019998  5.7573595634880004
