Nb Al
 1.0000000000000000
    10.0024689999999996    0.0000000000000000    0.0000000000000000
     0.0000000000000000   10.0024689999999996    0.0000000000000000
     0.0000000000000000    0.0000000000000000    5.2025290000000002
 Nb  Al 
  20  10
Cartesian
  3.9657589041819996  3.9657589041819996  0.0000000000000000
  1.0354755958180000  8.9669934041820003  2.6012645000000001
  8.9669934041820003  1.0354755958180000  2.6012645000000001
  6.0367100958180000  6.0367100958180000  0.0000000000000000
  4.6487975047849996  1.2795058320110000  0.0000000000000000
  3.7217286679889998  9.6500320047850003  2.6012645000000001
  6.2807403320109998  0.3524369952150000  2.6012645000000001
  5.3536714952150000  8.7229631679889987  0.0000000000000000
  9.6500320047850003  3.7217286679889998  2.6012645000000001
  0.3524369952150000  6.2807403320109998  2.6012645000000001
  1.2795058320110000  4.6487975047849996  0.0000000000000000
  8.7229631679889987  5.3536714952150000  0.0000000000000000
  1.8164583728690000  1.8164583728690000  1.3124523958880001
  3.1847761271309998  6.8176928728690003  3.9137168958880002
  6.8176928728690003  3.1847761271309998  3.9137168958880002
  8.1860106271309991  8.1860106271309991  1.3124523958880001
  6.8176928728690003  3.1847761271309998  1.2888121041120000
  3.1847761271309998  6.8176928728690003  1.2888121041120000
  1.8164583728690000  1.8164583728690000  3.8900766041120001
  8.1860106271309991  8.1860106271309991  3.8900766041120001
  0.0000000000000000  0.0000000000000000  0.0000000000000000
  5.0012344999999998  5.0012344999999998  2.6012645000000001
  9.3340240016680003  2.6157956805349998  0.0000000000000000
  2.3854388194650000  4.3327895016679996  2.6012645000000001
  7.6170301805350000  5.6696794983320000  2.6012645000000001
  0.6684449983320000  7.3866733194649994  0.0000000000000000
  4.3327895016679996  2.3854388194650000  2.6012645000000001
  5.6696794983320000  7.6170301805350000  2.6012645000000001
  2.6157956805349998  9.3340240016680003  0.0000000000000000
  7.3866733194649994  0.6684449983320000  0.0000000000000000
