Zr P  Ru
 1.0000000000000000
     3.8828410000000000    0.0000000000000000    0.0000000000000000
     0.0000000000000000    6.4515120000000001    0.0000000000000000
     0.0000000000000000    0.0000000000000000    7.3137390000000000
 Zr  P   Ru 
   4   4   4
Cartesian
  2.9121307500000002  3.3615538760880002  4.9858416999510000
  0.9707102500000000  6.3157141239120005  1.3289721999510000
  2.9121307500000002  0.1357978760880000  5.9847668000490000
  0.9707102500000000  3.0899581239120000  2.3278973000490000
  0.9707102500000000  4.6710301697520000  6.4316216254710001
  0.9707102500000000  1.4452741697520000  4.5389868745289998
  2.9121307500000002  1.7804818302479999  0.8821173745290000
  2.9121307500000002  5.0062378302479997  2.7747521254709997
  0.9707102500000000  2.2522679997839998  6.8676521171729998
  0.9707102500000000  5.4780239997839999  4.1029563828270001
  2.9121307500000002  0.9734880002160000  3.2107826171729998
  2.9121307500000002  4.1992440002160007  0.4460868828270000
