Re Bi O 
 1.0000000000000000
     1.9270650000000000   -7.5279910000000001    0.0000000000000000
     1.9270650000000000    7.5279910000000001    0.0000000000000000
     0.0000000000000000    0.0000000000000000    5.5300989999999999
 Re  Bi  O  
   2   2   8
Cartesian
  1.9270650000000000  6.2756193612580002  4.1475742499999999
  1.9270650000000002 -6.2756193612580002  1.3825247500000000
  1.9270650000000000  2.8522353420439996  4.1475742499999999
  1.9270650000000000 -2.8522353420440001  1.3825247500000000
  1.9270650000000000  4.7074183881020000  5.4439400575799999
  1.9270650000000000 -4.7074183881020000  0.0861589424200000
  1.9270650000000000 -4.7074183881020000  2.6788905575799999
  1.9270650000000000  4.7074183881020000  2.8512084424199999
  0.0000000000000000  0.0000000000000000  0.0000000000000000
  0.0000000000000000  0.0000000000000000  2.7650494999999999
  1.9270650000000000 -1.3633944500100001  4.1475742499999999
  1.9270650000000002  1.3633944500100006  1.3825247500000000
