Sm Ir Rh
 1.0000000000000000
     0.0000000000000000    3.4829150000000002    3.4829150000000002
     3.4829150000000002    0.0000000000000000    3.4829150000000002
     3.4829150000000002    3.4829150000000002    0.0000000000000000
 Sm  Ir  Rh 
   2   1   1
Cartesian
  0.0000000000000000  0.0000000000000000  0.0000000000000000
  3.4829150000000002  3.4829150000000002  3.4829150000000002
  1.7414575000000001  1.7414575000000001  1.7414575000000001
  5.2243725000000003  5.2243725000000003  5.2243725000000003
