Ta Os W 
 1.0000000000000000
     0.0000000000000000    3.1999360000000001    3.1999360000000001
     3.1999360000000001    0.0000000000000000    3.1999360000000001
     3.1999360000000001    3.1999360000000001    0.0000000000000000
 Ta  Os  W  
   2   1   1
Cartesian
  0.0000000000000000  0.0000000000000000  0.0000000000000000
  3.1999360000000001  3.1999360000000001  3.1999360000000001
  1.5999680000000001  1.5999680000000001  1.5999680000000001
  4.7999103998720001  4.7999103998720001  4.7999103998720001
