Sr Cu O 
 1.0000000000000000
     4.9004849999999998    0.0000000000000000   -2.3870950000000000
    -1.1627870000000000    4.7605329999999997   -2.3870950000000000
     0.0107360000000000    0.0136760000000000    6.2457089999999997
 Sr  Cu  O  
   2   4   4
Cartesian
  2.6294419999999996  1.7886188750000001 -0.8256677500000000
  1.1189919999999998  2.9855901249999999  2.2971867499999998
  2.4556104999999997  0.0068380000000000  1.9293069999999999
  0.0000000000000000  0.0000000000000000  0.0000000000000000
  0.0053680000000000  0.0068380000000000  3.1228544999999999
 -0.5813935000000000  2.3802664999999998 -1.1935475000000000
  0.1800453132500000  1.7896961491249996  0.3696161263000000
  1.7012313132499999  0.6064008991249999  3.4924706262999994
  3.5683886867499996  2.9845128508749994  1.1019028737000003
  2.0472026867499995  4.1678081008749990 -2.0209516263000000
