Sr H  Cl
 1.0000000000000000
     4.1068939999999996    0.0000000000000000    0.0000000000000000
     0.0000000000000000    4.1068939999999996    0.0000000000000000
     0.0000000000000000    0.0000000000000000    6.9852220000000003
 Sr  H   Cl 
   2   2   2
Cartesian
  3.0801704999999995  3.0801704999999995  5.5727891559340001
  1.0267234999999999  1.0267234999999999  1.4124328440660001
  1.0267234999999999  3.0801704999999995  0.0000000000000000
  3.0801704999999995  1.0267234999999999  0.0000000000000000
  1.0267234999999999  1.0267234999999999  4.5361123589140009
  3.0801704999999995  3.0801704999999995  2.4491096410860003
