In S 
 1.0000000000000000
     3.9549330000000000    0.0000000000000000    0.0000000000000000
     0.0000000000000000    4.7069710000000002    0.0000000000000000
     0.0000000000000000    0.0000000000000000   10.6511479999999992
 In  S  
   4   4
Cartesian
  1.9774665000000000  1.7615886037210000  6.5967139557639989
  1.9774665000000000  2.9453823962790002  4.0544340442360003
  0.0000000000000000  4.1150741037210006  9.3800080442359999
  0.0000000000000000  0.5918968962790000  1.2711399557640000
  1.9774665000000000  2.5356876404390003  9.0004437341079999
  1.9774665000000000  2.1712833595609999  1.6507042658919999
  0.0000000000000000  0.1822021404390000  6.9762782658919988
  0.0000000000000000  4.5247688595610001  3.6748697341079999
