Li Re N 
 1.0000000000000000
     4.8681179999999999    0.0000000000000000    0.0000000000000000
     0.0000000000000000    6.6026249999999997    0.0000000000000000
     0.0000000000000000    0.0000000000000000    6.6787099999999997
 Li  Re  N  
  10   2   8
Cartesian
  1.4794454007900000  0.0000000000000000  0.0000000000000000
  3.3886725992100000  3.3013124999999999  3.3393549999999999
  1.1879863080119999  5.0418898998749997  2.0029384502900003
  1.1879863080119999  1.5607351001250001  4.6757715497099994
  3.6801316919880001  1.7405773998749998  1.3364165497100000
  3.6801316919880001  4.8620476001249999  5.3422934502899997
  3.6801316919880001  4.8620476001249999  1.3364165497100000
  3.6801316919880001  1.7405773998749998  5.3422934502899997
  1.1879863080119999  5.0418898998749997  4.6757715497099994
  1.1879863080119999  1.5607351001250001  2.0029384502900003
  1.3518033468300001  3.3013124999999999  0.0000000000000000
  3.5163146531700002  0.0000000000000000  3.3393549999999999
  0.3534253668000000  4.8275818976249996  0.0000000000000000
  2.5212177846720003  0.0000000000000000  4.8729337476199994
  2.3469002153280001  3.3013124999999999  1.5335787476199998
  2.3469002153280001  3.3013124999999999  5.1451312523799997
  0.3534253668000000  1.7750431023750000  0.0000000000000000
  4.5146926332000001  1.5262693976249999  3.3393549999999999
  4.5146926332000001  5.0763556023750001  3.3393549999999999
  2.5212177846720003  0.0000000000000000  1.8057762523800001
