Mn Te
 1.0000000000000000
     3.1899700000000002    3.1899700000000002    0.0000000000000000
     3.1899700000000002    0.0000000000000000   -3.1899700000000002
     0.0000000000000000    3.1899700000000002   -3.1899700000000002
 Mn  Te 
   1   1
Cartesian
  0.0000000000000000  0.0000000000000000  0.0000000000000000
  4.7849550000000001  4.7849550000000001 -4.7849550000000001
