Co Sn
 1.0000000000000000
     5.3003619999999998    0.0000000000000000    0.0000000000000000
    -2.6501809999999999    4.5902479999999999    0.0000000000000000
     0.0000000000000000    0.0000000000000000    4.2315269999999998
 Co  Sn 
   3   3
Cartesian
 -1.3250904999999999  2.2951239999999999  0.0000000000000000
  1.3250904999999999  2.2951239999999999  0.0000000000000000
  2.6501809999999999  0.0000000000000000  0.0000000000000000
  2.6501836501809999  1.5300811365839999  2.1157634999999999
 -0.0000026501810000  3.0601668634159997  2.1157634999999999
  0.0000000000000000  0.0000000000000000  0.0000000000000000
