Sr Re N 
 1.0000000000000000
     3.9150420000000001   -6.7810509999999997    0.0000000000000000
     3.9150420000000001    6.7810509999999997    0.0000000000000000
     0.0000000000000000    0.0000000000000000    5.4278170000000001
 Sr  Re  N  
   6   2   6
Cartesian
  6.0558104558519998 -1.7471784764559999  1.3569542500000000
  3.2890815947880001 -4.3709027293759997  1.3569542500000000
  2.4002339493600000 -0.6629833562699998  1.3569542500000000
  1.7742735441480000  1.7471784764559999  4.0708627499999999
  4.5410024052120006  4.3709027293759997  4.0708627499999999
  5.4298500506400007  0.6629833562700002  4.0708627499999999
  3.9150420000000001 -2.2603548540340004  4.0708627499999999
  3.9150420000000001  2.2603548540340004  1.3569542500000000
  5.7577700535180005 -2.1241981310049991  4.0708627499999999
  3.1115892506760003 -3.9242755863120000  4.0708627499999999
  2.8757666958060000 -0.7325772826829997  4.0708627499999999
  2.0723139464820002  2.1241981310050000  1.3569542500000000
  4.7184947493239999  3.9242755863119996  1.3569542500000000
  4.9543173041940003  0.7325772826830002  1.3569542500000000
