Zn Cl
 1.0000000000000000
     5.0781570000000000    0.0000000000000000   -2.3489830000000000
    -1.0865590000000001    4.9605509999999997   -2.3489830000000000
    -0.1564980000000000   -0.1944870000000000    6.3252819999999996
 Zn  Cl 
   2   4
Cartesian
  0.0000000000000000  0.0000000000000000  0.0000000000000000
  0.3763710000000000  3.6231697500000002  0.8136579999999998
  1.3695019284390000  1.8115848750000001 -0.1396078683410000
 -0.1805800395070000  3.0406587775229998  2.9414153683409996
  2.9395315395070005  0.3880239724770000  3.0230331316589996
  3.5417465715610001  4.2918603749999997 -2.5702086316590003
