Ba Y  Ta O 
 1.0000000000000000
     6.0254640000000004    0.0000000000000000    0.0000000000000000
    -3.0127320000000002    3.0127320000000002    4.2832429999999997
     0.0000000000000000   -6.0254640000000004    0.0000000000000000
 Ba  Y   Ta  O  
   2   1   1   6
Cartesian
  0.0000000000000000 -3.0127320000000002  2.1416214999999998
  3.0127320000000006  0.0000000000000000  2.1416214999999998
  0.0000000000000000  0.0000000000000000  0.0000000000000000
  3.0127320000000002 -3.0127320000000002  0.0000000000000000
  4.5878184169200003 -1.7534763041040002  0.0000000000000000
  1.7534763041040002 -1.4376455830800001  0.0000000000000000
  4.2719876958960006 -4.5878184169200003  0.0000000000000000
  1.4376455830800001 -4.2719876958960006  0.0000000000000000
  0.0000000000000000  0.0000000000000000  2.2658184140279998
  3.0127319999999997 -3.0127320000000002  2.0174245859719999
