Cs Ti Br
 1.0000000000000000
     7.6265280000000004    0.0000040000000000   -0.0000010000000000
    -3.8132600000000001    6.6047700000000003   -0.0000020000000000
    -0.0000010000000000   -0.0000030000000000    6.5384229999999999
 Cs  Ti  Br 
   2   2   6
Cartesian
 -0.0000018966670000  4.4031812847090004  4.9042798113660000
  3.8132688966670001  2.2015897152910000  1.6341401886340001
  0.0000000000000000  0.0000000000000000  0.0000000000000000
 -0.0000005000000000 -0.0000015000000000  3.2692114999999999
  3.8132621456430007  4.4731806581190003  4.9048154355569995
  5.7805153531240006  1.0657930246620002  4.9048099289299998
  0.0000048543570000  2.1315903418810001  1.6336045644430000
  1.8460086242480003  1.0657975658440002  4.9048104448250003
  1.9672583757520004  5.5389734341560004  1.6336095551749998
 -1.9672483531239999  5.5389779753379997  1.6336100710699999
