Mg Si H  O 
 1.0000000000000000
     5.3283209999999999    0.0000000000000000    0.0000000000000000
     2.6593300000000002    4.6322440000000000    0.0000000000000000
     0.9885830000000000    1.3934089999999999    9.4704940000000004
 Mg  Si  H   O  
   3   4   2  12
Cartesian
  0.0000000000000000  0.0000000000000000  0.0000000000000000
  3.6498964306659998  2.9396100207820002  9.4696416555400003
  5.3263375693340009  3.0860429792180004  0.0008523444600000
  6.2114409094690002  1.5458706681970000  2.7562262803020001
  2.7647930905310001  4.4797823318030003  6.7142677196980003
  3.5470576960130002  3.0901798543640004  2.7541333011280003
  5.4291763039870000  2.9354731456360001  6.7163606988720010
  6.2300615299370001  4.6447111984069993  2.0209181851540001
  2.7461724700630001  1.3809418015930000  7.4495758148460007
  3.5440708146140003  3.0833551262180001  1.1158704260440000
  5.4321631853859991  2.9422978737820000  8.3546235739560011
  6.2070773038000002  4.6334517662740007  1.0513574209160002
  2.7691566961999996  1.3922012337259999  8.4191365790840003
  6.2085398300190002  1.5462005716620000  1.1182948725080002
  2.7676941699810000  4.4794524283379999  8.3521991274919998
  3.4309053027270000  4.6338526779539997  3.2983647093320001
  5.5453286972730007  1.3918003220460000  6.1721292906680008
  2.2696215166730003  2.2237786237339998  3.3149191328440000
  6.7066124833269996  3.8018743762660003  6.1555748671560009
  4.9372955076169998  2.4199495323320002  3.3125893913200000
  4.0389384923830001  3.6057034676680000  6.1579046086800009
