Mg Ti Rh
 1.0000000000000000
     0.0077890000000000    3.0758359999999998    3.0759340000000002
     3.0757629999999998    0.0079910000000000    3.0757599999999998
     3.0760190000000001    3.0759249999999998    0.0076130000000000
 Mg  Ti  Rh 
   1   1   2
Cartesian
  1.5399019697559999  1.5399380160709997  1.5398298331990001
  4.6196260298259997  4.6198139352709999  4.6194832588089998
  0.0011487959380000  0.0011733727790000  0.0011518139440000
  3.0786889476030002  3.0787119194579997  3.0785079050489998
