Tc S 
 1.0000000000000000
     6.2017730000000002   -0.0010240000000000    1.5031880000000000
     2.5320469999999999    5.2323190000000004    2.8791690000000001
    -0.0669710000000000   -0.2343350000000000    6.9516380000000000
 Tc  S  
   4   8
Cartesian
  3.8621432781469998  1.3801973245460002  5.0821323061500001
  4.8047057218529998  3.6167626754540003  6.2518626938500006
  6.5641684895190000  1.4992720400510000  5.8279452154069995
  2.1026805104810000  3.4976879599490003  5.5060497845929994
  2.4315160876680002  0.8366075165230000  3.1693445645370000
  6.2353329123320007  4.1603524834770003  8.1646504354630007
  5.7114807623720001  0.7569003287960001  3.7573661186900003
  2.9553682376279999  4.2400596712040004  7.5766288813099996
  3.9514416334770002  3.4798958480300004  4.0913222171220003
  4.7154073665229994  1.5170641519700001  7.2426727828780004
  6.9011014820269994  3.6226599992100001  5.0539212677860004
  1.7657475179730000  1.3743000007900001  6.2800737322139994
