Ca C  O 
 1.0000000000000000
     4.5843569999999998   -0.0168890000000000    4.4060459999999999
     1.8657580000000000    4.1875479999999996    4.4060459999999999
    -0.0261200000000000   -0.0168890000000000    6.3583699999999999
 Ca  C   O  
   2   2   6
Cartesian
  3.2119975000000003  2.0768849999999999  7.5852310000000003
  0.0000000000000000  0.0000000000000000  0.0000000000000000
  4.8179962499999993  3.1153274999999994 11.3778465000000004
  1.6059987500000001  1.0384424999999999  3.7926155000000001
  4.3563295615039994  2.0481780994159995  5.5228481015680000
  1.4223677558640000  3.1322164999999997  6.4684288984320002
  4.1726985673680002  4.1419520994159997  8.1986615000000000
  2.0676654384960003  2.1055919005839998  9.6476138984320006
  5.0016272441360003  1.0215534999999998  8.7020331015679986
  2.2512964326320000  0.0118179005840000  6.9718004999999996
