Ca Sb O 
 1.0000000000000000
     4.5316390000000002    0.0000000000000000   -1.2468740000000000
    -0.3430760000000000    4.5186339999999996   -1.2468740000000000
    -0.0156570000000000   -0.0168910000000000    8.8014349999999997
 Ca  Sb  O  
   4   2   1
Cartesian
  2.7799615367209998  2.9990305663629995  1.2451553447570001
  1.3929444632790000  1.5027124336369997  5.0625316552429993
  2.2658195000000001  0.0000000000000000 -0.6234370000000000
 -0.1715380000000000  2.2593169999999998 -0.6234370000000000
  3.5950857885840000  3.8783889187769995  4.2076638255329994
  0.5778202114160000  0.6233540812230000  2.1000231744669997
  2.0942815000000001  2.2593169999999998 -1.2468740000000000
