Th Sb
 1.0000000000000000
     4.4075170000000004    0.0000000000000000    0.0000000000000000
     0.0000000000000000    4.4075170000000004    0.0000000000000000
     0.0000000000000000    0.0000000000000000    9.2047179999999997
 Th  Sb 
   2   4
Cartesian
  1.1018792500000001  1.1018792500000001  2.5532599071480000
  3.3056377500000003  3.3056377500000003  6.6514580928519997
  1.1018792500000001  3.3056377500000003  0.0000000000000000
  3.3056377500000003  1.1018792500000001  0.0000000000000000
  1.1018792500000001  1.1018792500000001  5.8397768548939997
  3.3056377500000003  3.3056377500000003  3.3649411451059996
