Sm Tl Hg
 1.0000000000000000
     0.0000000000000000    3.8066960000000001    3.8066960000000001
     3.8066960000000001    0.0000000000000000    3.8066960000000001
     3.8066960000000001    3.8066960000000001    0.0000000000000000
 Sm  Tl  Hg 
   2   1   1
Cartesian
  0.0000000000000000  0.0000000000000000  0.0000000000000000
  3.8066960000000001  3.8066960000000001  3.8066960000000001
  5.7100439999999999  5.7100439999999999  5.7100439999999999
  1.9033480000000000  1.9033480000000000  1.9033480000000000
