Hf Cu Sb
 1.0000000000000000
     3.9222229999999998    0.0000000000000000    0.0000000000000000
     0.0000000000000000    3.9222229999999998    0.0000000000000000
     0.0000000000000000    0.0000000000000000    8.5741130000000005
 Hf  Cu  Sb 
   2   1   3
Cartesian
  1.9611114999999999  0.0000000000000000  6.3251060118740003
  0.0000000000000000  1.9611114999999999  2.2490069881259998
  0.0000000000000000  0.0000000000000000  0.0000000000000000
  1.9611114999999999  1.9611114999999999  0.0000000000000000
  1.9611114999999999  0.0000000000000000  3.2360417284600000
  0.0000000000000000  1.9611114999999999  5.3380712715400005
