Mg Ta N 
 1.0000000000000000
     5.8736410000000001   -0.0384730000000000    0.0000000000000000
    -2.9688569999999999    5.1437030000000004    0.0000000000000000
     0.0000000000000000    0.0000000000000000    5.2702900000000001
 Mg  Ta  N  
   4   2   6
Cartesian
  1.0053613132860002  1.6972557317520001  2.5627733777200001
  0.9322314221110004  5.0836846878850004  2.5627733777200001
  1.8994226867140005  3.4079742682480001  5.1979183777200006
  1.9725525778890001  0.0215453121150000  5.1979183777200006
 -1.9848501293489997  3.4388586465710000  2.5559957847800003
 -0.9840068706509999  1.7048443534290001  5.1911407847800000
  0.8494550791969999  1.6901703608450003  4.6622935347299999
  3.9852106627969999  0.0714366536290000  4.6622935347299999
  2.0553289208029999  3.4150596391550003  2.0271485347300002
 -1.0804266627969998  5.0337933463710005  2.0271485347300002
 -1.9297481434290000  3.3433915188910004  4.5388159103200003
 -1.0391088565710001  1.8003114811090002  1.9036709103200000
