Be Fe Si
 1.0000000000000000
     0.0000000000000000    2.6727970000000001    2.6727970000000001
     2.6727970000000001    0.0000000000000000    2.6727970000000001
     2.6727970000000001    2.6727970000000001    0.0000000000000000
 Be  Fe  Si 
   1   2   1
Cartesian
  1.3363985000000000  1.3363985000000000  1.3363985000000000
  2.6727970000000001  2.6727970000000001  2.6727970000000001
  0.0000000000000000  0.0000000000000000  0.0000000000000000
  4.0091955000000006  4.0091955000000006  4.0091955000000006
