Sr Sb Se F 
 1.0000000000000000
     4.1215849999999996    0.0000000000000000    0.0000000000000000
     0.0000000000000000    4.1215849999999996    0.0000000000000000
     0.0000000000000000    0.0000000000000000   14.6748569999999994
 Sr  Sb  Se  F  
   2   2   4   2
Cartesian
  2.0607924999999998  0.0000000000000000  8.7894028761509997
  0.0000000000000000  2.0607924999999998  5.8854541238489997
  2.0607924999999998  0.0000000000000000  1.9606049197709998
  0.0000000000000000  2.0607924999999998 12.7142520802289987
  0.0000000000000000  2.0607924999999998 10.1526824165939988
  0.0000000000000000  2.0607924999999998  1.5818908851719999
  2.0607924999999998  0.0000000000000000 13.0929661148280001
  2.0607924999999998  0.0000000000000000  4.5221745834059996
  0.0000000000000000  0.0000000000000000  7.3374284999999997
  2.0607924999999998  2.0607924999999998  7.3374284999999997
