Nd Ge
 1.0000000000000000
     4.0573280000000000    0.0000000000000000    0.0000000000000000
     0.0000000000000000    4.1519990000000000   -1.6766420000000000
     0.0000000000000000   -0.0011730000000000    5.9790429999999999
 Nd  Ge 
   2   2
Cartesian
  1.0143320000000000  3.5761779662490003  2.8782934851139994
  3.0429960000000000  0.5746480337510000  1.4241075148859998
  1.0143320000000000  2.4096812562759999 -0.0108520399120001
  3.0429960000000000  1.7411447437240002  4.3132530399120004
