Ba Li H 
 1.0000000000000000
     4.0114219999999996    0.0000000000000000    0.0000000000000000
     0.0000000000000000    4.0114219999999996    0.0000000000000000
     0.0000000000000000    0.0000000000000000    4.0114219999999996
 Ba  Li  H  
   1   1   3
Cartesian
  0.0000000000000000  0.0000000000000000  0.0000000000000000
  2.0057109999999998  2.0057109999999998  2.0057109999999998
  2.0057109999999998  0.0000000000000000  2.0057109999999998
  2.0057109999999998  2.0057109999999998  0.0000000000000000
  0.0000000000000000  2.0057109999999998  2.0057109999999998
