C 
 1.0000000000000000
     4.2722949999999997    0.0000000000000000    0.0000000000000000
     0.0000000000000000    4.9333859999999996    0.0000000000000000
     0.0000000000000000    0.0000000000000000    7.9938859999999998
 C  
  16
Cartesian
  0.7120890414200000  3.0833613166139995  6.0068297692080002
  0.7121274920749999  1.8500148166140000  1.9869842858180000
  1.4240584585800000  0.6166683166139999  1.9870562307919999
  3.5602059585799997  1.8500246833859997  1.9870562307919999
  3.5602059585799997  0.6166683166139999  6.0068297692080002
  2.8482749920749999  0.6166781833860000  1.9869842858180000
  2.8482365414199999  3.0833613166139995  1.9870562307919999
  2.8482749920749999  1.8500148166140000  6.0069017141819998
  1.4240200079249998  3.0833711833859998  1.9869842858180000
  3.5601675079249997  4.3167078166139996  1.9869842858180000
  0.7120890414200000  4.3167176833859999  1.9870562307919999
  2.8482365414199999  4.3167176833859999  6.0068297692080002
  1.4240584585800000  1.8500246833859997  6.0068297692080002
  0.7121274920749999  0.6166781833860000  6.0069017141819998
  1.4240200079249998  4.3167078166139996  6.0069017141819998
  3.5601675079249997  3.0833711833859998  6.0069017141819998
