Zr Tc W 
 1.0000000000000000
     0.0000000000000000    3.1871719999999999    3.1871719999999999
     3.1871719999999999    0.0000000000000000    3.1871719999999999
     3.1871719999999999    3.1871719999999999    0.0000000000000000
 Zr  Tc  W  
   1   2   1
Cartesian
  0.0000000000000000  0.0000000000000000  0.0000000000000000
  1.5935859999999999  1.5935859999999999  1.5935859999999999
  4.7807579999999996  4.7807579999999996  4.7807579999999996
  3.1871719999999999  3.1871719999999999  3.1871719999999999
