K  Cu As
 1.0000000000000000
     8.7025900000000007   -2.0434340000000000    0.0058670000000000
     8.7025900000000007    2.0434340000000000    0.0058670000000000
     8.2204119999999996    0.0000000000000000    3.5122010000000001
 K   Cu  As 
   1   4   2
Cartesian
  0.0000000000000000  0.0000000000000000  0.0000000000000000
  3.7239366550320003  0.0000000000000000  0.5121017581350000
 21.9016553449679989  0.0000000000000001  3.0118332418649998
 11.4444662639760004 -0.0000000000000000  1.5737999428050002
 14.1811257360240006 -0.0000000000000001  1.9501350571950002
  6.1708988095200006 -0.0000000000000000  0.8485987873500001
 19.4546931904800005  0.0000000000000001  2.6753362126500000
