Li Ta N 
 1.0000000000000000
     9.7460319999999996    0.0000000000000000    0.0000000000000000
     0.0000000000000000    9.7460319999999996    0.0000000000000000
     0.0000000000000000    0.0000000000000000    9.7460319999999996
 Li  Ta  N  
  56   8  32
Cartesian
  8.4611931093759996  3.5082304088799998  3.7419110181440001
  3.5881771093759998  1.3647855911200000  6.0041209818559995
  1.2848388906240000  8.3812464088799992  1.1311049818559999
  1.3647855911200000  6.0041209818559995  3.5881771093759998
  1.1311049818559999  1.2848388906240000  8.3812464088799992
  6.0041209818559995  3.5881771093759998  1.3647855911200000
  3.5082304088799998  3.7419110181440001  8.4611931093759996
  3.7419110181440001  8.4611931093759996  3.5082304088799998
  8.3812464088799992  1.1311049818559999  1.2848388906240000
  6.2378015911200002  8.6149270181439999  6.1578548906239989
  8.6149270181439999  6.1578548906239989  6.2378015911200002
  6.1578548906239989  6.2378015911200002  8.6149270181439999
  1.2848388906240000  6.2378015911200002  6.0041209818559995
  6.1578548906239989  8.3812464088799992  3.7419110181440001
  8.4611931093759996  1.3647855911200000  8.6149270181439999
  8.3812464088799992  3.7419110181440001  6.1578548906239989
  8.6149270181439999  8.4611931093759996  1.3647855911200000
  3.7419110181440001  6.1578548906239989  8.3812464088799992
  6.2378015911200002  6.0041209818559995  1.2848388906240000
  6.0041209818559995  1.2848388906240000  6.2378015911200002
  1.3647855911200000  8.6149270181439999  8.4611931093759996
  3.5082304088799998  1.1311049818559999  3.5881771093759998
  1.1311049818559999  3.5881771093759998  3.5082304088799998
  8.4526068551839995  6.0454149194399998  0.9645355489440000
  3.5881771093759998  3.5082304088799998  1.1311049818559999
  1.1723989194400000  0.9645355489440000  6.1664411448159990
  3.7006170805599998  8.7814964510559985  1.2934251448159999
  0.9645355489440000  6.1664411448159990  1.1723989194400000
  1.2934251448159999  3.7006170805599998  8.7814964510559985
  6.1664411448159990  1.1723989194400000  0.9645355489440000
  3.9084804510559996  3.5795908551839997  6.0454149194399998
  3.5795908551839997  6.0454149194399998  3.9084804510559996
  8.7814964510559985  1.2934251448159999  3.7006170805599998
  5.8375515489440000  8.4526068551839995  8.5736330805599987
  8.4526068551839995  8.5736330805599987  5.8375515489440000
  8.5736330805599987  5.8375515489440000  8.4526068551839995
  3.7006170805599998  5.8375515489440000  6.1664411448159990
  8.5736330805599987  8.7814964510559985  3.5795908551839997
  6.0454149194399998  0.9645355489440000  8.4526068551839995
  8.7814964510559985  3.5795908551839997  8.5736330805599987
  3.5880893950880002  3.5880893950880002  3.5880893950880002
  1.2849266049120001  6.1579426049119999  8.4611053950879995
  8.4611053950879995  1.2849266049120001  6.1579426049119999
  6.1579426049119999  8.4611053950879995  1.2849266049120001
  6.1579426049119999  6.1579426049119999  6.1579426049119999
  8.4611053950879995  3.5880893950880002  1.2849266049120001
  1.2849266049120001  8.4611053950879995  3.5880893950880002
  3.5880893950880002  1.2849266049120001  8.4611053950879995
  1.1723989194400000  3.9084804510559996  1.2934251448159999
  1.2934251448159999  1.1723989194400000  3.9084804510559996
  3.9084804510559996  1.2934251448159999  1.1723989194400000
  0.9645355489440000  8.4526068551839995  6.0454149194399998
  6.1664411448159990  3.7006170805599998  5.8375515489440000
  5.8375515489440000  6.1664411448159990  3.7006170805599998
  3.5795908551839997  8.5736330805599987  8.7814964510559985
  6.0454149194399998  3.9084804510559996  3.5795908551839997
  1.2431551117599999  3.6298608882400001  6.1161711117599991
  3.6298608882400001  6.1161711117599991  1.2431551117599999
  6.1161711117599991  1.2431551117599999  3.6298608882400001
  8.5028768882399994  8.5028768882399994  8.5028768882399994
  8.5028768882399994  6.1161711117599991  3.6298608882400001
  6.1161711117599991  3.6298608882400001  8.5028768882399994
  3.6298608882400001  8.5028768882399994  6.1161711117599991
  1.2431551117599999  1.2431551117599999  1.2431551117599999
  0.0954428913760000  2.3850099669120000  0.1338227653920000
  4.9684588913760006  2.4880060330879998  9.6122092346079988
  9.6505891086239988  7.2580259669120002  4.7391932346079999
  2.4880060330879998  9.6122092346079988  4.9684588913760006
  4.7391932346079999  9.6505891086239988  7.2580259669120002
  9.6122092346079988  4.9684588913760006  2.4880060330879998
  2.3850099669120000  0.1338227653920000  0.0954428913760000
  0.1338227653920000  0.0954428913760000  2.3850099669120000
  7.2580259669120002  4.7391932346079999  9.6505891086239988
  7.3610220330879992  5.0068387653920006  4.7775731086239999
  5.0068387653920006  4.7775731086239999  7.3610220330879992
  4.7775731086239999  7.3610220330879992  5.0068387653920006
  9.6505891086239988  7.3610220330879992  9.6122092346079988
  4.7775731086239999  7.2580259669120002  0.1338227653920000
  0.0954428913760000  2.4880060330879998  5.0068387653920006
  7.2580259669120002  0.1338227653920000  4.7775731086239999
  5.0068387653920006  0.0954428913760000  2.4880060330879998
  0.1338227653920000  4.7775731086239999  7.2580259669120002
  7.3610220330879992  9.6122092346079988  9.6505891086239988
  9.6122092346079988  9.6505891086239988  7.3610220330879992
  2.4880060330879998  5.0068387653920006  0.0954428913760000
  2.3850099669120000  4.7391932346079999  4.9684588913760006
  4.7391932346079999  4.9684588913760006  2.3850099669120000
  4.9684588913760006  2.3850099669120000  4.7391932346079999
  2.3660052045120001  2.5070107954880001  7.2390212045120004
  2.5070107954880001  7.2390212045120004  2.3660052045120001
  7.2390212045120004  2.3660052045120001  2.5070107954880001
  7.3800267954879990  7.3800267954879990  7.3800267954879990
  7.3800267954879990  7.2390212045120004  2.5070107954880001
  7.2390212045120004  2.5070107954880001  7.3800267954879990
  2.5070107954880001  7.3800267954879990  7.2390212045120004
  2.3660052045120001  2.3660052045120001  2.3660052045120001
