Li Pd
 1.0000000000000000
     6.1882330000000003    0.0000000000000000    0.0000000000000000
     0.0000000000000000    6.1882330000000003    0.0000000000000000
     0.0000000000000000    0.0000000000000000    6.1882330000000003
 Li  Pd 
  12   4
Cartesian
  0.0000000000000000  3.0941165000000002  0.0000000000000000
  4.6411747500000002  1.5470582500000001  1.5470582500000001
  1.5470582500000001  4.6411747500000002  4.6411747500000002
  0.0000000000000000  0.0000000000000000  3.0941165000000002
  4.6411747500000002  4.6411747500000002  4.6411747500000002
  1.5470582500000001  1.5470582500000001  1.5470582500000001
  3.0941165000000002  3.0941165000000002  3.0941165000000002
  1.5470582500000001  1.5470582500000001  4.6411747500000002
  4.6411747500000002  4.6411747500000002  1.5470582500000001
  3.0941165000000002  0.0000000000000000  0.0000000000000000
  1.5470582500000001  4.6411747500000002  1.5470582500000001
  4.6411747500000002  1.5470582500000001  4.6411747500000002
  0.0000000000000000  0.0000000000000000  0.0000000000000000
  0.0000000000000000  3.0941165000000002  3.0941165000000002
  3.0941165000000002  0.0000000000000000  3.0941165000000002
  3.0941165000000002  3.0941165000000002  0.0000000000000000
