Dy Cd S 
 1.0000000000000000
     6.8823910000000001   -0.0000000000000000    3.9735510000000001
     2.2941289999999999    6.4887810000000004    3.9735510000000001
     0.0000000000000000    0.0000000000000000    7.9471010000000000
 Dy  Cd  S  
   4   2   8
Cartesian
  4.5882600000000000  3.2443905000000002  3.9735510000000001
  4.5882600000000000  3.2443905000000002  7.9471015000000005
  1.1470644999999999  3.2443905000000002  5.9603260000000002
  3.4411955000000001  0.0000000000000000  5.9603260000000002
  8.0294550000000005  5.6776833750000000 13.9074276250000004
  1.1470650000000000  0.8110976250000000  1.9867753750000001
  6.8175854157600000  4.8207619785780000 11.8084073884140004
  2.3589345842400000  1.6680190214220001  7.8348484554370001
  3.4411922341190002  4.7291079469530004  5.9603222693870004
  5.6057094208810003  1.6680190214220001  5.9603222693870004
  5.7353277658810002  1.7596730530470002  9.9338807306129997
  3.5708105791190001  4.8207619785780000  9.9338807306129997
  2.3589345842400000  1.6680190214220001  4.0857956115859997
  6.8175854157600000  4.8207619785780000  8.0593545445629999
