Pr In O 
 1.0000000000000000
     5.0138660000000002    0.0000000000000000    0.0000000000000000
     0.0000000000000000    5.0138610000000003    0.0000000000000000
     0.0000000000000000    0.0000000000000000    5.0138610000000003
 Pr  In  O  
   3   1   1
Cartesian
  2.5069330000000001  0.0000000000000000  2.5069305000000002
  2.5069330000000001  2.5069305000000002  0.0000000000000000
  0.0000000000000000  2.5069305000000002  2.5069305000000002
  0.0000000000000000  0.0000000000000000  0.0000000000000000
  2.5069330000000001  2.5069305000000002  2.5069305000000002
