Ba Ti O 
 1.0000000000000000
     3.9833340000000002    0.0000000000000000    0.0000000000000000
     0.0000000000000000    4.0573170000000003   -0.0143660000000000
     0.0000000000000000   -0.0036570000000000    4.0573410000000001
 Ba  Ti  O  
   1   1   3
Cartesian
  0.0000000000000000  0.0102071652360000  4.0434401923019996
  1.9916670000000001  2.1019742628959999  1.9461446336719999
  1.9916670000000001  1.9934919264660000  0.0804743119020000
  1.9916670000000001  3.9679243173060001  2.0497023170520001
  0.0000000000000000  1.9789308116700002  2.0695132840650001
