Sr Al Ge
 1.0000000000000000
     4.1388980000000002    0.0000000000000000   -0.8814510000000000
    -0.2486820000000000    4.7168999999999999   -1.1677029999999999
    -0.0012100000000000    0.0019570000000000   10.1522579999999998
 Sr  Al  Ge 
   3   2   2
Cartesian
  3.1712285120240002  3.8474606880489999  4.7327297903350001
  2.0694490000000001  0.0000000000000000 -0.4407255000000000
  0.7177774879760002  0.8713963119510000  3.3703742096650000
  3.7545338411340001  2.0462697741909999  7.4716940990020007
  0.1344721588660000  2.6725872258090000  0.6314099009980000
  1.3974654635119999  1.7000099009029999  6.5618868387129998
  2.4915405364880003  3.0188470990969996  1.5412171612870003
