Li V  S 
 1.0000000000000000
     5.9330639999999999    0.0000000000000000    0.0000000000000000
     0.0000000000000000    5.9330639999999999    0.0000000000000000
     0.0000000000000000    0.0000000000000000    5.9330639999999999
 Li  V   S  
   3   1   4
Cartesian
  0.0000000000000000  0.0000000000000000  2.9665319999999999
  0.0000000000000000  2.9665319999999999  0.0000000000000000
  2.9665319999999999  0.0000000000000000  0.0000000000000000
  0.0000000000000000  0.0000000000000000  0.0000000000000000
  1.2400222421279998  1.2400222421279998  1.2400222421279998
  1.2400222421279998  4.6930417578719998  4.6930417578719998
  4.6930417578719998  1.2400222421279998  4.6930417578719998
  4.6930417578719998  4.6930417578719998  1.2400222421279998
