Ho Tl
 1.0000000000000000
     3.7474270000000001    0.0000000000000000    0.0000000000000000
     0.0000000000000000    3.7474270000000001    0.0000000000000000
     0.0000000000000000    0.0000000000000000    3.7474270000000001
 Ho  Tl 
   1   1
Cartesian
  0.0000000000000000  0.0000000000000000  0.0000000000000000
  1.8737135000000000  1.8737135000000000  1.8737135000000000
