Sc Cu Ru
 1.0000000000000000
     0.0000000000000000    3.2138640000000001    3.2138640000000001
     3.2138640000000001    0.0000000000000000    3.2138640000000001
     3.2138640000000001    3.2138640000000001    0.0000000000000000
 Sc  Cu  Ru 
   2   1   1
Cartesian
  0.0000000000000000  0.0000000000000000  0.0000000000000000
  3.2138640000000001  3.2138640000000001  3.2138640000000001
  1.6069255722719999  1.6069255722719999  1.6069255722719999
  4.8207959999999996  4.8207959999999996  4.8207959999999996
