Ti Sb
 1.0000000000000000
     6.7309219999999996    0.0000000000000000    0.0000000000000000
     0.0000000000000000    6.7309219999999996    0.0000000000000000
     0.0000000000000000    0.0000000000000000    5.7957970000000003
 Ti  Sb 
   4   8
Cartesian
  0.0000000000000000  0.0000000000000000  4.3468477500000002
  0.0000000000000000  0.0000000000000000  1.4489492500000001
  3.3654609999999998  3.3654609999999998  1.4489492500000001
  3.3654609999999998  3.3654609999999998  4.3468477500000002
  2.3377838290400001  1.0276771709600001  0.0000000000000000
  1.0276771709600001  4.3931381709600004  0.0000000000000000
  4.3931381709600004  5.7032448290399991  0.0000000000000000
  2.3377838290400001  5.7032448290399991  2.8978985000000002
  5.7032448290399991  4.3931381709600004  2.8978985000000002
  4.3931381709600004  1.0276771709600001  2.8978985000000002
  1.0276771709600001  2.3377838290400001  2.8978985000000002
  5.7032448290399991  2.3377838290400001  0.0000000000000000
