Ba B 
 1.0000000000000000
     4.2764069999999998    0.0000000000000000    0.0000000000000000
     0.0000000000000000    4.2764069999999998    0.0000000000000000
     0.0000000000000000    0.0000000000000000    4.2764069999999998
 Ba  B  
   1   6
Cartesian
  0.0000000000000000  0.0000000000000000  0.0000000000000000
  0.8794986928410000  2.1382034999999999  2.1382034999999999
  2.1382034999999999  2.1382034999999999  3.3969083071589998
  2.1382034999999999  2.1382034999999999  0.8794986928410000
  2.1382034999999999  0.8794986928410000  2.1382034999999999
  2.1382034999999999  3.3969083071589998  2.1382034999999999
  3.3969083071589998  2.1382034999999999  2.1382034999999999
