Ce Sn
 1.0000000000000000
     4.8708700000000000    0.0000000000000000    0.0000000000000000
     0.0000000000000000    4.8706709999999998    0.0000000000000000
     0.0000000000000000    0.0000000000000000    4.8709650000000000
 Ce  Sn 
   3   1
Cartesian
  2.4354350000000000  2.4353354999999999  0.0000000000000000
  2.4354350000000000  0.0000000000000000  2.4354825000000000
  0.0000000000000000  2.4353354999999999  2.4354825000000000
  0.0000000000000000  0.0000000000000000  0.0000000000000000
