Sm Se
 1.0000000000000000
     3.6046149999999999   -0.0000000000000000    2.0811250000000001
     1.2015380000000000    3.3984630000000000    2.0811250000000001
    -0.0000000000000000   -0.0000000000000000    4.1622519999999996
 Sm  Se 
   1   1
Cartesian
  2.4030765000000001  1.6992315000000000  4.1622509999999995
  0.0000000000000000  0.0000000000000000  0.0000000000000000
