Cd S 
 1.0000000000000000
     4.2073099999999997    0.0000000000000000    0.0000000000000000
    -2.1036549999999998    3.6436370000000000    0.0000000000000000
     0.0000000000000000    0.0000000000000000    6.8438340000000002
 Cd  S  
   2   2
Cartesian
  2.1036571036549998  1.2145444521210000  3.4229983257720002
 -0.0000021036550002  2.4290925478790002  0.0010813257720000
  2.1036571036549998  1.2145444521210000  6.0009610922280006
 -0.0000021036550002  2.4290925478790002  2.5790440922280000
