Sc In Pd
 1.0000000000000000
     4.0072799999999997   -0.0000000000000000    2.3136040000000002
     1.3357589999999999    3.7781009999999999    2.3136040000000002
    -0.0000000000000000   -0.0000000000000000    4.6272099999999998
 Sc  In  Pd 
   1   1   2
Cartesian
  2.6715194999999996  1.8890505000000000  4.6272090000000006
  0.0000000000000000  0.0000000000000000  0.0000000000000000
  4.0072792499999998  2.8335757500000001  6.9408135000000009
  1.3357597499999998  0.9445252500000000  2.3136045000000003
