Nd Sn
 1.0000000000000000
     4.3102830000000001    0.0000000000000000   -1.2026829999999999
     0.0000000000000000    4.5797610000000004    0.0000000000000000
     0.0475430000000000    0.0000000000000000    8.4955180000000006
 Nd  Sn 
   2   4
Cartesian
  3.7251621471720000  0.0000000000000000  5.0254380489640003
  0.6326638528280000  0.0000000000000000  2.2673969510359999
  2.1551415000000000  0.0000000000000000 -0.6013415000000000
  0.0000000000000000  2.2898805000000002  0.0000000000000000
  2.9856019680160002  2.2898805000000002  2.3749282168650003
  1.3722240319840000  2.2898805000000002  4.9179067831349998
