Si Rh
 1.0000000000000000
     3.9115319999999998    0.0000000000000000    0.0000000000000000
     0.0000000000000000    5.4029150000000001    0.0000000000000000
     0.0000000000000000    0.0000000000000000   10.3059890000000003
 Si  Rh 
   6  10
Cartesian
  1.9557659999999999  0.5128338859700000  6.7459499957739997
  1.9557659999999999  4.8900811140300000  3.5600390042260002
  1.9557659999999999  3.2142913859699997  8.7130335042260008
  1.9557659999999999  2.1886236140299999  1.5929554957740002
  0.0000000000000000  2.7014575000000001  5.1529945000000001
  0.0000000000000000  0.0000000000000000  0.0000000000000000
  1.9557659999999999  1.8021314924200000  4.0466465808500001
  1.9557659999999999  3.6007835075800005  6.2593424191499993
  1.9557659999999999  4.5035889924200001  1.1063479191500001
  1.9557659999999999  0.8993260075799999  9.1996410808500002
  0.0000000000000000  1.8309884614350000  7.3459543693649998
  0.0000000000000000  3.5719265385650001  2.9600346306350001
  0.0000000000000000  4.5324459614350001  8.1130291306350006
  0.0000000000000000  0.8704690385650000  2.1929598693650001
  0.0000000000000000  2.7014575000000001  0.0000000000000000
  0.0000000000000000  0.0000000000000000  5.1529945000000001
