Nb O 
 1.0000000000000000
     4.2498459999999998    0.0000000000000000    0.0000000000000000
     0.0000000000000000    4.2498459999999998    0.0000000000000000
     0.0000000000000000    0.0000000000000000    4.2498459999999998
 Nb  O  
   3   3
Cartesian
  2.1249229999999999  0.0000000000000000  2.1249229999999999
  2.1249229999999999  2.1249229999999999  0.0000000000000000
  0.0000000000000000  2.1249229999999999  2.1249229999999999
  0.0000000000000000  2.1249229999999999  0.0000000000000000
  0.0000000000000000  0.0000000000000000  2.1249229999999999
  2.1249229999999999  0.0000000000000000  0.0000000000000000
