Li Y  F 
 1.0000000000000000
     4.7741910000000001    0.1998320000000000   -1.8832570000000000
    -1.0188470000000001    4.6358139999999999   -2.0008520000000001
    -0.1871090000000000   -0.0867970000000000    6.4664999999999999
 Li  Y   F  
   2   2   8
Cartesian
  1.5241175720770002  0.5798364626039999  3.8743339616349997
  2.0441222021140000  4.1690127372279999 -1.2919448448920001
  0.1665127921820000  1.7394093080249999  0.6288794570959999
  3.4017211889709995  3.0094443277890002  1.9535095420520001
  1.3015936627579996  3.5816371006390000  1.4035147415280000
  0.6013341186079998  2.9757062103080005 -1.1925567767160004
  3.3917146469540000  3.2749194327639999 -0.3275265686109998
  2.9401389420620001  4.5886986826450000 -2.8926659728600006
  2.2666413372420000  1.1672118993609999  1.1788762584720001
  0.1765203530460000  1.4739295672359998  2.9099175686109997
  0.6280960579380002  0.1601503173550000  5.4750569728600000
  2.9669008813920001  1.7731427896920000  3.7749477767160000
