Bi Cl O 
 1.0000000000000000
     3.8933970000000002    0.0000000000000000    0.0000000000000000
     0.0000000000000000    3.8933970000000002    0.0000000000000000
     0.0000000000000000    0.0000000000000000    7.4931890000000001
 Bi  Cl  O  
   2   2   2
Cartesian
  2.9200477500000002  2.9200477500000002  6.2366036842670001
  0.9733492500000001  0.9733492500000001  1.2565853157330000
  0.9733492500000001  0.9733492500000001  4.8973834802420004
  2.9200477500000002  2.9200477500000002  2.5958055197580001
  2.9200477500000002  0.9733492500000001  0.0000000000000000
  0.9733492500000001  2.9200477500000002  0.0000000000000000
