Sm Si Ni
 1.0000000000000000
     0.0000000000000000    0.0000000000000000    4.0101599999999999
     4.0882870000000002   -0.0000000000000000    0.0000000000000000
    -2.0441449999999999    8.1728880000000004    0.0000000000000000
 Sm  Si  Ni 
   2   4   2
Cartesian
 -0.0000032249299998  6.4336238776080004  1.0025400000000000
  2.0441452249299998  1.7392641223920000  3.0076200000000002
 -0.0000021665360000  0.6668667963600000  1.0025400000000000
  2.0441441665360007  7.5060212036400005  3.0076200000000002
  2.0441447947330005  4.0832320550160004  1.0025400000000000
 -0.0000027947330000  4.0896559449840000  3.0076200000000002
 -0.0000046292619999  2.9475520572000002  1.0025400000000000
  2.0441466292620003  5.2253359428000001  3.0076200000000002
