Th Bi Te
 1.0000000000000000
     4.5405160000000002    0.0000000000000000    0.0000000000000000
     0.0000000000000000    4.5405160000000002    0.0000000000000000
     0.0000000000000000    0.0000000000000000    9.2030919999999998
 Th  Bi  Te 
   2   2   2
Cartesian
  3.4053870000000002  3.4053870000000002  6.7000350378400002
  1.1351290000000001  1.1351290000000001  2.5030569621600001
  3.4053870000000002  1.1351290000000001  0.0000000000000000
  1.1351290000000001  3.4053870000000002  0.0000000000000000
  3.4053870000000002  3.4053870000000002  3.3927474750759998
  1.1351290000000001  1.1351290000000001  5.8103445249240000
