Zr Fe
 1.0000000000000000
     0.0000000000000000    3.5475059999999998    3.5475059999999998
     3.5475059999999998    0.0000000000000000    3.5475059999999998
     3.5475059999999998    3.5475059999999998    0.0000000000000000
 Zr  Fe 
   2   4
Cartesian
  0.0000000000000000  0.0000000000000000  0.0000000000000000
  1.7737529999999999  1.7737529999999999  1.7737529999999999
  2.6606294999999998  2.6606294999999998  4.4343824999999999
  2.6606294999999998  4.4343824999999999  2.6606294999999998
  4.4343824999999999  4.4343824999999999  4.4343824999999999
  4.4343824999999999  2.6606294999999998  2.6606294999999998
