Lu S 
 1.0000000000000000
     3.2776800000000001    0.0000000000000000    1.8923690000000000
     1.0925600000000000    3.0902280000000002    1.8923690000000000
    -0.0000000000000000   -0.0000000000000000    3.7847390000000001
 Lu  S  
   1   1
Cartesian
  0.0000000000000000  0.0000000000000000  0.0000000000000000
  2.1851200000000000  1.5451140000000001  3.7847385000000000
