Na Cu O 
 1.0000000000000000
     1.3681660000000000    3.1738879999999998    0.0238970000000000
    -1.3681660000000000    3.1738879999999998    0.0238970000000000
     0.0000000000000000    3.0272579999999998    5.2395670000000001
 Na  Cu  O  
   1   1   2
Cartesian
  0.0000000000000000  1.5136289999999999  2.6197835000000000
  0.0000000000000000  0.0000000000000000  0.0000000000000000
  0.0000000000000001  3.4260046116399998  1.2154492625700000
 -0.0000000000000001  5.9490293883599996  4.0719117374299998
