Dy Mg Sn
 1.0000000000000000
     4.3811260000000001    0.0007570000000000    0.0059790000000000
     0.0007710000000000    4.3848880000000001    0.0066230000000000
    -2.1801580000000000   -2.1807829999999999    7.9087420000000002
 Dy  Mg  Sn 
   2   2   2
Cartesian
  2.1927961857260003  2.1945944267459998  2.6473551054919997
  0.0088796259219998  0.0102876674979999  5.2742342039490007
  0.0116742421060004  2.2038816286130003  7.9175469398690002
  0.0004981610050000  2.1933240682310005  0.0038907785150000
  0.0039665196339999  0.0052189579290001  2.1524607139900001
  2.1972357311400001  2.1993557271349999  5.7688742047329997
