Ho In Ir
 1.0000000000000000
     7.4244630000000003   -0.0000000000000000    0.0000000000000000
    -3.7122329999999999    6.4297750000000002    0.0000000000000000
     0.0000000000000000    0.0000000000000000    3.9557709999999999
 Ho  In  Ir 
   3   3   3
Cartesian
  2.2071137709599999  3.8228355858000000  0.0000000000000000
  3.0102336744240001  0.0000000000000000  0.0000000000000000
 -1.5051174453839999  2.6069394141999997  0.0000000000000000
 -2.7604647178289996  4.7812642770749996  1.9778855000000000
  0.9517675130100001  1.6485107229250000  1.9778855000000000
  5.5209272048190003  0.0000000000000000  1.9778855000000000
  0.0000000000000000  0.0000000000000000  0.0000000000000000
  3.7122347122320005  2.1432561900750002  1.9778855000000000
 -0.0000047122320002  4.2865188099250000  1.9778855000000000
