Ti Ni
 1.0000000000000000
    11.2973820000000007    0.0000000000000000    0.0000000000000000
     0.0000000000000000   11.2973820000000007    0.0000000000000000
     0.0000000000000000    0.0000000000000000   11.2973820000000007
 Ti  Ni 
  64  32
Cartesian
 10.5991924950180003  1.4121727500000001  1.4121727500000001
  2.1261559950180002  9.8852092500000008  4.2365182500000005
  1.4121727500000001  1.4121727500000001 10.5991924950180003
  1.4121727500000001  9.1712260049820014  7.0608637500000002
  1.4121727500000001 10.5991924950180003  1.4121727500000001
  1.4121727500000001  1.4121727500000001  3.5225350049820001
  4.2365182500000005  9.8852092500000008  6.3468805049820007
  4.2365182500000005  9.8852092500000008  2.1261559950180002
  8.4730365000000010  0.0000000000000000  2.8243455000000002
  0.0000000000000000  0.0000000000000000  5.6486910000000004
  8.4730365000000010  2.8243455000000002  0.0000000000000000
  0.0000000000000000  2.8243455000000002  8.4730365000000010
  3.5225350049820001  1.4121727500000001  1.4121727500000001
  4.2365182500000005  0.6981895049820001  4.2365182500000005
  4.2365182500000005  2.1261559950180002  9.8852092500000008
  6.3468805049820007  9.8852092500000008  4.2365182500000005
 10.5991924950180003  7.0608637500000002  7.0608637500000002
  2.1261559950180002  4.2365182500000005  9.8852092500000008
  1.4121727500000001  7.0608637500000002  4.9505014950180000
  1.4121727500000001  3.5225350049820001  1.4121727500000001
  1.4121727500000001  4.9505014950180000  7.0608637500000002
  1.4121727500000001  7.0608637500000002  9.1712260049820014
  4.2365182500000005  4.2365182500000005  0.6981895049820001
  4.2365182500000005  4.2365182500000005  7.7748469950180006
  8.4730365000000010  5.6486910000000004  8.4730365000000010
  0.0000000000000000  5.6486910000000004  0.0000000000000000
  8.4730365000000010  8.4730365000000010  5.6486910000000004
  0.0000000000000000  8.4730365000000010  2.8243455000000002
  3.5225350049820001  7.0608637500000002  7.0608637500000002
  4.2365182500000005  6.3468805049820007  9.8852092500000008
  4.2365182500000005  7.7748469950180006  4.2365182500000005
  6.3468805049820007  4.2365182500000005  9.8852092500000008
  4.9505014950180000  1.4121727500000001  7.0608637500000002
  7.7748469950180006  9.8852092500000008  9.8852092500000008
  7.0608637500000002  1.4121727500000001  4.9505014950180000
  7.0608637500000002  9.1712260049820014  1.4121727500000001
  7.0608637500000002 10.5991924950180003  7.0608637500000002
  7.0608637500000002  1.4121727500000001  9.1712260049820014
  9.8852092500000008  9.8852092500000008  0.6981895049820001
  9.8852092500000008  9.8852092500000008  7.7748469950180006
  2.8243455000000002  0.0000000000000000  8.4730365000000010
  5.6486910000000004  0.0000000000000000  0.0000000000000000
  2.8243455000000002  2.8243455000000002  5.6486910000000004
  5.6486910000000004  2.8243455000000002  2.8243455000000002
  9.1712260049820014  1.4121727500000001  7.0608637500000002
  9.8852092500000008  0.6981895049820001  9.8852092500000008
  9.8852092500000008  2.1261559950180002  4.2365182500000005
  0.6981895049820001  9.8852092500000008  9.8852092500000008
  4.9505014950180000  7.0608637500000002  1.4121727500000001
  7.7748469950180006  4.2365182500000005  4.2365182500000005
  7.0608637500000002  7.0608637500000002 10.5991924950180003
  7.0608637500000002  3.5225350049820001  7.0608637500000002
  7.0608637500000002  4.9505014950180000  1.4121727500000001
  7.0608637500000002  7.0608637500000002  3.5225350049820001
  9.8852092500000008  4.2365182500000005  6.3468805049820007
  9.8852092500000008  4.2365182500000005  2.1261559950180002
  2.8243455000000002  5.6486910000000004  2.8243455000000002
  5.6486910000000004  5.6486910000000004  5.6486910000000004
  2.8243455000000002  8.4730365000000010  0.0000000000000000
  5.6486910000000004  8.4730365000000010  8.4730365000000010
  9.1712260049820014  7.0608637500000002  1.4121727500000001
  9.8852092500000008  6.3468805049820007  4.2365182500000005
  9.8852092500000008  7.7748469950180006  9.8852092500000008
  0.6981895049820001  4.2365182500000005  4.2365182500000005
  6.0522673771859994  2.4207691228140003  0.4035763771860000
  3.2279218771860001  8.8766128771860000  8.8766128771860000
  3.2279218771860001 10.8938056228140017 10.8938056228140017
 10.8938056228140017 10.8938056228140017  3.2279218771860001
  2.4207691228140003  0.4035763771860000  6.0522673771859994
  6.0522673771859994  0.4035763771860000  2.4207691228140003
  2.4207691228140003  2.4207691228140003  8.0694601228140019
 10.8938056228140017  8.8766128771860000  5.2451146228140004
  6.0522673771859994  8.0694601228140019  6.0522673771859994
  3.2279218771860001  3.2279218771860001  3.2279218771860001
  3.2279218771860001  5.2451146228140004  5.2451146228140004
 10.8938056228140017  5.2451146228140004  8.8766128771860000
  2.4207691228140003  6.0522673771859994  0.4035763771860000
  6.0522673771859994  6.0522673771859994  8.0694601228140019
  2.4207691228140003  8.0694601228140019  2.4207691228140003
 10.8938056228140017  3.2279218771860001 10.8938056228140017
  0.4035763771860000  2.4207691228140003  6.0522673771859994
  8.8766128771860000  8.8766128771860000  3.2279218771860001
  8.8766128771860000 10.8938056228140017  5.2451146228140004
  5.2451146228140004 10.8938056228140017  8.8766128771860000
  8.0694601228140019  0.4035763771860000  0.4035763771860000
  0.4035763771860000  0.4035763771860000  8.0694601228140019
  8.0694601228140019  2.4207691228140003  2.4207691228140003
  5.2451146228140004  8.8766128771860000 10.8938056228140017
  0.4035763771860000  8.0694601228140019  0.4035763771860000
  8.8766128771860000  3.2279218771860001  8.8766128771860000
  8.8766128771860000  5.2451146228140004 10.8938056228140017
  5.2451146228140004  5.2451146228140004  3.2279218771860001
  8.0694601228140019  6.0522673771859994  6.0522673771859994
  0.4035763771860000  6.0522673771859994  2.4207691228140003
  8.0694601228140019  8.0694601228140019  8.0694601228140019
  5.2451146228140004  3.2279218771860001  5.2451146228140004
