La In Ag
 1.0000000000000000
     0.0000000000000000    3.5999150000000002    3.5999150000000002
     3.5999150000000002    0.0000000000000000    3.5999150000000002
     3.5999150000000002    3.5999150000000002    0.0000000000000000
 La  In  Ag 
   1   1   2
Cartesian
  3.5999150000000002  3.5999150000000002  3.5999150000000002
  0.0000000000000000  0.0000000000000000  0.0000000000000000
  1.7999575000000001  1.7999575000000001  1.7999575000000001
  5.3998725000000007  5.3998725000000007  5.3998725000000007
