Ru Se
 1.0000000000000000
     5.9716319999999996    0.0000000000000000    0.0000000000000000
     0.0000000000000000    5.9716319999999996    0.0000000000000000
     0.0000000000000000    0.0000000000000000    5.9716319999999996
 Ru  Se 
   4   8
Cartesian
  0.0000000000000000  2.9858159999999998  2.9858159999999998
  2.9858159999999998  2.9858159999999998  0.0000000000000000
  2.9858159999999998  0.0000000000000000  2.9858159999999998
  0.0000000000000000  0.0000000000000000  0.0000000000000000
  2.2726956498239996  0.7131203501760000  5.2585116498239994
  0.7131203501760000  5.2585116498239994  2.2726956498239996
  5.2585116498239994  2.2726956498239996  0.7131203501760000
  3.6989363501760000  3.6989363501760000  3.6989363501760000
  2.2726956498239996  2.2726956498239996  2.2726956498239996
  0.7131203501760000  3.6989363501760000  5.2585116498239994
  5.2585116498239994  0.7131203501760000  3.6989363501760000
  3.6989363501760000  5.2585116498239994  0.7131203501760000
