Ho Cu Si
 1.0000000000000000
     3.6901690000000000    0.0000000000000000   -1.3588110000000000
    -0.5003480000000000    3.6560910000000000   -1.3588110000000000
     0.0015370000000000    0.0017620000000000    5.6943380000000001
 Ho  Cu  Si 
   1   2   2
Cartesian
  0.0000000000000000  0.0000000000000000  0.0000000000000000
  0.5480497499999999  2.7429492500000001  1.4883580000000001
  2.6433082499999996  0.9149037500000000  1.4883580000000001
  1.9700948229440003  2.2580722237139996 -0.3398987400000000
  1.2212631770560001  1.3997807762860000  3.3166147400000003
