Zn Ga S 
 1.0000000000000000
     5.3022520000000002   -0.0063190000000000   -0.2735570000000000
    -0.0064930000000000    5.3015960000000000   -0.2742780000000000
    -2.3790719999999999   -2.3798879999999998    5.4678129999999996
 Zn  Ga  S  
   1   2   4
Cartesian
  0.1315062790480003  2.7848629767500004  2.4599218781609999
  2.9165699442440003  2.9151499122310010  4.9197771214829995
  2.7856767425500006  0.1303904486950000  2.4594735845419997
 -1.1194346072299999  1.4824115349389999  3.9506293311589995
  1.4369629415720000  1.3913171192280001  1.1061403789460000
  1.5278343397719998 -1.0744670853659999  3.9466572083869997
  3.9876241216260002  4.0319040892409994  0.8373070280670000
