Ta Ir
 1.0000000000000000
     2.8832149999999999    0.0000000000000000    0.0000000000000000
     0.0000000000000000    4.8618660000000000    0.0000000000000000
     0.0000000000000000    0.0000000000000000   13.8547630000000002
 Ta  Ir 
   6   6
Cartesian
  0.0000000000000000  4.6093455418260003 10.3910722500000006
  0.0000000000000000  1.5817205895120001 12.6681718228650002
  0.0000000000000000  3.2801454104880001  5.7407903228650001
  0.0000000000000000  3.2801454104880001  1.1865911771350000
  0.0000000000000000  0.2525204581740000  3.4636907500000000
  0.0000000000000000  1.5817205895120001  8.1139726771349991
  1.4416074999999999  2.2280862267480002 10.3910722500000006
  1.4416074999999999  2.6337797732520003  3.4636907500000000
  1.4416074999999999  4.0040189154960002 12.7193651721500007
  1.4416074999999999  4.0040189154960002  8.0627793278500004
  1.4416074999999999  0.8578470845039999  1.1353978278499999
  1.4416074999999999  0.8578470845039999  5.7919836721499998
