Ca Co Ge
 1.0000000000000000
     3.7061359999999999    0.0000000000000000   -1.3389670000000000
    -0.4837470000000000    3.6744300000000001   -1.3389670000000000
     0.0169200000000000    0.0192940000000000    5.8454379999999997
 Ca  Co  Ge 
   1   2   2
Cartesian
  0.0000000000000000  0.0000000000000000  0.0000000000000000
  2.6671252499999998  0.9282545000000000  1.5837519999999998
  0.5721837500000000  2.7654695000000000  1.5837519999999998
  1.1953616658999999  1.3630489077999999  3.3086510081999996
  2.0439473340999998  2.3306750922000004 -0.1411470082000003
