Pu N 
 1.0000000000000000
     3.0303079999999998    0.0000000000000000    1.7495499999999999
     1.0101030000000000    2.8570009999999999    1.7495499999999999
     0.0000000000000000    0.0000000000000000    3.4990990000000002
 Pu  N  
   1   1
Cartesian
  0.0000000000000000  0.0000000000000000  0.0000000000000000
  2.0202054999999999  1.4285005000000000  3.4990994999999998
