Cu I 
 1.0000000000000000
     4.1286120000000004    0.0005560000000000   -0.0003410000000000
    -2.0638250000000000    3.5757750000000001    0.0003250000000000
    -0.0006070000000000    0.0003160000000000    7.4781060000000004
 Cu  I  
   2   2
Cartesian
 -0.0001775103910000  2.3842865909780002  6.3409610717530001
 -2.0642201668390001  3.5759753669190006  4.9958344125920000
 -2.0636964848949999  3.5757146685980001  0.0954390161800000
 -0.0001520562260000  2.3842885353350001  3.7641254138130003
