Ca Fe N 
 1.0000000000000000
     3.1106419999999999   -5.3876629999999999    0.0000010000000000
     3.1106680000000000    5.3876790000000003   -0.0000030000000000
    -0.0000040000000000   -0.0000020000000000   12.2174340000000008
 Ca  Fe  N  
  12   2  10
Cartesian
  4.3461087131439999 -3.2478295150879997 10.7444755305760005
  3.7503887895519998  0.0000078864060003 10.7444622989980019
  1.8751691707060001 -3.2478020261339999  1.4732032294080000
  4.3461254221500001  3.2478380944980003  7.5816726750839996
  2.4709410602719997  0.0000055959500004  4.6355013616300003
  1.8751650247199998 -3.2477971561429997  4.6355149762309997
  2.4709358742979997  0.0000061136020004  1.4732140496760000
  1.8751879547460002  3.2478165766690004  1.4732008181170000
  4.3461097486439995 -3.2478289973379999  7.5816873038260004
  3.7503898250479999  0.0000084041540003  7.5816862896820005
  4.3461306079559998  3.2478375767620005 10.7444731192660008
  1.8751838087379999  3.2478106713199999  4.6355003475100007
  0.0000498810960000 -0.0000176628770000  9.1630754999890005
  6.2212530082360002  0.0000262751980004  3.0543565000140003
  5.3253736696380001  1.5516829945060002  9.1630854294480013
  1.7918058250999997  0.0000192711950004  9.1630871414050006
  0.8959509942660001 -1.5516797698000000  3.0543465705500004
  3.1106455560259998 -1.7958923127749999  6.1086067097650005
  3.1106624439739998  1.7959073127750005  0.0001082902350000
  3.1106604440459997  1.7959063128110004  6.1086053764230011
  3.1106475559539999 -1.7958913128109999  0.0001096235770000
  4.4294566257260000 -0.0000052713090002  3.0543570760430003
  0.8959771463820001  1.5516941536440003  3.0543332010820001
  5.3253537389140000 -1.5516586028939996  9.1630865814680007
