Sb Te
 1.0000000000000000
     4.3092920000000001    0.0584190000000000    9.9900760000000002
     2.1098640000000000    3.7579090000000002    9.9900760000000002
     0.0982630000000000    0.0584190000000000   10.8794290000000000
 Sb  Te 
   2   3
Cartesian
  3.9378441120570002  2.3411337616410002 18.6454514189430007
  2.5795748879430000  1.5336132383590000 12.2141295810570014
  5.1001801687739992  3.0321677658619999 24.1490416732259980
  1.4172388312260000  0.8425792341380001  6.7105393267739997
  0.0000000000000000  0.0000000000000000  0.0000000000000000
