Ce Ni
 1.0000000000000000
     3.3589560000000001    0.0000000000000000   -1.2084070000000000
     0.0000000000000000    4.1907129999999997    0.0000000000000000
     0.1673270000000000    0.0000000000000000    5.7376760000000004
 Ce  Ni 
   2   2
Cartesian
  0.5040674586810000  3.1430347500000000  1.4011471971780001
  3.0225592143759998  1.0476782499999999  3.1290823663830003
  1.5607014956829999  3.1430347500000000  4.3381994695690000
  1.9652379985870003  1.0476782499999999  0.1901147045460001
