Tb Rh O 
 1.0000000000000000
     5.2294130000000001    0.0000000000000000    0.0000000000000000
     0.0000000000000000    5.7758079999999996    0.0000000000000000
     0.0000000000000000    0.0000000000000000    7.6000779999999999
 Tb  Rh  O  
   4   4  12
Cartesian
  2.4584411807339999  3.3730603203839999  5.7000584999999999
  5.0731476807340004  5.2906516796159995  1.9000195000000000
  0.1562653192660000  0.4851563203840000  5.7000584999999999
  2.7709718192659998  2.4027476796159997  1.9000195000000000
  2.6147065000000000  0.0000000000000000  3.8000389999999999
  0.0000000000000000  2.8879039999999998  3.8000389999999999
  0.0000000000000000  2.8879039999999998  0.0000000000000000
  2.6147065000000000  0.0000000000000000  0.0000000000000000
  4.3066098643680002  1.1006090934399999  3.3422331015140001
  1.6919033643679999  1.7872949065600001  4.2578448984859998
  3.5375096356319999  3.9885130934399999  0.4578058984860000
  0.9228031356320001  4.6751989065599995  7.1422721015140000
  0.9228031356320001  4.6751989065599995  4.2578448984859998
  3.5375096356319999  3.9885130934399999  3.3422331015140001
  1.6919033643679999  1.7872949065600001  7.1422721015140000
  4.3066098643680002  1.1006090934399999  0.4578058984860000
  1.9325504918020000  0.2829568339200000  1.9000195000000000
  4.5472569918020005  2.6049471660800001  5.7000584999999999
  0.6821560081980000  3.1708608339199995  1.9000195000000000
  3.2968625081979996  5.4928511660799995  5.7000584999999999
