Hf Os
 1.0000000000000000
     3.2598690000000001    0.0000000000000000    0.0000000000000000
     0.0000000000000000    3.2598690000000001    0.0000000000000000
     0.0000000000000000    0.0000000000000000    3.2598690000000001
 Hf  Os 
   1   1
Cartesian
  0.0000000000000000  0.0000000000000000  0.0000000000000000
  1.6299345000000001  1.6299345000000001  1.6299345000000001
