Tm Bi I  O 
 1.0000000000000000
     3.9213610000000001    0.0000000000000000    0.0000000000000000
     0.0000000000000000    3.9213610000000001    0.0000000000000000
     0.0000000000000000    0.0000000000000000    9.6731459999999991
 Tm  Bi  I   O  
   1   2   1   4
Cartesian
  0.0000000000000000  0.0000000000000000  0.0000000000000000
  1.9606805000000000  1.9606805000000000  2.4733557201779997
  1.9606805000000000  1.9606805000000000  7.1997902798219995
  0.0000000000000000  0.0000000000000000  4.8365729999999996
  0.0000000000000000  1.9606805000000000  1.3498101391319999
  1.9606805000000000  0.0000000000000000  8.3233358608679993
  1.9606805000000000  0.0000000000000000  1.3498101391319999
  0.0000000000000000  1.9606805000000000  8.3233358608679993
