Tl As Pd
 1.0000000000000000
     4.0395709999999996    0.0000000000000000    0.0000000000000000
     0.0000000000000000    4.0395709999999996    0.0000000000000000
     0.0000000000000000    0.0000000000000000    7.1055039999999998
 Tl  As  Pd 
   1   1   5
Cartesian
  2.0197854999999998  2.0197854999999998  0.0000000000000000
  0.0000000000000000  0.0000000000000000  3.5527519999999999
  0.0000000000000000  0.0000000000000000  0.0000000000000000
  0.0000000000000000  2.0197854999999998  2.0802286675519999
  2.0197854999999998  0.0000000000000000  2.0802286675519999
  0.0000000000000000  2.0197854999999998  5.0252753324479995
  2.0197854999999998  0.0000000000000000  5.0252753324479995
