Na Os N 
 1.0000000000000000
     8.7716360000000009    0.0000000000000000    0.0000000000000000
     0.0000000000000000    5.7334839999999998    0.0000000000000000
     0.0000000000000000    3.6369950000000002    8.3331110000000006
 Na  Os  N  
  12   4   8
Cartesian
  0.3228663778880000  7.9206715913380004  8.1146001633580003
  4.7086843778879999  3.2683049086620000  4.3850663366419997
  8.4487696221120014  1.4498074086619999  0.2185108366420000
  4.0629516221120001  6.1021740913380000  3.9480446633580000
  3.5616701679840004  7.0998329442390000  6.9870885795030011
  7.9474881679840008  4.0891435557609999  5.5125779204969998
  5.2099658320160005  2.2706460557610004  1.3460224204970002
  0.8241478320160001  5.2813354442389997  2.8205330795030004
  2.2241447957960001  4.2702375519980000  6.3558470881420002
  6.6099627957960010  6.9187389480019998  6.1438194118580007
  6.5474912042040003  5.1002414480019995  1.9772639118580000
  2.1616732042040003  2.4517400519980002  2.1892915881420003
  0.9636343876880000  7.1814932374969995  5.1247216021129995
  5.3494523876880002  4.0074832625030004  7.3749448978870014
  7.8080016123120011  2.1889857625030000  3.2083893978870002
  3.4221836123120002  5.3629957374970001  0.9581661021130001
  6.9370746455080008  9.0353633221390002  7.7440017178550011
  2.5512566455079999  2.1536131778610001  4.7556647821449998
  1.8345613544920001  0.3351156778610000  0.5891092821450000
  6.2203793544920005  7.2168658221389999  3.5774462178550004
  4.6864745955360005  5.0953929270750002  6.1184117564190004
  0.3006565955360000  6.0935835729250005  6.3812547435810005
  4.0851614044640003  4.2750860729250002  2.2146992435809998
  8.4709794044640017  3.2768954270750004  1.9518562564190001
