Eu P  Pd
 1.0000000000000000
     3.8940329999999999    0.0000000000000000   -1.5369450000000000
    -0.6066200000000000    3.8464920000000000   -1.5369450000000000
     0.0087460000000000    0.0102330000000000    5.7236310000000001
 Eu  P   Pd 
   1   2   2
Cartesian
  0.0000000000000000  0.0000000000000000  0.0000000000000000
  1.2807498521419998  1.4985622542060000  3.2449442984220003
  2.0154091478579996  2.3581627457940000 -0.5952032984219998
  2.7732427500000001  0.9667395000000000  1.3248705000000001
  0.5229162499999999  2.8899855000000003  1.3248705000000001
