Hf Mo Ir
 1.0000000000000000
    -0.0000020000000000    3.2646099999999998    3.2646090000000001
     3.2646009999999999    0.0000010000000000    3.2646060000000001
     3.2646020000000000    3.2646080000000000    0.0000000000000000
 Hf  Mo  Ir 
   2   1   1
Cartesian
  0.0000000000000000  0.0000000000000000  0.0000000000000000
  3.2646070292030003  3.2646127646089997  3.2646107646060001
  4.8968942207969999  4.8969109853910000  4.8969079853939999
  1.6323002500000001  1.6323047499999999  1.6323037500000002
