Li Ag
 1.0000000000000000
     3.1227399999999998    0.0000000000000000    0.0000000000000000
     0.0000000000000000    3.1227399999999998    0.0000000000000000
     0.0000000000000000    0.0000000000000000    3.1227399999999998
 Li  Ag 
   1   1
Cartesian
  1.5613699999999999  1.5613699999999999  1.5613699999999999
  0.0000000000000000  0.0000000000000000  0.0000000000000000
