Al Cl
 1.0000000000000000
     5.8809380000000004    0.0005980000000000   -0.9276350000000000
    -3.1578640000000000    4.9611820000000000   -0.9276350000000000
     0.0218300000000000    0.0397760000000000    6.2919660000000004
 Al  Cl 
   2   6
Cartesian
  4.3750645479979999  0.8270362549840000 -0.9276350000000000
 -1.6519905479979999  4.1347437450160003 -0.9276350000000000
  2.1649879721079999  3.9448769827039998  3.4347985399640004
  0.5799160278920000  1.0566790172960001  1.0018974600360002
  0.4248211761539998  4.6245424100840005 -0.0047676120679998
 -0.9279745196459999  2.1595796079800000  4.4414636120680004
  2.3200828238460001  0.3770135899160000  4.4414636120680004
  3.6728785196460008  2.8419763920199999 -0.0047676120680000
