Ca La Hg
 1.0000000000000000
     0.0000000000000000    3.8338169999999998    3.8338169999999998
     3.8338169999999998    0.0000000000000000    3.8338169999999998
     3.8338169999999998    3.8338169999999998    0.0000000000000000
 Ca  La  Hg 
   1   1   2
Cartesian
  1.9169008323660000  1.9169008323660000  1.9169008323660000
  5.7507254999999997  5.7507254999999997  5.7507254999999997
  0.0000000000000000  0.0000000000000000  0.0000000000000000
  3.8338169999999998  3.8338169999999998  3.8338169999999998
