Zr P 
 1.0000000000000000
     3.7087089999999998   -0.0000000000000000    0.0000000000000000
    -1.8543550000000000    3.2118359999999999    0.0000000000000000
     0.0000000000000000    0.0000000000000000   12.5677800000000008
 Zr  P  
   4   4
Cartesian
 -0.0000021876880000  2.1412250706120002  4.8279126870000004
  1.8543561876879999  1.0706109293880000 11.1118026870000008
  1.8543561876879999  1.0706109293880000  7.7398673130000004
 -0.0000021876880000  2.1412250706120002  1.4559773130000000
  1.8543561876879999  1.0706109293880000  3.1419450000000002
 -0.0000021876880000  2.1412250706120002  9.4258350000000011
  0.0000000000000000  0.0000000000000000  6.2838900000000004
  0.0000000000000000  0.0000000000000000  0.0000000000000000
