Mg Al B 
 1.0000000000000000
     7.1572389999999997    0.0033960000000000   -0.0001710000000000
    -2.6125349999999998    6.6659340000000000   -0.0008930000000000
    -2.3649410000000000   -3.2469489999999999   10.1656870000000001
 Mg  Al  B  
   2   4  56
Cartesian
  0.9919413934729999  5.5615171765030009  1.1267096996490000
  5.9381113562529997 -0.6638675054049999  4.0259792237249998
 -0.2484840449710002  2.4224065720360000  2.3929046571270001
  1.1418600697650001  1.7812114247010000  5.0746865186810002
  2.4886881369670002  1.0677133327830006  7.7950769109909999
  0.9473931285519999 -1.6129392184359999  8.2139671357000008
 -1.6237907852979998  5.5141084595460006  0.8764819435900000
  0.1699350209180000  1.5961594206790000  0.4122391338400000
  0.5942351384080000  3.2888292049489998  0.7641077908300000
 -0.8392944558239999  4.2639268784489994  1.7567729198940001
  1.5945392021489999  0.4937461906170000  0.5036463570530000
  3.7112811783410002  5.6345284109970004  1.1438745721810000
  3.6688959591460000  2.8151223149389999  0.8718735066880001
  2.0749695567400002  3.0287958590080000  1.6931957263319999
 -0.4103680166470000  4.7347618513330003  3.4010937002730000
  2.8172800498070005  1.3652748230430003  1.4358616324389999
  3.3703988590009994  4.1745469976070000  2.0667026501570001
  5.8102266361779993  0.6633411239300000  0.8392871968059999
  4.5769692293689994  1.5092145726699999  1.6910972110629998
  4.8901318714249999  3.2609277381670001  2.0817604909490002
  2.0669073944070000  1.8057481951450001  2.9898871997710001
  2.3867187861469996  3.5465866021920003  3.4125518201970002
  1.1506838537130002  4.3950656766449994  4.2616677584130001
  3.5830582490620002  0.8579221213570001  3.0401824909560000
  4.1400716579289991  3.6629438809210000  3.6680964573570001
  0.2205021261680000  0.2751022270130001  1.6618480443179999
  4.8530274268199998  2.0206180656920005  3.4085440194439998
  3.2874313332509999  2.2265671427589995  4.2440775722590001
  0.7760062135910002  3.9402975309880000  5.9646611814290003
  3.2276862124380004 -0.5912593395430000  3.9752888862400000
 -1.8026295663010001  4.5091123399230000  4.5960134029190005
  0.6356483785349998  0.7446571835000001  3.3181337360570002
 -0.8198036329729999  1.7503282156219999  4.3202282796370000
 -0.3643693607119997  3.4640155103120005  4.6459687080560004
  2.5331040574380004 -0.0401896663669997  5.5348677863879994
  3.0200121913450007  1.6655454200760005  5.8733658870749998
  1.5483800629770004  2.6753803297459999  6.8783064657389996
  3.9813035966129999 -1.0959946566769998  5.5714571967769997
 -1.0484111995390000  4.0056981465370001  6.2030785670890003
  1.4209670463459998 -0.5301031662669999  4.2219097469440001
 -1.0979594609129999  1.2115014540680000  5.9597499911850003
 -2.6677778914559998  1.3991066052540004  6.7685823839000001
  1.9572931022950000  3.1342009255290009  8.5163778678989992
 -1.9623677765379999 -0.2580078775539999  6.5043257734340001
 -1.3946028109349997  2.5672385296390003  7.1926278328890003
  1.0325195110979997 -0.9905205768079999  5.9184595927219998
 -0.2174586811300001 -0.1330226700590000  6.7750764627439999
  0.1309270380890003  1.6105597685210002  7.1985430572569999
 -2.7132807930000000  0.1288696750640000  8.0856016771959993
 -2.4027186738099999  1.8811754793999995  8.4929256401419995
 -3.6319567727029995  2.7225769836479996  9.3439433165830010
 -1.2042811307579999 -0.7766991414640000  8.1039318033020002
 -0.6376267502269999  2.0471528503630005  8.7628364308050006
  2.6290474257729994 -1.3254902832349997  6.7465137643729998
  0.0732814621939997  0.4123804746259997  8.4963909771340003
 -1.5036105772209998  0.5657489232269999  9.3190429042830001
 -1.4918867111890000 -2.2540584974269997  9.0624509979029995
  0.6003590075749996  2.8970309280690003  9.6947291602710006
  2.9973675509409996 -0.8891136678179996  8.4274863477149999
  1.5713877354609995  0.0797648125520000  9.4137074732950001
  2.0128269372039997  1.8029978217130003  9.7805649611100005
  3.8131410979289990 -2.1258198984950001  9.3115764196769994
