Gd S  O 
 1.0000000000000000
     3.8549060000000002    0.0000000000000000    0.0000000000000000
    -1.9274530000000001    3.3384459999999998    0.0000000000000000
     0.0000000000000000    0.0000000000000000    6.6674610000000003
 Gd  S   O  
   2   1   2
Cartesian
  1.9274549274530004  1.1128142205179998  4.7921709191400002
 -0.0000019274530000  2.2256317794819998  1.8752900808600002
  0.0000000000000000  0.0000000000000000  0.0000000000000000
 -0.0000019274530000  2.2256317794819998  4.1946397317810007
  1.9274549274530004  1.1128142205179998  2.4728212682190001
