Na B  Pt
 1.0000000000000000
     5.5548289999999998    0.0000000000000000    0.0000000000000000
    -2.7774139999999998    4.8106229999999996    0.0000000000000000
     0.0000000000000000    0.0000000000000000    5.5396140000000003
 Na  B   Pt 
   2   2   6
Cartesian
  0.0000000000000000  0.0000000000000000  2.7698070000000001
  0.0000000000000000  0.0000000000000000  0.0000000000000000
  2.7774174440810002  1.6035393964589999  2.7698070000000001
 -0.0000024440810000  3.2070836035409997  2.7698070000000001
  1.3887075000000000  2.4053114999999998  4.1991437438940000
 -1.3887069999999999  2.4053114999999998  4.1991437438940000
  2.7774144999999999  0.0000000000000000  4.1991437438940000
 -1.3887069999999999  2.4053114999999998  1.3404702561060000
  1.3887075000000000  2.4053114999999998  1.3404702561060000
  2.7774144999999999  0.0000000000000000  1.3404702561060000
