Ti V  Tc
 1.0000000000000000
     0.0000030000000000    3.0503239999999998    3.0503239999999998
     3.0503239999999998    0.0000030000000000    3.0503239999999998
     3.0503239999999998    3.0503239999999998    0.0000030000000000
 Ti  V   Tc 
   1   1   2
Cartesian
  1.5251688506509997  1.5251688506509997  1.5251688506509997
  4.5754882499999994  4.5754882499999994  4.5754882499999994
  3.0503269999999998  6.1006479999999996  3.0503269999999998
  3.0503193993490001  3.0503193993490001  3.0503193993490001
