Hg O 
 1.0000000000000000
     5.8063989999999999    0.0000000000000000    0.0000000000000000
     0.0000000000000000    6.7389640000000002    0.0000000000000000
     0.0000000000000000    0.0000000000000000    3.7359279999999999
 Hg  O  
   4   4
Cartesian
  4.3547992500000001  2.5877150032519998  2.7761344734479998
  1.4515997500000000  0.7817669967480000  0.9081704734479999
  1.4515997500000000  4.1512489967479995  0.9597935265520000
  4.3547992500000001  5.9571970032520003  2.8277575265520003
  4.3547992500000001  0.9228674249800001  0.2559745787760000
  1.4515997500000000  2.4466145750200003  2.1239385787760003
  1.4515997500000000  5.8160965750200004  3.4799534212239998
  4.3547992500000001  4.2923494249800003  1.6119894212240000
