Mn Al Pt
 1.0000000000000000
     4.3506830000000001    0.0000000000000000    0.0000000000000000
    -2.1753410000000000    3.7678020000000001    0.0000000000000000
     0.0000000000000000    0.0000000000000000    5.3903160000000003
 Mn  Al  Pt 
   2   2   2
Cartesian
  0.0000000000000000  0.0000000000000000  0.0000000000000000
  0.0000000000000000  0.0000000000000000  2.6951580000000002
 -0.0000018420079999  2.5118692559340001  4.0427370000000007
  2.1753438420080005  1.2559327440660000  1.3475790000000001
 -0.0000018420079999  2.5118692559340001  1.3475790000000001
  2.1753438420080005  1.2559327440660000  4.0427370000000007
