Cs Ge Cl
 1.0000000000000000
     6.3316720000000002    0.0000000000000000    3.6555939999999998
     2.1105570000000000    5.9695570000000000    3.6555939999999998
     0.0000000000000000    0.0000000000000000    7.3111850000000000
 Cs  Ge  Cl 
   2   1   6
Cartesian
  6.3316717499999999  4.4771677499999996 10.9667797499999988
  2.1105572500000003  1.4923892500000000  3.6555932499999999
  0.0000000000000000  0.0000000000000000  0.0000000000000000
  3.0560783177699999  4.6323881711140000  9.3290881823700005
  3.0560783177699999  4.6323881711140000  5.2932848176300000
  5.3861506822299994  1.3371688288860000  9.3290881823700005
  5.3861506822299994  1.3371688288860000  5.2932848176300000
  6.5511865884580001  4.6323881711140000  7.3111873280059996
  1.8910424115420001  1.3371688288860000  7.3111856719940000
