Ba Cd
 1.0000000000000000
     4.1393500000000003   -0.0000000000000000   -1.1199820000000000
    -0.3030340000000000    4.1282430000000003   -1.1199820000000000
     0.0257930000000000    0.0277570000000000    8.3046480000000003
 Ba  Cd 
   2   1
Cartesian
  2.4255758916170000  2.6101520213409999  0.7553965626320003
  1.4365331083830000  1.5458479786590003  5.3092874373680008
  0.0000000000000000  0.0000000000000000  0.0000000000000000
