Zr Ga
 1.0000000000000000
     3.8087339999999998   -0.0000010000000000   -0.7036790000000001
    -0.1300030000000000    3.8065129999999998   -0.7036780000000000
    -0.0104650000000000   -0.0108250000000000   10.6029809999999998
 Zr  Ga 
   4   4
Cartesian
  1.1507706946879999  2.1757411150119998  0.9000142611860000
  0.1606797507600000  3.1222497943809997  6.2018946024359991
  2.5175915274589999  1.6200178623089998  8.2959173686699987
  3.5075509668370004  0.6733652282820000  2.9934105088439997
  1.6568976657419998  2.6994415306019994  3.6353526766299997
  0.6667187027659999  3.6459773643599998  8.9367459366439999
  2.0112927363380000  1.0962263610779999  5.5603631362070001
  3.0015620749480001  0.1497249266380000  0.2588088160419999
