Al Cl O 
 1.0000000000000000
     3.6190229999999999    0.0000000000000000    0.0000000000000000
     0.0000000000000000    3.1414399999999998    0.0000000000000000
     0.0000000000000000    0.0000000000000000    7.9259870000000001
 Al  Cl  O  
   2   2   2
Cartesian
  2.7142672499999998  0.7853599999999999  7.1046407451510003
  0.9047557500000000  2.3560800000000000  0.8213462548490000
  2.7142672499999998  2.3560800000000000  5.4336683138369999
  0.9047557500000000  0.7853599999999999  2.4923186861629998
  0.9047557500000000  0.7853599999999999  7.5406968459430006
  2.7142672499999998  2.3560800000000000  0.3852901540570000
