Cu Pb O 
 1.0000000000000000
     5.1067910000000003   -0.0458350000000000   -2.7733059999999998
    -1.6003460000000000    4.8497729999999999   -2.7733059999999998
     0.0222850000000000    0.0305300000000000    6.0321100000000003
 Cu  Pb  O  
   4   2   4
Cartesian
  2.5533955000000002 -0.0229175000000000 -1.3866529999999999
 -0.7890305000000000  2.4401514999999998  1.6294020000000002
  0.0111425000000000  0.0152650000000000  3.0160550000000002
  0.0000000000000000  0.0000000000000000  0.0000000000000000
  0.9458082599560002  3.0030079368960001 -1.2652784999999998
  2.5829217400440001  1.8314600631040001  1.7507765000000004
 -0.9850287244120001  3.1453101090539999 -0.0633523830839997
  0.2217055485180001  4.7985734442419998 -2.4672046169159993
  4.5137587244120008  1.6891578909460001  0.5488503830840002
  3.3070244514820000  0.0358945557580000  2.9527026169160009
