Ga Cu S 
 1.0000000000000000
     4.8419710000000000    0.0000000000000000   -2.1898939999999998
    -0.9904300000000000    4.7395920000000000   -2.1898939999999998
     0.0075300000000000    0.0092660000000000    6.4645239999999999
 Ga  Cu  S  
   2   2   4
Cartesian
  1.9257705000000001  2.3697960000000000 -2.1898939999999998
  3.3876357499999998  1.1895310000000001  1.0423680000000002
  0.4714352500000000  3.5593270000000001  1.0423680000000002
  0.0000000000000000  0.0000000000000000  0.0000000000000000
  3.3728717976640001  4.1494594999999999 -2.2165864404959992
  2.9082578641199999  0.5985264150720000  3.2063754404960001
  1.4453194523360000  1.7796635000000001 -0.0258865595039997
 -0.0083071141200000  2.9700665849279999  3.2055695595040001
