Mn Be
 1.0000000000000000
     4.1623880000000000    0.0000000000000000    0.0000000000000000
    -2.0811929999999998    3.6047330000000000    0.0000000000000000
     0.0000000000000000    0.0000000000000000    6.7848080000000000
 Mn  Be 
   4   8
Cartesian
 -0.0000014145269999  2.4031565349110000  0.4191315142000000
  2.0811964145270001  1.2015764650890000  3.8115355142000000
  2.0811964145270001  1.2015764650890000  6.3656764857999999
 -0.0000014145269999  2.4031565349110000  2.9732724857999999
  0.0000000000000000  0.0000000000000000  0.0000000000000000
  0.0000000000000000  0.0000000000000000  3.3924040000000000
  2.0811946595180002  2.3773862986940002  1.6962020000000000
 -1.0182795269789999  2.9910596493470001  5.0886060000000004
  1.0182811864970001  2.9910596493470001  5.0886060000000004
  1.0629138135030001  0.6136733506530000  1.6962020000000000
  3.0994745269790003  0.6136733506530000  1.6962020000000000
  0.0000003404820000  1.2273467013060000  5.0886060000000004
