Er Nb Ru
 1.0000000000000000
     0.0000000000000000    3.2483970000000002    3.2483970000000002
     3.2483970000000002    0.0000000000000000    3.2483970000000002
     3.2483970000000002    3.2483970000000002    0.0000000000000000
 Er  Nb  Ru 
   1   1   2
Cartesian
  1.6241985000000001  1.6241985000000001  1.6241985000000001
  4.8726019967940006  4.8726019967940006  4.8726019967940006
  0.0000000000000000  0.0000000000000000  0.0000000000000000
  3.2483970000000002  3.2483970000000002  3.2483970000000002
