Hg Rh
 1.0000000000000000
     4.6731949999999998    0.0000000000000000    0.0000000000000000
     0.0000000000000000    4.6731949999999998    0.0000000000000000
     0.0000000000000000    0.0000000000000000    3.0652629999999998
 Hg  Rh 
   2   1
Cartesian
  2.3365974999999999  0.0000000000000000  1.5326314999999999
  0.0000000000000000  2.3365974999999999  1.5326314999999999
  0.0000000000000000  0.0000000000000000  0.0000000000000000
