Lu Ga Co
 1.0000000000000000
     4.2052969999999998    0.0000000000000000    0.0000000000000000
     0.0000000000000000    4.2052969999999998    0.0000000000000000
     0.0000000000000000    0.0000000000000000    6.7510029999999999
 Lu  Ga  Co 
   1   5   1
Cartesian
  0.0000000000000000  0.0000000000000000  0.0000000000000000
  0.0000000000000000  2.1026484999999999  2.0774996551960001
  0.0000000000000000  2.1026484999999999  4.6735033448039998
  2.1026484999999999  0.0000000000000000  2.0774996551960001
  2.1026484999999999  0.0000000000000000  4.6735033448039998
  2.1026484999999999  2.1026484999999999  0.0000000000000000
  0.0000000000000000  0.0000000000000000  3.3755014999999999
