Li Ac Tl
 1.0000000000000000
     0.0000000000000000    3.8874939999999998    3.8874939999999998
     3.8874939999999998    0.0000000000000000    3.8874939999999998
     3.8874939999999998    3.8874939999999998    0.0000000000000000
 Li  Ac  Tl 
   1   1   2
Cartesian
  5.8312409999999995  5.8312409999999995  5.8312409999999995
  1.9437469999999999  1.9437469999999999  1.9437469999999999
  0.0000000000000000  0.0000000000000000  0.0000000000000000
  3.8875017749879999  3.8875017749879999  3.8875017749879999
