Ba Pa O 
 1.0000000000000000
     4.4938170000000000    0.0000000000000000    0.0000000000000000
     0.0000000000000000    4.4938549999999999    0.0000000000000000
     0.0000000000000000    0.0000000000000000    4.4938339999999997
 Ba  Pa  O  
   1   1   3
Cartesian
  2.2469085000000000  2.2469275000000000  2.2469169999999998
  0.0000000000000000  0.0000000000000000  0.0000000000000000
  0.0000000000000000  2.2469275000000000  0.0000000000000000
  0.0000000000000000  0.0000000000000000  2.2469169999999998
  2.2469085000000000  0.0000000000000000  0.0000000000000000
