Rb Na Bi F 
 1.0000000000000000
    -4.5892660000000003   -4.5892660000000003    0.0000000000000000
    -4.5892660000000003    0.0000000000000000   -4.5892660000000003
     0.0000000000000000   -4.5892660000000003   -4.5892660000000003
 Rb  Na  Bi  F  
   2   1   1   6
Cartesian
 -2.2946330000000001 -2.2946330000000001 -2.2946330000000001
 -6.8838990000000004 -6.8838990000000004 -6.8838990000000004
 -4.5892660000000003 -4.5892660000000003 -4.5892660000000003
  0.0000000000000000  0.0000000000000000  0.0000000000000000
 -6.9043579478280011 -4.5892660000000003 -4.5892660000000003
 -4.5892660000000003 -4.5892660000000003 -6.9043579478280011
 -2.2741740521720000 -4.5892660000000003 -4.5892660000000003
 -4.5892660000000003 -6.9043579478280011 -4.5892660000000003
 -4.5892660000000003 -2.2741740521720000 -4.5892660000000003
 -4.5892660000000003 -4.5892660000000003 -2.2741740521720000
