Li Ce N 
 1.0000000000000000
     3.5735079999999999    0.0000000000000000    0.0000000000000000
    -1.7867540000000000    3.0947480000000001    0.0000000000000000
     0.0000000000000000    0.0000000000000000    5.4300790000000001
 Li  Ce  N  
   2   1   2
Cartesian
  1.7867557867540000  1.0315816350839999  2.1440884134660001
 -0.0000017867540001  2.0631663649159999  3.2859905865340000
  0.0000000000000000  0.0000000000000000  0.0000000000000000
  1.7867557867540000  1.0315816350839999  4.1938509246230007
 -0.0000017867540001  2.0631663649159999  1.2362280753770001
