Mg Sn Au
 1.0000000000000000
     6.5237889999999998    0.0000000000000000    0.0000000000000000
     0.0000000000000000    6.5237889999999998    0.0000000000000000
     0.0000000000000000    0.0000000000000000    6.5237889999999998
 Mg  Sn  Au 
   4   4   4
Cartesian
  0.0000000000000000  0.0000000000000000  0.0000000000000000
  0.0000000000000000  3.2618944999999999  3.2618944999999999
  3.2618944999999999  0.0000000000000000  3.2618944999999999
  3.2618944999999999  3.2618944999999999  0.0000000000000000
  3.2618944999999999  0.0000000000000000  0.0000000000000000
  3.2618944999999999  3.2618944999999999  3.2618944999999999
  0.0000000000000000  0.0000000000000000  3.2618944999999999
  0.0000000000000000  3.2618944999999999  0.0000000000000000
  1.6309472500000000  4.8928417499999997  4.8928417499999997
  1.6309472500000000  1.6309472500000000  1.6309472500000000
  4.8928417499999997  4.8928417499999997  1.6309472500000000
  4.8928417499999997  1.6309472500000000  4.8928417499999997
