Ce Si Rh
 1.0000000000000000
     3.8400099999999999    0.0000000000000000   -1.4315789999999999
    -0.5337010000000000    3.8027419999999998   -1.4315789999999999
    -0.0190620000000000   -0.0219240000000000    5.8148049999999998
 Ce  Si  Rh 
   1   2   2
Cartesian
  0.0000000000000000  0.0000000000000000  0.0000000000000000
  2.0596448329919999  2.3688947398560001 -0.3412310479489999
  1.2276021670080002  1.4119232601439999  3.2928780479490003
  0.5501957500000001  2.8410944999999996  1.4758235000000000
  2.7370512499999999  0.9397234999999999  1.4758235000000000
