Rb Au Se
 1.0000000000000000
     5.4080370000000002    0.0067880000000000    0.0000000000000000
    -1.0910400000000000    5.2968419999999998    0.0000000000000000
     0.0000000000000000    0.0000000000000000    6.9094480000000003
 Rb  Au  Se 
   2   2   2
Cartesian
  3.0271456345890004  1.9447622525219999  1.7273620000000001
  1.2898513654110000  3.3588677474780000  5.1820860000000000
  0.0000000000000000  0.0000000000000000  0.0000000000000000
  0.0000000000000000  0.0000000000000000  3.4547240000000001
  0.2402244336029999  4.2132326286939996  1.7273620000000001
  4.0767725663970005  1.0903973713060000  5.1820860000000000
