Pa N 
 1.0000000000000000
     2.4729459999999999    2.4729459999999999    0.0000000000000000
     2.4729459999999999    0.0000000000000000   -2.4729459999999999
     0.0000000000000000    2.4729459999999999   -2.4729459999999999
 Pa  N  
   1   1
Cartesian
  0.0000000000000000  0.0000000000000000  0.0000000000000000
  2.4729459999999999  2.4729459999999999 -2.4729459999999999
