Mg Ge
 1.0000000000000000
     3.8999500000000000    0.0000000000000000    2.2516370000000001
     1.2999840000000000    3.6769090000000002    2.2516370000000001
     0.0000000000000000    0.0000000000000000    4.5032740000000002
 Mg  Ge 
   2   1
Cartesian
  3.8999505000000001  2.7576817500000002  6.7549109999999999
  1.2999835000000000  0.9192272500000001  2.2516370000000001
  0.0000000000000000  0.0000000000000000  0.0000000000000000
