Sr O 
 1.0000000000000000
     5.2043559999999998    0.0000000000000000    0.0000000000000000
     0.0000000000000000    5.2043559999999998    0.0000000000000000
     0.0000000000000000    0.0000000000000000    5.2043559999999998
 Sr  O  
   4   4
Cartesian
  0.0000000000000000  0.0000000000000000  2.6021779999999999
  0.0000000000000000  2.6021779999999999  0.0000000000000000
  2.6021779999999999  0.0000000000000000  0.0000000000000000
  2.6021779999999999  2.6021779999999999  2.6021779999999999
  0.0000000000000000  0.0000000000000000  0.0000000000000000
  0.0000000000000000  2.6021779999999999  2.6021779999999999
  2.6021779999999999  0.0000000000000000  2.6021779999999999
  2.6021779999999999  2.6021779999999999  0.0000000000000000
