Th Br N 
 1.0000000000000000
     4.0740150000000002    0.0000000000000000    0.0000000000000000
     0.0000000000000000    4.0740150000000002    0.0000000000000000
     0.0000000000000000    0.0000000000000000    8.1269609999999997
 Th  Br  N  
   2   2   2
Cartesian
  3.0555112500000003  3.0555112500000003  6.9675687437399993
  1.0185037500000000  1.0185037500000000  1.1593922562600001
  1.0185037500000000  1.0185037500000000  5.2657993642619996
  3.0555112500000003  3.0555112500000003  2.8611616357379996
  3.0555112500000003  1.0185037500000000  0.0000000000000000
  1.0185037500000000  3.0555112500000003  0.0000000000000000
