Sc Al Ag
 1.0000000000000000
     0.0000000000000000    3.4209939999999999    3.4209939999999999
     3.4209939999999999    0.0000000000000000    3.4209939999999999
     3.4209939999999999    3.4209939999999999    0.0000000000000000
 Sc  Al  Ag 
   2   1   1
Cartesian
  0.0000000000000000  0.0000000000000000  0.0000000000000000
  3.4209939999999999  3.4209939999999999  3.4209939999999999
  5.1314909999999996  5.1314909999999996  5.1314909999999996
  1.7104969999999999  1.7104969999999999  1.7104969999999999
