Sr Hg Pb
 1.0000000000000000
     0.0000000000000000    4.0537970000000003    4.0537970000000003
     4.0537970000000003    0.0000000000000000    4.0537970000000003
     4.0537970000000003    4.0537970000000003    0.0000000000000000
 Sr  Hg  Pb 
   2   1   1
Cartesian
  0.0000000000000000  0.0000000000000000  0.0000000000000000
  4.0537970000000003  4.0537970000000003  4.0537970000000003
  2.0268903924060000  2.0268903924060000  2.0268903924060000
  6.0806955000000009  6.0806955000000009  6.0806955000000009
