Li In Sn
 1.0000000000000000
     0.0001380000000000    3.3941450000000000    3.3941450000000000
     3.3941450000000000    0.0001380000000000    3.3941450000000000
     3.3941450000000000    3.3941450000000000    0.0001380000000000
 Li  In  Sn 
   2   1   1
Cartesian
  0.0000033942830000  0.0000033942830000  0.0000067882900000
  3.3942072115720001  3.3942072115720001  3.3942072115720001
  1.6971137884279999  1.6971137884279999  1.6971137884279999
  5.0913209999999998  5.0913209999999998  5.0913209999999998
