La Ag O 
 1.0000000000000000
     3.8151899999999999   -0.0000000000000000    0.0000000000000000
    -1.9075960000000001    1.1013500000000001    6.1421780000000004
     1.9075960000000001   -3.3040509999999998    0.0000000000000000
 La  Ag  O  
   1   1   2
Cartesian
  1.9075949999999999 -1.1013504999999999  3.0710890000000002
  0.0000000000000000  0.0000000000000000  0.0000000000000000
 -0.0000040362200000  0.0000020921860000  2.0364022628320000
  3.8151940362199994 -2.2027030921859998  4.1057757371680008
