Ca Zn Si
 1.0000000000000000
     4.2438520000000004    0.0000000000000000    0.0000000000000000
     0.0000000000000000    4.2438520000000004    0.0000000000000000
     0.0000000000000000    0.0000000000000000   10.2067580000000007
 Ca  Zn  Si 
   2   4   4
Cartesian
  0.0000000000000000  0.0000000000000000  0.0000000000000000
  2.1219260000000002  2.1219260000000002  5.1033790000000003
  0.0000000000000000  2.1219260000000002  7.6550685000000005
  2.1219260000000002  0.0000000000000000  7.6550685000000005
  2.1219260000000002  0.0000000000000000  2.5516895000000002
  0.0000000000000000  2.1219260000000002  2.5516895000000002
  2.1219260000000002  2.1219260000000002  1.1760838973080001
  2.1219260000000002  2.1219260000000002  9.0306741026920001
  0.0000000000000000  0.0000000000000000  6.2794628973080009
  0.0000000000000000  0.0000000000000000  3.9272951026920002
