Cs Ag Cl
 1.0000000000000000
     5.0683699999999998    0.0000000000000000    0.0000000000000000
     0.0000000000000000    5.0683699999999998    0.0000000000000000
     0.0000000000000000    0.0000000000000000    9.8587260000000008
 Cs  Ag  Cl 
   2   2   4
Cartesian
  1.2670925000000000  1.2670925000000000  6.9476315279940000
  3.8012774999999999  3.8012774999999999  2.9110944720060004
  3.8012774999999999  3.8012774999999999  8.8833529431900011
  1.2670925000000000  1.2670925000000000  0.9753730568100001
  3.8012774999999999  3.8012774999999999  6.3616189958280005
  1.2670925000000000  1.2670925000000000  3.4971070041720003
  1.2670925000000000  3.8012774999999999  0.0000000000000000
  3.8012774999999999  1.2670925000000000  0.0000000000000000
