Ca P  H  O 
 1.0000000000000000
     6.5765849999999997   -0.0068620000000000    0.7350449999999999
     0.0107530000000000    6.6853670000000003    1.6663889999999999
     0.0059800000000000    0.0199830000000000    6.9800599999999999
 Ca  P   H   O  
   4   4   4  16
Cartesian
  3.6945917755029991  4.6835990787029997  3.4795773068189999
  2.8914888478480001  1.9475872155480001  5.9073650089840006
  1.0778627562290000  5.6099609712630008  6.1812140984969997
  5.4724091498049994  1.2476196417220000  3.2639652511449997
  4.0982506557280001  5.2863856863310010  6.7724295485440003
  2.4741908559509995  1.3826259482210002  2.5519438256029998
  0.3306828835510000  4.6440550205770004  2.6356510061630001
  6.2069277738370001  1.9409631064990001  6.6820956025610005
  0.7947004485280000  3.5565747655199997  4.7445449622640004
  1.7298673496779997  3.1124358118120004  1.2901289275340000
  4.9105670889129991  3.6232473126300002  8.0686017690689997
  0.0211978824910000  6.6263475491420003  1.8196168114230000
  5.1966361183089997  1.8473829727370001  5.5789603241770003
  1.2968144608380001  4.6251673281169996  3.8274735053339999
  0.5456409947630000  0.7213249362550000  6.0374160583189997
  6.1966985425009993  6.0527161914540004  3.3247930917929995
  4.4033600708199989  4.5177565362339998  8.1358685632200007
  2.2031377688919997  2.1949978413159998  1.2087252182360000
  3.3315814476159997  4.3273902668410003  5.8473817262479999
  3.2005784322570001  2.3245603455750001  3.5235644717810000
  5.4066916373159994  5.7438264246740003  6.1635326144280000
  1.1538361504849997  0.9180541263280000  3.1285071102650002
  3.1593450456649999  6.4168787770330002  7.1326605330849997
  3.4160808617720000  0.2576840784440000  2.1813432087160001
  1.1188630543600000  4.4764554242249996  1.3419857214799997
  5.5691654766619996  2.2540803552690005  8.0219315258060000
  5.8017312696170000  3.6315356357830004  3.5539763425410000
  0.6771534846759999  3.1279195970190004  5.6680703661880001
