Sm Pt
 1.0000000000000000
     0.0000000000000000   -4.5449510000000002    0.0000000000000000
    -7.2441930000000001    0.0000000000000000    0.0000000000000000
     0.0000000000000000    0.0000000000000000   -5.6459690000000000
 Sm  Pt 
   4   4
Cartesian
 -5.9215772188320006 -3.4087132499999999 -2.0404193207860000
 -1.3226157811679999 -1.1362377500000000 -3.6055496792140000
 -4.9447122811680000 -1.1362377500000000 -4.8634038207860000
 -2.2994807188320001 -3.4087132499999999 -0.7825651792140000
 -6.9251587402800006 -3.4087132499999999 -4.7814469347820001
 -0.3190342597200000 -1.1362377500000000 -0.8645220652180000
 -3.9411307597200000 -1.1362377500000000 -1.9584624347820001
 -3.3030622402800001 -3.4087132499999999 -3.6875065652179999
