Si Cl
 1.0000000000000000
     6.4390099999999997    0.0000000000000000    0.0000000000000000
     0.0000000000000000    9.5349520000000005   -2.2252239999999999
     0.0000000000000000   -0.0300860000000000    9.8919040000000003
 Si  Cl 
   4  16
Cartesian
  5.9799600990799995  7.1368472337120004  4.6993898782320009
  2.7604550990799996  2.3529757662880004  7.9132421217679996
  0.4590499009199999  2.3680187662880003  2.9672901217680003
  3.6785549009200000  7.1518902337119998 -0.2465621217679997
  0.4892166627700000  5.5931788648819998  5.5977475824559999
  3.7087216627699995  3.8966441351180001  7.0148844175440006
  5.9497933372300000  3.9116871351180000  2.0689324175440000
  2.7302883372299998  5.6082218648820001  0.6517955824560000
  6.0064888202799995  8.7392122099380014  5.9303170776240002
  2.7869838202799997  0.7506107900620000  6.6823149223760003
  0.4325211797199999  0.7656537900620001  1.7363629223760000
  3.6520261797200000  8.7542552099380018  0.9843650776240002
  0.4822689709800000  7.5944809162740006  2.9717553023760002
  3.7017739709800002  1.9254280837260003 -0.2510273023760000
  5.9567410290199998  1.9103850837260004  4.6949246976240007
  2.7372360290199995  7.5794379162740011  7.9177073023759998
  4.0690808574199995  6.6076722432980004  4.3105034526799999
  0.8495758574200000  2.8821507567019999  8.3021285473200006
  2.3699291425799998  2.8971937567019999  3.3561765473200000
  5.5894341425800000  6.6227152432980008 -0.6354485473199999
