Nd Mg Ga
 1.0000000000000000
     7.4417949999999999    0.0000000000000000    0.0000000000000000
    -3.7208960000000002    6.4447840000000003    0.0000000000000000
     0.0000000000000000    0.0000000000000000    4.5393619999999997
 Nd  Mg  Ga 
   3   3   3
Cartesian
 -1.5749845797760003  2.7279546163040003  0.0000000000000000
  2.1459131503809998  3.7168293836960000  0.0000000000000000
  3.1499704293950002  0.0000000000000000  0.0000000000000000
 -2.8178047736320000  4.8805833649280004  2.2696809999999998
  0.9030919544919999  1.5642006350720001  2.2696809999999998
  5.6356118191399993  0.0000000000000000  2.2696809999999998
  3.7209017208969999  2.1482591850719999  2.2696809999999998
 -0.0000027208970001  4.2965248149280004  2.2696809999999998
  0.0000000000000000  0.0000000000000000  0.0000000000000000
