Ca P  O 
 1.0000000000000000
     4.3257649999999996    0.0000000000000000   -1.2344599999999999
    -0.3522820000000000    4.3113979999999996   -1.2344599999999999
    -0.0076770000000000   -0.0083310000000000    8.1694519999999997
 Ca  P   O  
   4   2   1
Cartesian
  3.2800284780409998  3.5589696217809998  3.2974544815799995
  0.6857775219589999  0.7440973782189999  2.4030775184199999
 -0.1761410000000000  2.1556989999999998 -0.6172299999999999
  2.1628824999999998  0.0000000000000000 -0.6172299999999999
  2.5249362010339995  2.7396628267300001  0.6514858033520003
  1.4408697989660000  1.5634041732699999  5.0490461966479998
  0.0000000000000000  0.0000000000000000  0.0000000000000000
