Re Os
 1.0000000000000000
    -1.3786719999999999   -2.3879139999999999    0.0000000000000000
    -2.7573439999999998    0.0000000000000000    0.0000000000000000
     0.0000000000000000    0.0000000000000000   -4.3824280000000000
 Re  Os 
   1   1
Cartesian
 -2.7573439999999998 -1.5919124197559997 -1.0956070000000000
 -1.3786719999999999 -0.7960015802439999 -3.2868209999999998
