Li Lu Hg
 1.0000000000000000
     0.0000000000000000    3.4673609999999999    3.4673609999999999
     3.4673609999999999    0.0000000000000000    3.4673609999999999
     3.4673609999999999    3.4673609999999999    0.0000000000000000
 Li  Lu  Hg 
   1   1   2
Cartesian
  1.7336735652780000  1.7336735652780000  1.7336735652780000
  5.2010414999999997  5.2010414999999997  5.2010414999999997
  0.0000000000000000  0.0000000000000000  0.0000000000000000
  3.4673609999999999  3.4673609999999999  3.4673609999999999
