Rb Na As F 
 1.0000000000000000
     0.0000000000000000    4.3001040000000001    4.3001040000000001
     4.3001040000000001    0.0000000000000000    4.3001040000000001
     4.3001040000000001    4.3001040000000001    0.0000000000000000
 Rb  Na  As  F  
   2   1   1   6
Cartesian
  6.4501559999999998  6.4501559999999998  6.4501559999999998
  2.1500520000000001  2.1500520000000001  2.1500520000000001
  4.3001040000000001  4.3001040000000001  4.3001040000000001
  0.0000000000000000  0.0000000000000000  0.0000000000000000
  2.0537382706080001  4.3001040000000001  4.3001040000000001
  4.3001040000000001  4.3001040000000001  2.0537382706080001
  6.5464697293920002  4.3001040000000001  4.3001040000000001
  4.3001040000000001  2.0537382706080001  4.3001040000000001
  4.3001040000000001  6.5464697293920002  4.3001040000000001
  4.3001040000000001  4.3001040000000001  6.5464697293920002
