Pt S 
 1.0000000000000000
     3.4944620000000000    0.0000000000000000    0.0000000000000000
     0.0000000000000000    3.4944620000000000    0.0000000000000000
     0.0000000000000000    0.0000000000000000    6.1162939999999999
 Pt  S  
   2   2
Cartesian
  1.7472310000000000  0.0000000000000000  3.0581469999999999
  0.0000000000000000  1.7472310000000000  0.0000000000000000
  0.0000000000000000  0.0000000000000000  4.5872204999999999
  0.0000000000000000  0.0000000000000000  1.5290735000000000
