Ti Cu
 1.0000000000000000
     0.0000000000000000   -4.2993860000000002    0.0000000000000000
    -4.4683400000000004    0.0000000000000000    0.0000000000000000
     0.0000000000000000    0.0000000000000000  -12.8388810000000007
 Ti  Cu 
   4  16
Cartesian
 -1.5340079320400002 -3.2245395000000001 -11.5931115376890013
 -3.7681779320400004 -3.2245395000000001 -7.6652099623109997
 -2.9343320679600002 -1.0748465000000000 -1.2457694623110001
 -0.7001620679600000 -1.0748465000000000 -5.1736710376890009
 -1.5122873313000000 -3.2245395000000001 -6.3847370046570004
 -3.7464573313000002 -3.2245395000000001 -0.0347034953430000
 -2.9560526687000004 -1.0748465000000000 -6.4541439953430002
 -0.7218826687000001 -1.0748465000000000 -12.8041775046569999
 -1.5303751716200000 -3.2245395000000001 -8.9945862176940015
 -3.7645451716200005 -3.2245395000000001 -10.2637352823059995
 -2.9379648283800002 -1.0748465000000000 -3.8442947823060005
 -0.7037948283800001 -1.0748465000000000 -2.5751457176940002
 -1.4357938188400001 -3.2245395000000001 -1.3448856236310001
 -3.6699638188400003 -3.2245395000000001 -5.0745548763690005
 -3.0325461811600003 -1.0748465000000000 -11.4939953763689999
 -0.7983761811600001 -1.0748465000000000 -7.7643261236310011
 -1.4583902142200000 -3.2245395000000001 -3.8229950787270002
 -3.6925602142200002 -3.2245395000000001 -2.5964454212730002
 -3.0099497857800004 -1.0748465000000000 -9.0158859212730000
 -0.7757797857800001 -1.0748465000000000 -10.2424355787270009
