Li Ta Rh
 1.0000000000000000
     0.0000000000000000    3.0471320000000000    3.0471320000000000
     3.0471320000000000    0.0000000000000000    3.0471320000000000
     3.0471320000000000    3.0471320000000000    0.0000000000000000
 Li  Ta  Rh 
   1   1   2
Cartesian
  1.5235599057359999  1.5235599057359999  1.5235599057359999
  4.5706919057360000  4.5706919057360000  4.5706919057360000
  0.0000000000000000  0.0000000000000000  0.0000000000000000
  3.0471320000000000  3.0471320000000000  3.0471320000000000
