Sr Ni Ge
 1.0000000000000000
     4.0877730000000003    0.0000000000000000    0.0000000000000000
    -2.0438869999999998    3.5401150000000001    0.0000000000000000
     0.0000000000000000    0.0000000000000000   10.5270899999999994
 Sr  Ni  Ge 
   2   4   2
Cartesian
  2.0438883772200005  1.1800371532950000  7.8953174999999991
 -0.0000023772199998  2.3600778467050003  2.6317724999999998
  2.0438883772200005  1.1800371532950000  0.3522785397600000
 -0.0000023772199998  2.3600778467050003  5.6158235397600000
 -0.0000023772199998  2.3600778467050003 10.1748114602399991
  2.0438883772200005  1.1800371532950000  4.9112664602399994
  0.0000000000000000  0.0000000000000000  5.2635449999999997
  0.0000000000000000  0.0000000000000000  0.0000000000000000
