Tl In Se
 1.0000000000000000
     6.4957310000000001    0.0025710000000000   -1.7805050000000000
    -3.7789030000000001    5.2834099999999999   -1.7805050000000000
    -0.0013220000000000   -0.0025700000000000    6.7353329999999998
 Tl  In  Se 
   2   2   4
Cartesian
  0.6792070000000000  1.3214952499999999 -0.8902525000000000
  2.0376210000000001  3.9644857500000001 -2.6707575000000001
 -1.2109055000000000  3.9619152499999997  1.5871614999999999
  3.9264115000000004  1.3214957500000000  1.5871614999999999
  2.8519131449779995  3.5443404430370000  0.6969089999999998
 -0.9949635703159997  4.3820607104570000 -0.9944873443820000
 -0.1364071449780002  1.7390705569630001  2.4774140000000000
  3.7104695703160004  0.9013502895430000  4.1688103443819999
