Nd In N 
 1.0000000000000000
     5.0282669999999996    0.0000000000000000    0.0000000000000000
     0.0000000000000000    5.0282640000000001    0.0000000000000000
     0.0000000000000000    0.0000000000000000    5.0282640000000001
 Nd  In  N  
   3   1   1
Cartesian
  2.5141334999999998  2.5141320000000000  0.0000000000000000
  0.0000000000000000  2.5141320000000000  2.5141320000000000
  2.5141334999999998  0.0000000000000000  2.5141320000000000
  0.0000000000000000  0.0000000000000000  0.0000000000000000
  2.5141334999999998  2.5141320000000000  2.5141320000000000
