Al Mo
 1.0000000000000000
     5.1959989999999996    0.0000000000000000    0.9147950000000000
     0.0000000000000000   17.8318909999999988    0.0000000000000000
     0.0005050000000000    0.0000000000000000    5.2387059999999996
 Al  Mo 
  24   6
Cartesian
  4.3526236689030000  0.0000000000000000  3.4909590396629997
  2.5044690699059999  0.0000000000000000  1.2779465205480001
  1.6791379337829999 16.4598339788960004  3.9494294134899994
  1.6791379337829999  1.3720570211040000  3.9494294134899994
  0.8581508611259999 15.7339511919589992  1.3415701734420000
  0.8581508611259999  2.0979398080410001  1.3415701734420000
  4.1536078998639994 15.6388537172559996  5.0334046154739998
  4.1536078998639994  2.1930372827439997  5.0334046154739998
  1.5320387132880000 13.6379015643640003  3.3794539485359998
  1.5320387132880000  4.1939894356359995  3.3794539485359998
  2.3815351836529999 13.3787506924609989  0.8608870216219999
  2.3815351836529999  4.4531403075389999  0.8608870216219999
  1.7546241689030000  8.9159454999999994  3.0335615396629998
  5.1024685699059988  8.9159454999999994  1.7353440205480000
  4.2771374337829995  7.5438884788959992  4.4068269134899998
  4.2771374337829995 10.2880025211039996  4.4068269134899998
  3.4561503611259998  6.8180056919589997  1.7989676734419999
  3.4561503611259998 11.0138853080409991  1.7989676734419999
  1.5556083998640000  6.7229082172560002  4.5760071154739999
  1.5556083998640000 11.1089827827439986  4.5760071154739999
  4.1300382132880005  4.7219560643639991  3.8368514485360001
  4.1300382132880005 13.1099349356359980  3.8368514485360001
  4.9795346836529992  4.4628051924610004  1.3182845216220000
  4.9795346836529992 13.3690858075389993  1.3182845216220000
  5.1599191808039997  0.0000000000000000  0.9208688741520000
  3.3822750940799997 15.3828055943869995  2.3938766931569999
  3.3822750940799997  2.4490854056129998  2.3938766931569999
  2.5619196808039999  8.9159454999999994  0.4634713741520000
  0.7842755940800000  6.4668600943870000  1.9364791931570000
  0.7842755940800000 11.3650309056129988  1.9364791931570000
