Li Pt
 1.0000000000000000
     3.8532730000000002    0.0000000000000000    0.0000000000000000
     0.0000000000000000    3.8532760000000001    0.0000000000000000
     0.0000000000000000    0.0000000000000000    3.8532760000000001
 Li  Pt 
   1   3
Cartesian
  0.0000000000000000  0.0000000000000000  0.0000000000000000
  0.0000000000000000  1.9266380000000001  1.9266380000000001
  1.9266365000000001  1.9266380000000001  0.0000000000000000
  1.9266365000000001  0.0000000000000000  1.9266380000000001
