Sb Ru
 1.0000000000000000
     3.8377910000000002    0.0000000000000000    0.0000000000000000
     0.0000000000000000    5.9287960000000002    0.0000000000000000
     0.0000000000000000    0.0000000000000000    6.6356909999999996
 Sb  Ru 
   4   4
Cartesian
  2.8783432500000004  4.7391475098240008  2.7700293938039997
  0.9594477500000000  1.1896484901760001  3.8656616061959994
  2.8783432500000004  1.7747495098240000  0.5478161061960000
  0.9594477500000000  4.1540464901759995  6.0878748938039999
  2.8783432500000004  5.8931283632640001  5.2637486143679997
  0.9594477500000000  0.0356676367360000  1.3719423856319999
  2.8783432500000004  2.9287303632640000  4.6897878856319997
  0.9594477500000000  3.0000656367360001  1.9459031143679999
