Er Ni P 
 1.0000000000000000
     3.5831230000000001    0.0000000000000000   -1.3636239999999999
    -0.5189520000000000    3.5453429999999999   -1.3636239999999999
    -0.0082650000000000   -0.0095660000000000    5.3676830000000004
 Er  Ni  P  
   1   2   2
Cartesian
  0.0000000000000000  0.0000000000000000  0.0000000000000000
  2.5534717499999999  0.8815527500000000  1.3202175000000003
  0.5024342500000001  2.6542242500000000  1.3202175000000003
  1.9052965692190000  2.2044877728490002 -0.3829578778379997
  1.1506094307810002  1.3312892271510000  3.0233928778380004
