Ce Sn
 1.0000000000000000
     4.7215470000000002    0.0000000000000000    0.0000000000000000
     0.0000000000000000    4.7215590000000001    0.0000000000000000
     0.0000000000000000    0.0000000000000000    4.7215270000000000
 Ce  Sn 
   1   3
Cartesian
  0.0000000000000000  0.0000000000000000  0.0000000000000000
  2.3607735000000001  0.0000000000000000  2.3607635000000000
  0.0000000000000000  2.3607795000000000  2.3607635000000000
  2.3607735000000001  2.3607795000000000  0.0000000000000000
