Tm Ga Co
 1.0000000000000000
     4.1523190000000003    0.0000000000000000    0.0000000000000000
     0.0000000000000000    4.1523190000000003    0.0000000000000000
     0.0000000000000000    0.0000000000000000    6.7115689999999999
 Tm  Ga  Co 
   1   5   1
Cartesian
  0.0000000000000000  0.0000000000000000  0.0000000000000000
  0.0000000000000000  2.0761595000000002  2.0800830223250002
  0.0000000000000000  2.0761595000000002  4.6314859776750001
  2.0761595000000002  0.0000000000000000  2.0800830223250002
  2.0761595000000002  0.0000000000000000  4.6314859776750001
  2.0761595000000002  2.0761595000000002  0.0000000000000000
  0.0000000000000000  0.0000000000000000  3.3557844999999999
