Dy P  Pt
 1.0000000000000000
     4.1072119999999996    0.0000000000000000    0.0000000000000000
    -2.0536059999999998    3.5569500000000001    0.0000000000000000
     0.0000000000000000    0.0000000000000000    3.8794940000000002
 Dy  P   Pt 
   1   1   1
Cartesian
  0.0000000000000000  0.0000000000000000  0.0000000000000000
  2.0536080536059997  1.1856488143499999  1.9397470000000001
 -0.0000020536060000  2.3713011856500001  1.9397470000000001
