Ti Sb
 1.0000000000000000
     4.0655650000000003    0.0000000000000000    0.0000000000000000
    -2.0327829999999998    3.5208830000000000    0.0000000000000000
     0.0000000000000000    0.0000000000000000    6.2110859999999999
 Ti  Sb 
   2   2
Cartesian
  0.0000000000000000  0.0000000000000000  0.0000000000000000
  0.0000000000000000  0.0000000000000000  3.1055429999999999
 -0.0000023661159998  2.3472565069610001  4.6583144999999995
  2.0327843661160006  1.1736264930389999  1.5527715000000000
