La B 
 1.0000000000000000
     4.1875780000000002    0.0000000000000000    0.0000000000000000
     0.0000000000000000    7.3196560000000002    0.0000000000000000
     0.0000000000000000    0.0000000000000000    7.3196560000000002
 La  B  
   4  16
Cartesian
  0.0000000000000000  5.0049904617439998  1.3451624617439999
  0.0000000000000000  5.9744935382560005  5.0049904617439998
  0.0000000000000000  1.3451624617439999  2.3146655382560000
  0.0000000000000000  2.3146655382560000  5.9744935382560005
  2.0937890000000001  3.3759424616960003  2.3943765920960001
  2.0937890000000001  3.9437135383040003  4.9252794079040001
  2.0937890000000001  2.3943765920960001  3.9437135383040003
  2.0937890000000001  4.9252794079040001  3.3759424616960003
  0.8643119116220001  0.0000000000000000  0.0000000000000000
  3.3232660883780003  3.6598280000000001  3.6598280000000001
  3.3232660883780003  0.0000000000000000  0.0000000000000000
  0.8643119116220001  3.6598280000000001  3.6598280000000001
  2.0937890000000001  0.6500806083280001  4.3099086083280005
  2.0937890000000001  3.0097473916720001  0.6500806083280001
  2.0937890000000001  4.3099086083280005  6.6695753916719998
  2.0937890000000001  6.6695753916719998  3.0097473916720001
  2.0937890000000001  1.2654514079040000  0.2838855383040000
  2.0937890000000001  7.0357704616960000  1.2654514079040000
  2.0937890000000001  0.2838855383040000  6.0542045920960001
  2.0937890000000001  6.0542045920960001  7.0357704616960000
