Li Ac In
 1.0000000000000000
     0.0000000000000000    3.6637059999999999    3.6637059999999999
     3.6637059999999999    0.0000000000000000    3.6637059999999999
     3.6637059999999999    3.6637059999999999    0.0000000000000000
 Li  Ac  In 
   2   1   1
Cartesian
  5.4955590000000001  5.4955590000000001  5.4955590000000001
  1.8318530000000000  1.8318530000000000  1.8318530000000000
  3.6637059999999999  3.6637059999999999  3.6637059999999999
  0.0000000000000000  0.0000000000000000  0.0000000000000000
