Mg Nb Ru
 1.0000000000000000
     0.0000160000000000    3.1245650000000000    3.1245650000000000
     3.1245650000000000    0.0000160000000000    3.1245650000000000
     3.1245650000000000    3.1245650000000000    0.0000160000000000
 Mg  Nb  Ru 
   1   1   2
Cartesian
  1.5622802508539999  1.5622802508540001  1.5622802508540001
  4.6868594999999997  4.6868594999999997  4.6868594999999997
  6.2491459999999996  6.2491459999999996  6.2491459999999996
  3.1245792491460005  3.1245792491460005  3.1245792491460000
