Cd Ag I 
 1.0000000000000000
     6.4868519999999998    0.0000000000000000    0.0000000000000000
     0.0000000000000000    6.4868519999999998    0.0000000000000000
    -3.2434249999999998   -3.2434249999999998    6.3580449999999997
 Cd  Ag  I  
   1   2   4
Cartesian
  0.0000000000000000  0.0000000000000000  0.0000000000000000
  0.0000005000000001  3.2434265000000000  3.1790224999999999
  3.2434265000000000  0.0000005000000001  3.1790224999999999
  1.6929356273029998  1.6929356273029998  1.4990299116049999
  4.7939298179389995  4.7939298179389995  1.4990299116049999
 -1.5505028179389999  1.5504913726969998  4.8590150883950001
  1.5504913726969998 -1.5505028179389999  4.8590150883950001
