Mg Tl
 1.0000000000000000
     6.3140090000000004   -0.0000380000000000    0.0000000000000000
    -3.1570330000000002    5.4680270000000002    0.0000000000000000
     0.0000000000000000    0.0000000000000000    5.1704070000000000
 Mg  Tl 
   6   2
Cartesian
 -0.0005366809820000  1.8152310229570001  1.2926017500000000
 -1.5844169876300001  4.5599891909579995  1.2926017500000000
  1.5847040967239998  4.5597623337320004  1.2926017500000000
  1.5721645651230001  0.9082266669140000  3.8778000795929999
  4.7414971688640009  0.9079834043910001  3.8778000795929999
  3.1575537225820005  3.6526540846440003  3.8778000795929999
  3.1565972186110001  1.8224243247300000  1.2926017500000000
  0.0003787808759998  3.6456630994140005  3.8778000795929999
