Eu Co Si
 1.0000000000000000
    -1.9473350000000000    1.9473350000000000    5.0669019999999998
     1.9473350000000000   -1.9473350000000000    5.0669019999999998
     1.9473350000000000    1.9473350000000000   -5.0669019999999998
 Eu  Co  Si 
   1   2   2
Cartesian
  0.0000000000000000  0.0000000000000000  0.0000000000000000
 -0.0000000000000001  1.9473350000000003  2.5334509999999999
  1.9473350000000000  0.0000000000000000  2.5334509999999999
  0.0000000000000000 -0.0000000000000000  3.6738991683559998
  0.0000000000000001 -0.0000000000000001  6.4599048316440006
