La Rh
 1.0000000000000000
     4.6887990000000004    0.0000000000000000    2.7070799999999999
     1.5629329999999999    4.4206420000000000    2.7070799999999999
     0.0000000000000000    0.0000000000000000    5.4141570000000003
 La  Rh 
   2   4
Cartesian
  0.7814665000000001  0.5525802500000000  1.3535396250000000
  5.4702655000000000  3.8680617499999999  9.4747773750000004
  2.3443995000000002  0.0000000000000000  4.0606185000000004
  0.7814665000000000  2.2103210000000000  4.0606185000000004
  3.1258660000000003  2.2103210000000000  5.4141585000000001
  3.1258660000000003  2.2103210000000000  2.7070799999999999
