Nb Si As
 1.0000000000000000
     3.5090789999999998    0.0000000000000000    0.0000000000000000
     0.0000000000000000    3.5090789999999998    0.0000000000000000
     0.0000000000000000    0.0000000000000000    7.9466390000000002
 Nb  Si  As 
   2   2   2
Cartesian
  2.6318092499999999  2.6318092499999999  5.9320468139150000
  0.8772697500000000  0.8772697500000000  2.0145921860849998
  0.8772697500000000  2.6318092499999999  0.0000000000000000
  2.6318092499999999  0.8772697500000000  0.0000000000000000
  0.8772697500000000  0.8772697500000000  4.8761451034290006
  2.6318092499999999  2.6318092499999999  3.0704938965710000
