Fe Si P 
 1.0000000000000000
     4.5262919999999998    0.0011020000000000    1.7929770000000000
     1.8180040000000000    5.2114700000000003    0.4488660000000000
     0.0014730000000000   -0.0024570000000000    6.0546579999999999
 Fe  Si  P  
   1   4   4
Cartesian
  6.3423044990740003  5.2119617610419997  2.2412432638250004
  4.4925121840490005  4.0497110271790007  2.8829213136390002
  1.6939317960310001  1.7623322784030000  3.1889380676399997
  2.6564116615100000  3.1211587211960001  6.2489735701469993
  5.5989644473229996  5.0612823741090009  6.1751498511450000
  0.7292951958730000  0.0591568311970000  2.1580226196610002
  3.5944056460529996  2.0843343359010000  2.0296417723840001
  4.6237923438599999  3.3451553669880005  5.0755402132759997
  1.8891456667420001  1.1406204838320000  5.3407961176269998
