Rb Hg
 1.0000000000000000
     4.9672150000000004    0.0000000000000000    2.1350330000000000
     2.3019349999999998    6.2385240000000000    1.4901850000000001
     0.0135730000000000    0.0787330000000000    6.8141290000000003
 Rb  Hg 
   2   4
Cartesian
  5.4083252145220015  1.9075210201780000  4.5316303250740004
  1.8743977854779998  4.4097359798219999  5.9077166749260011
  1.9118692019920003  0.6951662629420000  5.8205235198520002
  5.3708537980079996  5.6220907370579996  4.6188234801479995
  3.9419227609000003  1.7757078037639999  7.9432751278440001
  3.3408002391000000  4.5415491962359997  2.4960718721560000
