Sr In Ir
 1.0000000000000000
     2.1787670000000001   -5.5473319999999999    0.0000000000000000
     2.1787670000000001    5.5473319999999999    0.0000000000000000
     0.0000000000000000    0.0000000000000000    8.0572440000000007
 Sr  In  Ir 
   2   4   2
Cartesian
  2.1787670000000001 -4.8759051240480007  6.0429330000000006
  2.1787670000000001  4.8759051240479998  2.0143110000000002
  2.1787670000000001 -1.7382897661919996  7.6247794855440008
  2.1787670000000001 -1.7382897661919996  4.4610865144560004
  2.1787670000000001  1.7382897661919996  0.4324645144560000
  2.1787670000000001  1.7382897661919996  3.5961574855440004
  2.1787670000000001  3.1275635922720002  6.0429330000000006
  2.1787670000000001 -3.1275635922719998  2.0143110000000002
