Tl Pd Se
 1.0000000000000000
     3.7069809999999999    0.0000000000000000    0.0000000000000000
     0.0000000000000000    6.1564139999999998    0.0000000000000000
     0.0000000000000000    0.0000000000000000   11.4743890000000004
 Tl  Pd  Se 
   4   2   4
Cartesian
  0.0000000000000000  3.7644070608539999  1.7557536328350003
  0.0000000000000000  2.3920069391459999  9.7186353671649996
  0.0000000000000000  0.6862000608540000  3.9814408671649999
  0.0000000000000000  5.4702139391459994  7.4929481328350001
  0.0000000000000000  0.0000000000000000  0.0000000000000000
  0.0000000000000000  3.0782069999999999  5.7371945000000002
  1.8534904999999999  4.1725526833980000  4.4706743909580000
  1.8534904999999999  1.9838613166020000  7.0037146090420004
  1.8534904999999999  1.0943456833979999  1.2665201090420002
  1.8534904999999999  5.0620683166019997 10.2078688909580002
