Sr Sn Pd
 1.0000000000000000
     4.4736250000000002    0.0008350000000000   -1.7545360000000001
    -0.6877940000000000    4.4204369999999997   -1.7545360000000001
     0.0266070000000000    0.0310730000000000    6.6442430000000003
 Sr  Sn  Pd 
   1   3   1
Cartesian
  3.8007382594440005  4.4386814906290004  3.1067289250150001
  1.5800140430340002  1.8452149950469998  4.0223393366689999
  3.1811192132730004  1.1021630562579998  1.5263303522270002
  0.5993619452159999  3.3128612354640001  1.5263303522270002
  2.4334851698639999  2.8419387818739996 -0.3752635012100002
