Tm Ag Ru
 1.0000000000000000
     0.0000000000000000    3.4341249999999999    3.4341249999999999
     3.4341249999999999    0.0000000000000000    3.4341249999999999
     3.4341249999999999    3.4341249999999999    0.0000000000000000
 Tm  Ag  Ru 
   2   1   1
Cartesian
  0.0000000000000000  0.0000000000000000  0.0000000000000000
  3.4341318682500002  3.4341318682500002  3.4341318682500002
  1.7170624999999999  1.7170624999999999  1.7170624999999999
  5.1511806317500000  5.1511806317500000  5.1511806317500000
