Ca As O 
 1.0000000000000000
     4.3756959999999996    0.0000000000000000   -1.2329669999999999
    -0.3474210000000000    4.3618819999999996   -1.2329669999999999
    -0.0095630000000000   -0.0103560000000000    8.3470289999999991
 Ca  As  O  
   4   2   1
Cartesian
  2.7012936111529995  2.9250045144899994  1.2056907692279997
  1.3174183888469999  1.4265214855099997  4.6754042307719992
  2.1878479999999998  0.0000000000000000 -0.6164835000000000
 -0.1737105000000000  2.1809409999999998 -0.6164835000000000
  3.4700359044559996  3.7574108384799998  3.9338908618560002
  0.5486760955440000  0.5941151615200000  1.9472041381440000
  2.0141374999999999  2.1809409999999998 -1.2329669999999999
