Ti Sn
 1.0000000000000000
     8.0830310000000001    0.0000000000000000    0.0000000000000000
    -4.0415150000000004    7.0001090000000001    0.0000000000000000
     0.0000000000000000    0.0000000000000000    5.4477330000000004
 Ti  Sn 
  10   6
Cartesian
 -3.0565331302600001  5.2940704349559997  4.0857997500000005
  3.0565338865439999  5.2940704349559997  1.3619332500000001
  1.9699639831959999  0.0000000000000000  1.3619332500000001
  6.1130670168040000  0.0000000000000000  4.0857997500000005
  0.9849821134559998  1.7060385650440000  4.0857997500000005
 -0.9849818697400000  1.7060385650440000  1.3619332500000001
 -0.0000037081820005  4.6667416667030004  0.0000000000000000
  4.0415197081819993  2.3333673332970002  2.7238665000000002
  4.0415197081819993  2.3333673332970002  0.0000000000000000
 -0.0000037081820005  4.6667416667030004  2.7238665000000002
 -1.5814811931350001  2.7392056526810000  4.0857997500000005
  1.5814815844440000  2.7392056526810000  1.3619332500000001
  4.9200682224209995  0.0000000000000000  1.3619332500000001
  3.1629627775790001  0.0000000000000000  4.0857997500000005
  2.4600344155559992  4.2609033473190001  4.0857997500000005
 -2.4600338068650003  4.2609033473190001  1.3619332500000001
