Ba O 
 1.0000000000000000
     3.8633670000000002    0.0000000000000000    0.0000000000000000
     0.0000000000000000    3.8633670000000002    0.0000000000000000
     0.0000000000000000    0.0000000000000000    6.9765730000000001
 Ba  O  
   2   4
Cartesian
  0.0000000000000000  0.0000000000000000  0.0000000000000000
  1.9316835000000001  1.9316835000000001  3.4882865000000001
  1.9316835000000001  1.9316835000000001  6.2255588696960000
  1.9316835000000001  1.9316835000000001  0.7510141303040000
  0.0000000000000000  0.0000000000000000  2.7372723696960000
  0.0000000000000000  0.0000000000000000  4.2393006303040002
