Na Pm Hg
 1.0000000000000000
     0.0000000000000000    3.6859410000000001    3.6859410000000001
     3.6859410000000001    0.0000000000000000    3.6859410000000001
     3.6859410000000001    3.6859410000000001    0.0000000000000000
 Na  Pm  Hg 
   1   1   2
Cartesian
  1.8429705000000001  1.8429705000000001  1.8429705000000001
  5.5289115000000004  5.5289115000000004  5.5289115000000004
  0.0000000000000000  0.0000000000000000  0.0000000000000000
  3.6859410000000001  3.6859410000000001  3.6859410000000001
