Ti Cd C 
 1.0000000000000000
     3.1034269999999999    0.0000000000000000    0.0000000000000000
    -1.5517140000000000    2.6876470000000001    0.0000000000000000
     0.0000000000000000    0.0000000000000000   14.5691590000000009
 Ti  Cd  C  
   4   2   2
Cartesian
  1.5517148850469999  0.8958814374510000  8.4115913636039998
 -0.0000018850470002  1.7917655625490001  6.1575676363960010
 -0.0000018850470002  1.7917655625490001  1.1270118636040001
  1.5517148850469999  0.8958814374510000 13.4421471363960006
  1.5517148850469999  0.8958814374510000  3.6422897500000002
 -0.0000018850470002  1.7917655625490001 10.9268692500000011
  0.0000000000000000  0.0000000000000000  7.2845795000000004
  0.0000000000000000  0.0000000000000000  0.0000000000000000
