Ca Co P 
 1.0000000000000000
     3.6032860000000002    0.0000000000000000   -1.3432690000000000
    -0.5007570000000000    3.5683210000000001   -1.3432690000000000
    -0.0084350000000000   -0.0097020000000000    5.4818699999999998
 Ca  Co  P  
   1   2   2
Cartesian
  0.0000000000000000  0.0000000000000000  0.0000000000000000
  2.5730577499999998  0.8872292500000000  1.3976659999999999
  0.5210362500000001  2.6713897499999999  1.3976659999999999
  1.9657610734700000  2.2608865206100002 -0.2313924553400000
  1.1283329265300002  1.2977324793900000  3.0267244553399997
