Mg Sn
 1.0000000000000000
     6.8178729999999996    0.0000000000000000    0.0000000000000000
     0.0000000000000000    6.8178729999999996    0.0000000000000000
     0.0000000000000000    0.0000000000000000    6.8178729999999996
 Mg  Sn 
   8   4
Cartesian
  5.1134047499999999  1.7044682499999999  1.7044682499999999
  5.1134047499999999  1.7044682499999999  5.1134047499999999
  5.1134047499999999  5.1134047499999999  5.1134047499999999
  5.1134047499999999  5.1134047499999999  1.7044682499999999
  1.7044682499999999  1.7044682499999999  5.1134047499999999
  1.7044682499999999  1.7044682499999999  1.7044682499999999
  1.7044682499999999  5.1134047499999999  1.7044682499999999
  1.7044682499999999  5.1134047499999999  5.1134047499999999
  0.0000000000000000  0.0000000000000000  0.0000000000000000
  0.0000000000000000  3.4089364999999998  3.4089364999999998
  3.4089364999999998  0.0000000000000000  3.4089364999999998
  3.4089364999999998  3.4089364999999998  0.0000000000000000
