Tb Ni Sb
 1.0000000000000000
     3.8785720000000001    0.0000000000000000    2.2392949999999998
     1.2928569999999999    3.6567539999999998    2.2392949999999998
     0.0000000000000000    0.0000000000000000    4.4785890000000004
 Tb  Ni  Sb 
   1   1   1
Cartesian
  2.5857144999999999  1.8283769999999999  4.4785895000000000
  1.2928572500000000  0.9141885000000000  2.2392947500000000
  0.0000000000000000  0.0000000000000000  0.0000000000000000
