Pm Zn Os
 1.0000000000000000
     0.0000000000000000    3.5459510000000001    3.5459510000000001
     3.5459510000000001    0.0000000000000000    3.5459510000000001
     3.5459510000000001    3.5459510000000001    0.0000000000000000
 Pm  Zn  Os 
   2   1   1
Cartesian
  0.0000000000000000  0.0000000000000000  0.0000000000000000
  3.5459580919020004  3.5459580919020004  3.5459580919020004
  5.3189264999999999  5.3189264999999999  5.3189264999999999
  1.7729755000000000  1.7729755000000000  1.7729755000000000
