Ho Mn Bi
 1.0000000000000000
     8.1927810000000001   -0.0000020000000000    0.0000000000000000
    -4.0963919999999998    7.0951540000000000    0.0000000000000000
     0.0000000000000000    0.0000000000000000    4.3833710000000004
 Ho  Mn  Bi 
   6   1   2
Cartesian
  1.9325131822800001 -0.0000004717600000  0.0000000000000000
 -2.4670766603519998  4.2730990674239999  2.1916855000000002
  1.6293141464159999  2.8220541370879997  2.1916855000000002
  3.1301327626800002  5.4215475462400002  0.0000000000000000
 -0.9662569449600000  1.6736049255200001  0.0000000000000000
  4.9341515139360004 -0.0000012045120000  2.1916855000000002
  0.0000000000000000  0.0000000000000000  2.1916855000000002
 -0.0000050963910001  4.7301043650520000  0.0000000000000000
  4.0963940963910002  2.3650476349480001  0.0000000000000000
