Ba Cd P 
 1.0000000000000000
     4.4372010000000000    0.0000000000000000    0.0000000000000000
    -2.2185999999999999    3.8427280000000001    0.0000000000000000
     0.0000000000000000    0.0000000000000000    7.6148530000000001
 Ba  Cd  P  
   1   2   2
Cartesian
  0.0000000000000000  0.0000000000000000  0.0000000000000000
  2.2186028852669999  1.2809080524240000  2.8151197758640003
 -0.0000018852670000  2.5618199475760002  4.7997332241360002
  2.2186028852669999  1.2809080524240000  5.5708056240629995
 -0.0000018852670000  2.5618199475760002  2.0440473759369997
