Ca Al Co
 1.0000000000000000
     7.8923880000000004    0.0000000000000000    0.0000000000000000
    -3.9461940000000002    6.8350090000000003    0.0000000000000000
     0.0000000000000000    0.0000000000000000    3.8560829999999999
 Ca  Al  Co 
   1   9   2
Cartesian
  0.0000000000000000  0.0000000000000000  0.0000000000000000
  3.9461940000000002  0.0000000000000000  0.0000000000000000
  1.9730970000000001  3.4175045000000002  0.0000000000000000
 -1.9730970000000001  3.4175045000000002  0.0000000000000000
  0.0000078923880001  2.9025139118859999  1.9280415000000000
  5.3787255611040008  1.4512637909520001  1.9280415000000000
  2.5136466541200000  1.4512637909520001  1.9280415000000000
  1.4325473458800004  5.3837452090480005  1.9280415000000000
 -1.4325315611040002  5.3837452090480005  1.9280415000000000
  3.9461861076120006  3.9324950881140004  1.9280415000000000
 -0.0000039461940002  4.5566749450030004  0.0000000000000000
  3.9461979461939998  2.2783340549969999  0.0000000000000000
