Zr
 1.0000000000000000
     3.2382240000000002    0.0000000000000000    0.0000000000000000
    -1.6191120000000001    2.8043849999999999    0.0000000000000000
     0.0000000000000000    0.0000000000000000    5.1815509999999998
 Zr 
   2
Cartesian
 -0.0000016191120000  1.8695909347949999  3.8861632500000001
  1.6191136191120001  0.9347940652050000  1.2953877499999999
