Sr Ag As
 1.0000000000000000
     4.5376960000000004    0.0000000000000000    0.0000000000000000
    -2.2688480000000002    3.9297599999999999    0.0000000000000000
     0.0000000000000000    0.0000000000000000    8.3889619999999994
 Sr  Ag  As 
   2   2   2
Cartesian
  0.0000000000000000  0.0000000000000000  4.1944809999999997
  0.0000000000000000  0.0000000000000000  0.0000000000000000
 -0.0000022688480000  2.6198413099200000  6.2917214999999995
  2.2688502688480003  1.3099186900799999  2.0972404999999998
  2.2688502688480003  1.3099186900799999  6.2917214999999995
 -0.0000022688480000  2.6198413099200000  2.0972404999999998
