Ca B 
 1.0000000000000000
     4.1384420000000004    0.0000000000000000    0.0000000000000000
     0.0000000000000000    4.1384420000000004    0.0000000000000000
     0.0000000000000000    0.0000000000000000    4.1384420000000004
 Ca  B  
   1   6
Cartesian
  0.0000000000000000  0.0000000000000000  0.0000000000000000
  0.8346616747700001  2.0692210000000002  2.0692210000000002
  2.0692210000000002  2.0692210000000002  3.3037803252300004
  2.0692210000000002  2.0692210000000002  0.8346616747700001
  2.0692210000000002  0.8346616747700001  2.0692210000000002
  2.0692210000000002  3.3037803252300004  2.0692210000000002
  3.3037803252300004  2.0692210000000002  2.0692210000000002
