Ti Be Ir
 1.0000000000000000
     0.0000000000000000    2.9633400000000001    2.9633400000000001
     2.9633400000000001    0.0000000000000000    2.9633400000000001
     2.9633400000000001    2.9633400000000001    0.0000000000000000
 Ti  Be  Ir 
   1   1   2
Cartesian
  4.4450099999999999  4.4450099999999999  4.4450099999999999
  1.4816759266799999  1.4816759266799999  1.4816759266799999
  0.0000000000000000  0.0000000000000000  0.0000000000000000
  2.9633340733200004  2.9633340733200004  2.9633340733200004
