Pr Fe Si
 1.0000000000000000
     3.7653180000000002    0.0000000000000000   -1.4015880000000001
    -0.5217220000000000    3.7289979999999998   -1.4015880000000001
    -0.0348810000000000   -0.0401010000000000    5.6647819999999998
 Pr  Fe  Si 
   1   2   2
Cartesian
  0.0000000000000000  0.0000000000000000  0.0000000000000000
  2.6761174999999997  0.9121990000000000  1.4308029999999998
  0.5325975000000001  2.7766979999999997  1.4308029999999998
  2.0831940479880005  2.3949426382980001 -0.1620530149360002
  1.1255209520120002  1.2939543617020000  3.0236590149359999
