Ti Si Ru
 1.0000000000000000
     6.5033019999999997    0.0000000000000000    0.0000000000000000
     0.0000000000000000    7.0834900000000003    0.0000000000000000
     0.0000000000000000    0.0000000000000000   11.2204610000000002
 Ti  Si  Ru 
  12  12  12
Cartesian
  5.9582602593799994  1.7708725000000001 11.1757699038370006
  1.7588765556179999  5.3126175000000000  2.5003563087790002
  1.7588765556179999  1.7708725000000001  8.7201046912209996
  1.9228378056420001  1.7708725000000001  2.1942284713160003
  5.9582602593799994  5.3126175000000000  0.0446910961630000
  1.9228378056420001  5.3126175000000000  9.0262325286839999
  2.7066092593800000  5.3126175000000000  5.5655394038369996
  5.0105275556180002  1.7708725000000001  8.1105868087790007
  5.0105275556180002  5.3126175000000000  3.1098741912210000
  5.1744888056419995  5.3126175000000000  7.8044589713159995
  2.7066092593800000  1.7708725000000001  5.6549215961629997
  5.1744888056419995  1.7708725000000001  3.4160020286839998
  3.2945792965019995  5.3126175000000000  0.3456687420270000
  6.4698164980020003  0.0470768745400000  1.8798535950180000
  6.4698164980020003  3.4946681254600001  1.8798535950180000
  6.4698164980020003  3.5888218745400002  9.3406074049820003
  3.2945792965019995  1.7708725000000001 10.8747922579730005
  6.4698164980020003  7.0364131254600002  9.3406074049820003
  0.0429282965020000  1.7708725000000001  5.9558992420270007
  3.2181654980019996  3.5888218745400002  7.4900840950180001
  3.2181654980019996  7.0364131254600002  7.4900840950180001
  3.2181654980019996  0.0470768745400000  3.7303769049819997
  0.0429282965020000  5.3126175000000000  5.2645617579730004
  3.2181654980019996  3.4946681254600001  3.7303769049819997
  1.5967167202479999  3.5417450000000001  0.0000000000000000
  1.5967167202479999  0.0000000000000000  0.0000000000000000
  4.0546462144500000  6.8368145442400001  9.8016785883940010
  4.0546462144500000  3.2950695442400000  1.4187824116060002
  4.0546462144500000  3.7884204557599999  9.8016785883940010
  4.0546462144500000  0.2466754557600000  1.4187824116060002
  4.8483677202479996  0.0000000000000000  5.6102305000000001
  4.8483677202479996  3.5417450000000001  5.6102305000000001
  0.8029952144500000  3.2950695442400000  4.1914480883940000
  0.8029952144500000  6.8368145442400001  7.0290129116059994
  0.8029952144500000  0.2466754557600000  4.1914480883940000
  0.8029952144500000  3.7884204557599999  7.0290129116059994
