Zn Si As
 1.0000000000000000
     5.0983179999999999    0.0000000000000000   -2.3334920000000001
    -1.0680369999999999    4.9851919999999996   -2.3334920000000001
     0.0086600000000000    0.0107130000000000    6.7551829999999997
 Zn  Si  As 
   2   2   4
Cartesian
  0.0000000000000000  0.0000000000000000  0.0000000000000000
  0.4778817500000000  3.7442504999999997  1.0440994999999997
  2.0151405000000002  2.4925959999999998 -2.3334920000000001
  3.5610592500000000  1.2516544999999999  1.0440994999999997
  3.4634431911440005  4.3647212499999997 -2.3649652203359999
  3.0457767956959998  0.6949543260639999  3.2864182203359995
 -0.0100760456959999  3.0600091739359998  3.3461182796639997
  1.5787380588560000  1.8721252499999999 -0.0911732796640001
