Zr W 
 1.0000000000000000
     4.6776270000000002    0.0000000000000000    2.7006290000000002
     1.5592090000000001    4.4101100000000004    2.7006290000000002
    -0.0000000000000000   -0.0000000000000000    5.4012599999999997
 Zr  W  
   2   4
Cartesian
  5.4572314999999998  3.8588462500000005  9.4522032500000002
  0.7796045000000000  0.5512637500000001  1.3503147499999999
  3.1184180000000001  2.2050550000000002  5.4012589999999996
  3.1184180000000001  2.2050550000000002  2.7006290000000002
  0.7796045000000000  2.2050550000000002  4.0509444999999999
  2.3388135000000001  0.0000000000000000  4.0509444999999999
