Cd Sn As
 1.0000000000000000
     5.5938070000000000    0.0000000000000000   -2.5463190000000000
    -1.1590920000000000    5.4724029999999999   -2.5463190000000000
     0.0037700000000000    0.0046530000000000    7.4257379999999999
 Cd  Sn  As 
   2   2   4
Cartesian
  0.5310177500000001  4.1066287499999996  1.1665500000000000
  0.0000000000000000  0.0000000000000000  0.0000000000000000
  2.2173574999999999  2.7362015000000000 -2.5463190000000000
  3.9074672500000007  1.3704272499999999  1.1665500000000000
  3.8553572667129998  4.7895158750000002 -2.5878062835210001
  3.3486910290279996  0.7129375473230000  3.6477467835209998
  1.6899214832870000  2.0533143749999998 -0.0651222164790000
 -0.0169997790280000  3.3983442026769999  3.6713817164789999
