Pt Pb F 
 1.0000000000000000
     4.7800849999999997   -0.0053880000000000   -0.6641920000000000
    -0.7621300000000000    4.7189410000000001   -0.6641920000000000
    -0.0045930000000000   -0.0053880000000000    4.8260069999999997
 Pt  Pb  F  
   1   1   6
Cartesian
  0.0000000000000000  0.0000000000000000  0.0000000000000000
  2.0066809999999999  2.3540825000000001  1.7488115000000000
  2.8353895739680000  3.3262590224110000 -0.6368046662210000
  3.3228206963220002  0.2864273219930000  2.8958199587369999
  0.6905413036779998  4.4217376780070001  0.6018030412629999
  1.1779724260319999  1.3819059775889999  4.1344276662209998
  4.2566352077080003  1.3819059775889999  0.6018030412629998
 -0.2432732077080000  3.3262590224110005  2.8958199587369999
