Li C  N 
 1.0000000000000000
     3.3858790000000001    0.0000000000000000   -1.3252990000000000
    -0.5187480000000000    3.3459050000000001   -1.3252990000000000
     0.0262080000000000    0.0305830000000000    5.0547329999999997
 Li  C   N  
   2   1   2
Cartesian
  2.4228262500000000  0.8517677500000000  1.2020674999999998
  0.4705127500000000  2.5247202500000001  1.2020674999999998
  0.0000000000000000  0.0000000000000000  0.0000000000000000
  0.4124881454790000  0.4813679650690000  1.0538160559139997
  2.4808508545210004  2.8951200349309998  1.3503189440859995
