Zr Tc Pd
 1.0000000000000000
     0.0000000000000000    3.3046210000000000    3.3046210000000000
     3.3046210000000000    0.0000000000000000    3.3046210000000000
     3.3046210000000000    3.3046210000000000    0.0000000000000000
 Zr  Tc  Pd 
   2   1   1
Cartesian
  0.0000000000000000  0.0000000000000000  0.0000000000000000
  3.3046143907580001  3.3046143907580001  3.3046143907580001
  4.9569314999999996  4.9569314999999996  4.9569314999999996
  1.6523105000000000  1.6523105000000000  1.6523105000000000
