Pr Te O 
 1.0000000000000000
     3.9195709999999999    0.0000000000000000   -1.1791890000000000
    -0.3547550000000000    3.9034849999999999   -1.1791890000000000
     0.0084770000000000    0.0092820000000000    7.1320040000000002
 Pr  Te  O  
   2   1   2
Cartesian
  2.3539689647039999  2.5776034877389997  0.7206661712579999
  1.2193240352959998  1.3351635122609999  4.0529598287419999
  0.0000000000000000  0.0000000000000000  0.0000000000000000
  0.7180650000000001  2.9322547499999998  2.3868130000000001
  2.8552279999999999  0.9805122500000000  2.3868130000000001
