Cd
 1.0000000000000000
     3.0402629999999999    0.0000000000000000    0.0000000000000000
    -1.5201320000000000    2.6329449999999999    0.0000000000000000
     0.0000000000000000    0.0000000000000000    5.7360199999999999
 Cd 
   2
Cartesian
 -0.0000018534650001  1.7552975443149998  1.4340050000000000
  1.5201328534649998  0.8776474556849999  4.3020149999999999
