Mg B  Cl O 
 1.0000000000000000
     8.5347890000000000    0.0000000000000000    0.0000000000000000
     0.0000000000000000    8.5286430000000006    0.0000000000000000
     0.0000000000000000    0.0000000000000000   12.0778280000000002
 Mg  B   Cl  O  
  12  28   4  52
Cartesian
  8.3954756391530001  4.0059377316720006  3.0227784027000002
  0.1393133608470000  4.5227052683280000  9.0616924027000003
  4.4067078608469998  4.0059377316720006  9.0616924027000003
  4.1280811391530001  4.5227052683280000  3.0227784027000002
  8.3971313882190000  0.2632877380530000  3.0554368496120001
  0.1376576117810000  8.2653552619470005  9.0943508496119989
  4.4050521117810000  0.2632877380530000  9.0943508496119989
  4.1297368882190000  8.2653552619470005  3.0554368496120001
  6.4713928069930002  2.1409196663610000 11.7780804646960000
  6.3307906930069997  2.1409196663610000  5.7391664646959999
  2.0633961930070002  6.3877233336390002  5.7391664646959999
  2.2039983069929998  6.3877233336390002 11.7780804646960000
  7.7294121708040002  6.3958426017749996  6.9174431308919999
  0.8053768291960001  2.1328003982250001  0.8785291308920000
  5.0727713291959997  6.3958426017749996  0.8785291308920000
  3.4620176708039998  2.1328003982250001  6.9174431308919999
  8.1520634568729999  6.4043286015600005  1.2229887854520001
  0.3827255431270000  2.1243143984400001  7.2619027854520004
  4.6501200431270000  6.4043286015600005  7.2619027854520004
  3.8846689568730000  2.1243143984400001  1.2229887854520001
  2.1587041817699997  0.8229543489990000  5.0768062993480001
  6.3760848182299998  7.7056886510010001 11.1157202993480002
  2.1086903182300003  0.8229543489990000 11.1157202993480002
  6.4260986817700001  7.7056886510010001  5.0768062993480001
  2.1567497150890000  3.4408127892060003  5.0686416876200004
  6.3780392849110008  5.0878302107940003 11.1075556876199997
  2.1106447849109999  3.4408127892060003 11.1075556876199997
  6.4241442150889991  5.0878302107940003  5.0686416876200004
  4.2872890931590000  4.2351108977249998 12.0767530733079997
  4.2474999068410000  4.2935321022750008  6.0378390733079996
  8.5148944068410000  4.2351108977249998  6.0378390733079996
  0.0198945931590000  4.2935321022750008 12.0767530733079997
  6.4543232289930001  6.4208997549089997  2.9913156607600002
  2.0804657710070003  2.1077432450910001  9.0302296607599999
  6.3478602710069998  6.4208997549089997  9.0302296607599999
  2.1869287289929997  2.1077432450910001  2.9913156607600002
  0.0144152586210000  8.5086774467369999  0.0067998171640000
  8.5203737413790002  0.0199655532630000  6.0457138171639997
  4.2529792413790002  8.5086774467369999  6.0457138171639997
  4.2818097586210007  0.0199655532630000  0.0067998171640000
  2.3500882903060001  6.3946315344690001  3.1646083369039997
  6.1847007096939999  2.1340114655310005  9.2035223369039993
  1.9173062096940001  6.3946315344690001  9.2035223369039993
  6.6174827903060001  2.1340114655310005  3.1646083369039997
  4.6341770572750001  2.8088829861210001  0.3025012800880000
  5.2631483326300001  5.7164423717520005  8.2775514976280000
  0.9957538326299999  2.8122006282480001  8.2775514976280000
  7.5390351673699998  5.7164423717520005  2.2386374976279999
  3.9485945264829998  0.7573861416150001  1.2663602657999999
  4.5861944735169997  7.7712568583850006  7.3052742658000005
  0.3187999735170000  0.7573861416150001  7.3052742658000005
  8.2159890264829993  7.7712568583850006  1.2663602657999999
  3.9830836088320001  7.1391308965110003  0.2589727879760000
  4.5517053911680003  1.3895035748460003  6.2978867879759992
  0.2843108911680000  7.1391308965110003  6.2978867879759992
  8.2504781088320005  1.3895035748460003  0.2589727879760000
  5.4643559833049995  7.0364886780060010  2.1141271687760002
  3.0704330166950000  1.4921543219940001  8.1530411687760012
  7.3378275166950004  7.0364886780060010  8.1530411687760012
  1.1969614833050000  1.4921543219940001  2.1141271687760002
  4.6873061188000005  5.0346626503319998  1.1459322428120000
  5.6678594922209999  4.0969639384110002  5.7960168010920006
  8.1148773811999995  5.0346626503319998  7.1848462428120010
  0.4199116188000000  3.4939803496680000  1.1459322428120000
  3.2716406673699998  2.8122006282480001  2.2386374976279999
  3.9006119427249999  5.7197600138790010  6.3414152800880004
  8.1680064427249999  2.8088829861210001  6.3414152800880004
  0.3667825572750000  5.7197600138790010  0.3025012800880000
  1.9793455909350002  2.1351798896220004 11.9448873472040002
  6.5554434090650000  6.3934631103780006  5.9059733472040001
  2.2880489090650000  2.1351798896220004  5.9059733472040001
  6.2467400909349999  6.3934631103780006 11.9448873472040002
  2.8367590286639999  8.2918537557480008  5.7780691486840006
  5.6980299713360001  0.2367892442520000 11.8169831486840007
  1.4306354713359999  8.2918537557480008 11.8169831486840007
  7.1041535286639999  0.2367892442520000  5.7780691486840006
  3.5031894929399998  3.9330519485940005  4.8391508777920000
  5.0315995070599993  4.5955910514060010 10.8780648777920010
  0.7642050070599999  3.9330519485940005 10.8780648777920010
  7.7705839929400007  4.5955910514060010  4.8391508777920000
  2.7984207564760002  1.0653298544160001  3.7994189765840005
  5.7363682435240007  7.4633131455840003  9.8383329765840006
  1.4689737435240000  1.0653298544160001  9.8383329765840006
  7.0658152564759993  7.4633131455840003  3.7994189765840005
  1.5115538058450002  3.1113171955440002  3.8168472823880002
  7.0232351941550002  5.4173343330990003  9.8557612823880003
  2.7558406941549998  3.1113171955440002  9.8557612823880003
  5.7789483058449997  5.4173343330990003  3.8168472823880002
  0.7589305074580001  0.4911219071550000  4.8944794078600005
  7.7758584925420005  8.0375210928450009 10.9333934078600006
  3.5084639925420000  0.4911219071550000 10.9333934078600006
  5.0263250074579995  8.0375210928450009  4.8944794078600005
  1.4004649922210002  4.4316790615889996  5.7960168010920006
  7.1343240077790000  4.0969639384110002 11.8349308010919998
  2.8669295077790000  4.4316790615889996 11.8349308010919998
  3.8474828811999999  3.4939803496680000  7.1848462428120010
