Ta Si Te
 1.0000000000000000
     6.4054739999999999    0.0000000000000000    0.0000000000000000
     0.0000000000000000   11.5808440000000008    0.0000000000000000
     0.0000000000000000    0.0000000000000000   14.6510400000000001
 Ta  Si  Te 
  12   4  24
Cartesian
  4.2688769035079996  3.8971161378160000  3.6627600000000000
  1.0661399035079999  1.8933058621840000  3.6627600000000000
  5.3393340964920002  9.6875381378160004 10.9882799999999996
  2.1365970964920002  7.6837278621840008 10.9882799999999996
  6.2197793087399997  7.9659877729960007  3.6627600000000000
  3.0170423087399998  9.4052782270040005  3.6627600000000000
  3.3884316912599997  2.1755657729960003 10.9882799999999996
  0.1856946912600000  3.6148562270040001 10.9882799999999996
  4.4681063613299994  0.3538642692640000  3.6627600000000000
  1.2653693613299999  5.4365577307360002  3.6627600000000000
  5.1401046386700004  6.1442862692640006 10.9882799999999996
  1.9373676386699998 11.2269797307359998 10.9882799999999996
  3.6925764077279997  6.6665475911319998  3.6627600000000000
  0.4898394077280000 10.7047184088680005  3.6627600000000000
  5.9156345922720002  0.8761255911320001 10.9882799999999996
  2.7128975922720002  4.9142964088680001 10.9882799999999996
  5.1150143970119997  9.7613660183160000  1.7906354577599999
  1.9122773970120002  7.6098999816840003  5.5348845422399995
  4.4931966029880002  3.9709440183160001 12.8604045422400013
  1.2904596029880000  1.8194779816840001  9.1161554577599997
  1.2904596029880000  1.8194779816840001 12.8604045422400013
  4.4931966029880002  3.9709440183160001  9.1161554577599997
  1.9122773970120002  7.6098999816840003  1.7906354577599999
  5.1150143970119997  9.7613660183160000  5.5348845422399995
  5.4757194488999996  5.7655579279319999  1.8487268313599998
  2.2729824489000001  0.0248640720680000  5.4767931686399995
  4.1324915511000002 11.5559799279320004 12.8023131686400014
  0.9297545510999999  5.8152860720680009  9.1742468313599996
  0.9297545510999999  5.8152860720680009 12.8023131686400014
  4.1324915511000002 11.5559799279320004  9.1742468313599996
  2.2729824489000001  0.0248640720680000  1.8487268313599998
  5.4757194488999996  5.7655579279319999  5.4767931686399995
  5.4300868521240000  2.1017610541840002  1.7787534643200000
  2.2273498521240001  3.6886609458160007  5.5467665356799998
  4.1781241478759998  7.8921830541840006 12.8722865356800007
  0.9753871478759999  9.4790829458159998  9.1042734643200003
  0.9753871478759999  9.4790829458159998 12.8722865356800007
  4.1781241478759998  7.8921830541840006  9.1042734643200003
  2.2273498521240001  3.6886609458160007  1.7787534643200000
  5.4300868521240000  2.1017610541840002  5.5467665356799998
