Ta Mo Ru
 1.0000000000000000
     0.0000000000000000    3.1862520000000001    3.1862520000000001
     3.1862520000000001    0.0000000000000000    3.1862520000000001
     3.1862520000000001    3.1862520000000001    0.0000000000000000
 Ta  Mo  Ru 
   2   1   1
Cartesian
  0.0000000000000000  0.0000000000000000  0.0000000000000000
  3.1862520000000001  3.1862520000000001  3.1862520000000001
  1.5931260000000000  1.5931260000000000  1.5931260000000000
  4.7793780000000003  4.7793780000000003  4.7793780000000003
