Li H  N 
 1.0000000000000000
     4.5166990000000000    0.0001740000000000   -1.9904280000000001
    -0.8772470000000000    4.4307580000000000   -1.9902709999999999
     0.0260130000000000    0.0314500000000000    6.1789100000000001
 Li  H   N  
   4   8   4
Cartesian
  0.4842460000000000  3.3388370000000003  1.0991447500000002
 -0.4141305434699999  2.2451955753199999 -0.9395533021649998
  1.3826225434700001  4.4324784246800002  3.1378428021650002
  0.0000000000000000  0.0000000000000000  0.0000000000000000
  2.5081654731890000  3.5057322652780001 -1.4471746802509999
  2.2087375492410000  1.3210342493020002  2.9865868266410005
  0.5676674043209999  2.0588307867819995  3.3139587607310004
  2.0463595732490001  2.0391666986380002 -0.4569489071209999
  4.2876709189249995  0.3646443347380000  0.3063756375840000
  1.6512077205759998  1.3668188879240000  0.9305556313270003
  3.6670956497390002  2.5771931300060000  0.8173882519779998
  3.1189071047059995  0.1855192167480000  2.3419454789540000
  1.2536010042619998  1.6083529198960003  0.0195239483730000
  0.0347223161209999  2.9201556871620000  3.1907284858759999
  2.8035112544890000  0.5349766039900000  3.2501378589449996
  3.2390954251280002  3.8612787889520002 -2.0639682931940002
