Li Ge N 
 1.0000000000000000
     6.6840710000000003    0.0000000000000000    0.0000000000000000
     0.0000000000000000    5.5492879999999998    0.0000000000000000
     0.0000000000000000    0.2285990000000000    5.6007579999999999
 Li  Ge  N  
   8   4   8
Cartesian
  3.9919745118270002  0.5889857012709999  1.7730711653659998
  0.6499390118270001  2.4142572987289994  3.8276868346340001
  2.6920964881730001  5.1889012987290002  3.8276868346340001
  6.0341319881729998  3.3636297012709999  1.7730711653659998
  5.5925221012740005  1.5295040146439998  0.3023289168400000
  2.2504866012739999  1.4737389853559999  5.2984290831599994
  1.0915488987260000  4.2483829853559998  5.2984290831599994
  4.4335843987259995  4.3041480146440003  0.3023289168400000
  4.2624989174100003  2.5098220752409999  3.6408903538179995
  0.9204634174100000  0.4934209247590000  1.9598676461819999
  2.4215720825900000  3.2680649247590003  1.9598676461819999
  5.7636075825900006  5.2844660752409993  3.6408903538179995
  0.9949039161370001  2.2517981320459999  1.2801204499959999
  4.3369394161369996  0.7514448679539999  4.3206375500039993
  5.6891670838630004  3.5260888679539999  4.3206375500039993
  2.3471315838630002  5.0264421320459993  1.2801204499959999
  4.1599184797730002  2.5693036430679999  1.6975897497999999
  0.8178829797730001  0.4339393569320000  3.9031682501999998
  2.5241525202270001  3.2085833569319999  3.9031682501999998
  5.8661880202270007  5.3439476430679997  1.6975897497999999
