Er Cd Rh
 1.0000000000000000
     0.0000000000000000    3.2737769999999999    3.2737769999999999
     3.2737769999999999    0.0000000000000000    3.2737769999999999
     3.2737769999999999    3.2737769999999999    0.0000000000000000
 Er  Cd  Rh 
   1   1   2
Cartesian
  4.9106655000000003  4.9106655000000003  4.9106655000000003
  1.6368819524459999  1.6368819524459999  1.6368819524459999
  0.0000000000000000  0.0000000000000000  0.0000000000000000
  3.2737835475540003  3.2737835475540003  3.2737835475540003
