Pm Zn Ag
 1.0000000000000000
     0.0000000000000000    3.6817259999999998    3.6817259999999998
     3.6817259999999998    0.0000000000000000    3.6817259999999998
     3.6817259999999998    3.6817259999999998    0.0000000000000000
 Pm  Zn  Ag 
   2   1   1
Cartesian
  0.0000000000000000  0.0000000000000000  0.0000000000000000
  3.6817259999999998  3.6817259999999998  3.6817259999999998
  5.5225890000000000  5.5225890000000000  5.5225890000000000
  1.8408556365480000  1.8408556365480000  1.8408556365480000
