Yb Ge
 1.0000000000000000
     3.4053179999999998   -5.8981839999999996    0.0000000000000000
     3.4053179999999998    5.8981839999999996    0.0000000000000000
     0.0000000000000000    0.0000000000000000    4.0476270000000003
 Yb  Ge 
   3   5
Cartesian
  5.5910043317099998 -2.1124640905200001  2.0238135000000002
  2.4392633365799998 -0.0000000000000002  2.0238135000000002
  5.5910043317099998  2.1124640905200001  2.0238135000000002
  3.4053179999999998 -1.9660652654559998  0.0000000000000000
  3.4053179999999998  1.9660652654559998  0.0000000000000000
  0.8489389667639999  1.4704054748319999  0.0000000000000000
  0.8489389667639999 -1.4704054748319999  0.0000000000000000
  5.1127580664719998 -0.0000000000000001  0.0000000000000000
