Sr Ir N 
 1.0000000000000000
     7.7033490000000002    0.0000610000000000    0.0000000000000000
    -3.8516330000000001    6.6714430000000000    0.0000000000000000
     0.0000000000000000    0.0000000000000000    5.3034319999999999
 Sr  Ir  N  
   6   2   6
Cartesian
  4.5043902755450000  4.2475093298649993  1.3258580000000000
  5.2784427518180008  0.6465809663820000  1.3258580000000000
  1.7723513720149999  1.7770677448149999  1.3258580000000000
 -0.6526126485040000  2.4240346994639999  3.9775739999999997
 -1.4267190489670001  6.0248429759970001  3.9775739999999997
  2.0793030013590004  4.8944629405910005  3.9775739999999997
  3.8517307009920003  2.2237326899879997  3.9775739999999997
 -0.0000224042580002  4.4477846528980001  1.3258580000000000
  4.6039966861670010  3.9672081595230004  3.9775739999999997
  4.9854577644820006  0.7007309967380000  3.9775739999999997
  1.9657106943820000  2.0038660175779999  3.9775739999999997
 -0.7522190584619999  2.7044426133820001  1.3258580000000000
 -1.1336339184259998  5.9706395746459995  1.3258580000000000
  1.8858358318569999  4.6676246381329998  1.3258580000000000
