Ca As Au
 1.0000000000000000
     4.4125990000000002   -0.0000000000000000    0.0000000000000000
    -2.2063009999999998    3.8214229999999998    0.0000000000000000
     0.0000000000000000    0.0000000000000000    7.9804430000000002
 Ca  As  Au 
   2   2   2
Cartesian
  0.0000000000000000  0.0000000000000000  3.9902215000000001
  0.0000000000000000  0.0000000000000000  0.0000000000000000
 -0.0000032062999999  2.5476166071409998  1.9951107500000000
  2.2063012063000000  1.2738063928590000  5.9853322499999999
  2.2063012063000000  1.2738063928590000  1.9951107500000000
 -0.0000032062999999  2.5476166071409998  5.9853322499999999
