Ba Zn N 
 1.0000000000000000
     4.0163359999999999    0.0000000000000000   -1.2172710000000000
    -0.3689300000000000    3.9993539999999999   -1.2172710000000000
    -0.0292940000000000   -0.0321200000000000    7.1378450000000004
 Ba  Zn  N  
   2   1   2
Cartesian
  2.3789541252120001  2.6085060006179996  0.6147630329610003
  1.2391578747879999  1.3587279993820001  4.0885399670389999
  0.0000000000000000  0.0000000000000000  0.0000000000000000
  3.1131437159039996  3.4135397852759999  3.0371967052020001
  0.5049682840959999  0.5536942147240000  1.6661062947980001
