Re Rh
 1.0000000000000000
     5.5255929999999998   -0.0000020000000000   -0.0000110000000000
    -2.7627980000000001    4.7853100000000000    0.0000100000000000
    -0.0000020000000000    0.0000020000000000    4.3850629999999997
 Re  Rh 
   6   2
Cartesian
  0.0000045418839997  1.5430808107720000  1.0963022815720000
  1.4264411259679999  4.0137640430239996  1.0963017652880001
 -1.4264446423250001  4.0137746462679997  1.0963469102079999
  2.7627912209109993  3.2422339745360000  3.2887597184269999
  1.3363546368319996  0.7715411716640002  3.2887558496389997
  4.1892431679199991  0.7715353537280001  3.2887107047180000
 -0.0000080256240000  3.1902043098279997  3.2888704110159996
  2.7628010256240003  1.5951056901720000  1.0961915889839999
