Mg Pd
 1.0000000000000000
     8.0103899999999992    0.0000920000000000   -0.0000020000000000
    -4.0051170000000003    6.9372470000000002   -0.0000020000000000
    -0.0000020000000000   -0.0000040000000000    8.2753599999999992
 Mg  Pd 
  18   6
Cartesian
  4.0051678683759988  6.9371566401339999  4.1150263397839995
  0.0000861214780000  0.0001486324020000  8.2527186149520002
  4.0051086350699991  2.3134246351620003  0.9522022980179999
  0.0001629045139995  4.6238975697319997  5.0898822987879990
  4.0043386226540001  2.3120906660739999  5.0898822987859988
  0.0009289118129995  4.6252384760670004  0.9522022980179999
 -0.9838269888770004  6.9363435847590003  3.2697243878219999
  1.5105268425829999  2.6163097632210000  7.4075711404200000
 -2.4936717202029999  4.3212006513810000  7.4073976203239988
  6.4989621659499992  2.6161539998039998  3.2697243878219999
  2.4947355663269994  4.3210102010130012  3.2698901575079997
  4.9891054191169992  0.0010180035810000  7.4073976203239988
  5.7560134494929995  0.0000998395430000  1.9762041830079997
  2.8780675419359998  4.9849607298820002  6.1141392820399991
  6.8831923982469991  1.9524315302830000  6.1138747819520001
 -2.8779213534690000  4.9849035592729996  1.9762041830079997
  1.1272035027139995  1.9523743594180001  1.9764693059599998
 -1.7507424047150006  6.9372352500129999  6.1138747819520001
  1.3808998808259987  6.9371539678860001  4.6973723535479994
  2.6932936250489989  4.6649231546390002  0.5596268056120000
 -1.3120283996319999  2.2728638405920001  0.5596950429319999
  5.3173001290960009  4.6644726183360001  4.6973723535479994
  1.3119821097180000  2.2724202416880002  4.6973164604639992
  2.6243718486379994  0.0001824910420000  0.5596950429319999
