Pr Te Cl
 1.0000000000000000
     4.5102659999999997    0.0000000000000000    0.0000000000000000
     0.0000000000000000    4.5102659999999997    0.0000000000000000
     0.0000000000000000    0.0000000000000000    8.2678530000000006
 Pr  Te  Cl 
   2   2   2
Cartesian
  3.3826994999999997  3.3826994999999997  6.2866025820510005
  1.1275664999999999  1.1275664999999999  1.9812504179490003
  3.3826994999999997  3.3826994999999997  3.0115819909560004
  1.1275664999999999  1.1275664999999999  5.2562710090440001
  3.3826994999999997  1.1275664999999999  0.0000000000000000
  1.1275664999999999  3.3826994999999997  0.0000000000000000
