Zn Ga Se
 1.0000000000000000
     5.5534780000000001   -0.0078520000000000   -0.3005720000000000
    -0.0076280000000000    5.5532089999999998   -0.3005960000000000
    -2.4770870000000000   -2.4774080000000001    5.7612209999999999
 Zn  Ga  Se 
   1   2   4
Cartesian
  0.1453106050829999  2.9253061777529998  2.5803971846669995
  5.5457360103630000  5.5446535637279997 -0.6010413021570000
  2.9238773880590001  0.1440186210880001  2.5801624005589998
 -1.1226137585009999  1.5375043048640000  4.1764425746929996
  1.5347341274790003  1.4961006448399998  1.1275062411470000
  1.5748018240140000 -1.0848160907909998  4.1740601612579997
  4.1502872500250003  4.1864367863699989  0.8414640404050000
