Zr P  O 
 1.0000000000000000
     8.4570830000000008    0.0000000000000000    0.0000000000000000
     0.0000000000000000    8.4570830000000008    0.0000000000000000
     0.0000000000000000    0.0000000000000000    8.4570830000000008
 Zr  P   O  
   4   8  28
Cartesian
  0.0000000000000000  4.2285415000000004  4.2285415000000004
  4.2285415000000004  4.2285415000000004  0.0000000000000000
  4.2285415000000004  0.0000000000000000  4.2285415000000004
  0.0000000000000000  0.0000000000000000  0.0000000000000000
  3.3235913335850000  0.9049501664150001  7.5521328335850004
  0.9049501664150001  7.5521328335850004  3.3235913335850000
  7.5521328335850004  3.3235913335850000  0.9049501664150001
  5.1334916664150008  5.1334916664150008  5.1334916664150008
  5.1334916664150008  7.5521328335850004  0.9049501664150001
  7.5521328335850004  0.9049501664150001  5.1334916664150008
  0.9049501664150001  5.1334916664150008  7.5521328335850004
  3.3235913335850000  3.3235913335850000  3.3235913335850000
  4.2285415000000004  0.0000000000000000  0.0000000000000000
  0.0000000000000000  0.0000000000000000  4.2285415000000004
  0.0000000000000000  4.2285415000000004  0.0000000000000000
  4.2285415000000004  4.2285415000000004  4.2285415000000004
  7.9713673520610016  1.8984967343380001  0.6559482716460001
  3.7428258520610003  2.3300447656620000  7.8011347283540005
  0.4857156479390000  6.1270382343380003  3.5725932283540001
  2.3300447656620000  7.8011347283540005  3.7428258520610003
  3.5725932283540001  0.4857156479390000  6.1270382343380003
  7.8011347283540005  3.7428258520610003  2.3300447656620000
  1.8984967343380001  0.6559482716460001  7.9713673520610016
  0.6559482716460001  7.9713673520610016  1.8984967343380001
  3.7428258520610003  1.8984967343380001  3.5725932283540001
  3.5725932283540001  3.7428258520610003  1.8984967343380001
  1.8984967343380001  3.5725932283540001  3.7428258520610003
  2.3300447656620000  4.8844897716460007  7.9713673520610016
  7.8011347283540005  0.4857156479390000  6.5585862656620009
  6.5585862656620009  7.8011347283540005  0.4857156479390000
  0.6559482716460001  4.7142571479389996  6.1270382343380003
  4.8844897716460007  7.9713673520610016  2.3300447656620000
  6.1270382343380003  0.6559482716460001  4.7142571479389996
  7.9713673520610016  2.3300447656620000  4.8844897716460007
  4.7142571479389996  6.1270382343380003  0.6559482716460001
  0.4857156479390000  6.5585862656620009  7.8011347283540005
  4.7142571479389996  6.5585862656620009  4.8844897716460007
  4.8844897716460007  4.7142571479389996  6.5585862656620009
  6.5585862656620009  4.8844897716460007  4.7142571479389996
  6.1270382343380003  3.5725932283540001  0.4857156479390000
