Pa O 
 1.0000000000000000
     3.3277630000000000    0.0000000000000000    1.9212849999999999
     1.1092540000000000    3.1374450000000000    1.9212849999999999
     0.0000000000000000    0.0000000000000000    3.8425699999999998
 Pa  O  
   1   2
Cartesian
  0.0000000000000000  0.0000000000000000  0.0000000000000000
  1.1092542500000000  0.7843612500000000  1.9212849999999999
  3.3277627499999998  2.3530837500000001  5.7638549999999995
