Er S 
 1.0000000000000000
     3.3296239999999999   -0.0000000000000000    1.9223589999999999
     1.1098740000000000    3.1391979999999999    1.9223589999999999
     0.0000000000000000    0.0000000000000000    3.8447179999999999
 Er  S  
   1   1
Cartesian
  0.0000000000000000  0.0000000000000000  0.0000000000000000
  2.2197490000000002  1.5695990000000000  3.8447179999999999
