Co Si
 1.0000000000000000
     4.4328360000000000    0.0000000000000000    0.0000000000000000
     0.0000000000000000    4.4328360000000000    0.0000000000000000
     0.0000000000000000    0.0000000000000000    4.4328360000000000
 Co  Si 
   4   4
Cartesian
  3.7896226307280001  2.8596313692719999  1.5732046307279999
  2.8596313692719999  1.5732046307279999  3.7896226307280001
  1.5732046307279999  3.7896226307280001  2.8596313692719999
  0.6432133692720000  0.6432133692720000  0.6432133692720000
  0.6949356997200000  1.5214823002800000  2.9113536997199998
  1.5214823002800000  2.9113536997199998  0.6949356997200000
  2.9113536997199998  0.6949356997200000  1.5214823002800000
  3.7379003002800002  3.7379003002800002  3.7379003002800002
