Cs Hg F 
 1.0000000000000000
     4.4513020000000001    0.0000000000000000   -1.3511460000000000
    -0.4101260000000000    4.4323680000000003   -1.3511460000000000
    -0.0146200000000000   -0.0160370000000000    7.9597300000000004
 Cs  Hg  F  
   2   1   4
Cartesian
  1.4307646706320001  1.5692636162640001  4.7136148917960004
  2.5957913293679997  2.8470673837360003  0.5438231082040004
  0.0000000000000000  0.0000000000000000  0.0000000000000000
  0.6232983596559999  0.6836340440600001  2.0534483571080000
  3.4032576403440005  3.7326969559400007  3.2039896428920001
  2.2256510000000000  0.0000000000000000 -0.6755730000000000
 -0.2050630000000000  2.2161840000000002 -0.6755730000000000
