Sb Pb Cl O 
 1.0000000000000000
     2.8145840000000000   -6.1682920000000001    0.0000000000000000
     2.8145840000000000    6.1682920000000001    0.0000000000000000
     0.0000000000000000    0.0000000000000000    5.4505010000000000
 Sb  Pb  Cl  O  
   2   2   2   4
Cartesian
  2.8145840000000000  5.1971807806880008  1.3626252500000000
  2.8145840000000000 -5.1971807806879999  4.0878757500000003
  2.8145840000000000  1.4601950919920001  1.3626252500000000
  2.8145840000000000 -1.4601950919920001  4.0878757500000003
  2.8145840000000000  3.0115205299920005  4.0878757500000003
  2.8145840000000000 -3.0115205299920005  1.3626252500000000
  1.2702893092159999  0.0000000000000001  2.7252505000000000
  4.3588786907839996 -0.0000000000000003  0.0000000000000000
  4.3588786907839996 -0.0000000000000003  2.7252505000000000
  1.2702893092159999  0.0000000000000001  0.0000000000000000
