Er Mg
 1.0000000000000000
     3.7605309999999998    0.0000000000000000    0.0000000000000000
     0.0000000000000000    3.7605309999999998    0.0000000000000000
     0.0000000000000000    0.0000000000000000    3.7605309999999998
 Er  Mg 
   1   1
Cartesian
  1.8802654999999999  1.8802654999999999  1.8802654999999999
  0.0000000000000000  0.0000000000000000  0.0000000000000000
