Tm Cd S 
 1.0000000000000000
     6.8065290000000003    0.0000000000000000    3.9297510000000000
     2.2688429999999999    6.4172560000000001    3.9297510000000000
     0.0000000000000000    0.0000000000000000    7.8595020000000000
 Tm  Cd  S  
   4   2   8
Cartesian
  4.5376859999999999  3.2086280000000000  3.9297510000000000
  4.5376859999999999  3.2086280000000000  7.8595020000000000
  1.1344215000000000  3.2086280000000000  5.8946265000000002
  3.4032645000000001  0.0000000000000000  5.8946265000000002
  1.1344215000000000  0.8021570000000000  1.9648755000000000
  7.9409505000000005  5.6150989999999998 13.7541285000000002
  6.7342799635080004  4.7618542249839999 11.6641140091560001
  2.3410920364919998  1.6554017750159999  7.7343394306500004
  3.4032576934710002  4.6596594231840003  5.8946147107470006
  5.5275890074290004  1.6554017750159999  5.8946147107470006
  5.6721143065290001  1.7575965768160002  9.8243892892530003
  3.5477829925710003  4.7618542249839999  9.8243892892530003
  2.3410920364919998  1.6554017750159999  4.0548899908439999
  6.7342799635080004  4.7618542249839999  7.9846645693500005
