Sr Tl
 1.0000000000000000
     5.1196250000000001    0.0000000000000000    0.0000000000000000
    -2.5598120000000000    4.4337270000000002    0.0000000000000000
     0.0000000000000000    0.0000000000000000    8.3405539999999991
 Sr  Tl 
   2   4
Cartesian
  0.0000000000000000  0.0000000000000000  2.0851384999999998
  0.0000000000000000  0.0000000000000000  6.2554154999999998
 -0.0000022264790000  2.9558194779090003  3.7644006206979994
  2.5598152264789999  1.4779075220910001  7.9346776206979994
  2.5598152264789999  1.4779075220910001  4.5761533793019993
 -0.0000022264790000  2.9558194779090003  0.4058763793019999
