Li In Ag
 1.0000000000000000
     4.0044459999999997    0.0000000000000000    2.3119679999999998
     1.3348150000000001    3.7754270000000001    2.3119679999999998
     0.0000000000000000    0.0000000000000000    4.6239350000000004
 Li  In  Ag 
   2   1   1
Cartesian
  1.3348152499999999  0.9438567500000000  2.3119677500000000
  2.6696304999999998  1.8877135000000000  4.6239355000000000
  0.0000000000000000  0.0000000000000000  0.0000000000000000
  4.0044457499999995  2.8315702500000000  6.9359032500000000
