Zr Hg
 1.0000000000000000
     5.5911850000000003    0.0000000000000000    0.0000000000000000
     0.0000000000000000    5.5912379999999997    0.0000000000000000
     0.0000000000000000    0.0000000000000000    5.5912379999999997
 Zr  Hg 
   6   2
Cartesian
  2.7955925000000001  1.3977312226680001  0.0000000000000000
  2.7955925000000001  4.1935067773319998  0.0000000000000000
  1.3977962500000001  0.0000000000000000  2.7956189999999999
  4.1933887500000004  0.0000000000000000  2.7956189999999999
  0.0000000000000000  2.7956189999999999  1.3978877773320000
  0.0000000000000000  2.7956189999999999  4.1933502226680002
  2.7955925000000001  2.7956189999999999  2.7956189999999999
  0.0000000000000000  0.0000000000000000  0.0000000000000000
