Nb Al Os
 1.0000000000000000
     0.0000000000000000    3.1062870000000000    3.1062870000000000
     3.1062870000000000    0.0000000000000000    3.1062870000000000
     3.1062870000000000    3.1062870000000000    0.0000000000000000
 Nb  Al  Os 
   1   1   2
Cartesian
  4.6594305000000000  4.6594305000000000  4.6594305000000000
  1.5531372874260001  1.5531372874260001  1.5531372874260001
  0.0000000000000000  0.0000000000000000  0.0000000000000000
  3.1062870000000000  3.1062870000000000  3.1062870000000000
