Ba Hg
 1.0000000000000000
     4.7497970000000000    0.0000000000000000    2.0429860000000000
     2.1847170000000000    6.1332019999999998    1.4636520000000000
    -0.0559050000000000    0.0144810000000000    6.6729380000000003
 Ba  Hg 
   2   4
Cartesian
  2.8766721691750003  1.5499708104349998  6.3978679557799998
  4.0019368308250005  4.5977121895649997  3.7817080442199997
  4.3109654373819994  1.0150433723800001  3.0632382188760001
  2.5676435626180001  5.1326396276199997  7.1163377811239998
  1.4976180826420000  2.0434523753520000  3.0611076704120004
  5.3809909173579999  4.1042306246479994  7.1184683295880005
