Co Sn C 
 1.0000000000000000
     3.8428920000000000    0.0000000000000000    0.0000000000000000
     0.0000000000000000    3.8428920000000000    0.0000000000000000
     0.0000000000000000    0.0000000000000000    3.8428920000000000
 Co  Sn  C  
   3   1   1
Cartesian
  0.0000000000000000  1.9214460000000000  1.9214460000000000
  1.9214460000000000  1.9214460000000000  0.0000000000000000
  1.9214460000000000  0.0000000000000000  1.9214460000000000
  0.0000000000000000  0.0000000000000000  0.0000000000000000
  1.9214460000000000  1.9214460000000000  1.9214460000000000
