Dy Ag
 1.0000000000000000
     3.6067049999999998    0.0000000000000000    0.0000000000000000
     0.0000000000000000    3.6067049999999998    0.0000000000000000
     0.0000000000000000    0.0000000000000000    3.6067049999999998
 Dy  Ag 
   1   1
Cartesian
  0.0000000000000000  0.0000000000000000  0.0000000000000000
  1.8033524999999999  1.8033524999999999  1.8033524999999999
