Rb Cd O 
 1.0000000000000000
     6.2997189999999996    0.0000000000000000    0.0000000000000000
     0.0000000000000000    6.3905450000000004    0.0000000000000000
     0.0000000000000000    0.0000000000000000   10.5763669999999994
 Rb  Cd  O  
   8   4   8
Cartesian
  2.5042516974419997  0.6945180400550001  6.9356113057549997
  3.7954673025579995  2.5007544599450000  1.6474278057549998
  5.6541111974420000  5.6960269599450006  6.9356113057549997
  0.6456078025580000  3.8897905400549999  1.6474278057549998
  3.7954673025579995  5.6960269599450006  3.6407556942450001
  2.5042516974419997  3.8897905400549999  8.9289391942449985
  5.6541111974420000  2.5007544599450000  8.9289391942449985
  0.6456078025580000  0.6945180400550001  3.6407556942450001
  4.7247892499999997  2.9644524051450003  5.2881834999999997
  1.5749297499999999  3.4260925948550001  5.2881834999999997
  4.7247892499999997  6.1597249051450005  0.0000000000000000
  1.5749297499999999  0.2308200948550000  0.0000000000000000
  3.2610054423169994  1.2139607092900000  9.5612896008079993
  0.1111459423170000  5.1765842907100001  9.5612896008079993
  3.2610054423169994  4.4092332092900000  6.3032608991919989
  3.0387135576829998  1.9813117907100000  4.2731061008079996
  3.0387135576829998  5.1765842907100001  1.0150773991919999
  6.1885730576829996  1.2139607092900000  1.0150773991919999
  0.1111459423170000  1.9813117907100000  6.3032608991919989
  6.1885730576829996  4.4092332092900000  4.2731061008079996
