Sr Ge Ru
 1.0000000000000000
     4.0322709999999997    0.0000000000000000   -1.5548979999999999
    -0.5995900000000000    3.9874429999999998   -1.5548979999999999
    -0.0010400000000000   -0.0012090000000000    6.0031340000000002
 Sr  Ge  Ru 
   1   2   2
Cartesian
  0.0000000000000000  0.0000000000000000  0.0000000000000000
  2.2041205052650001  2.5603322820429999 -0.2899651349479997
  1.2275204957749999  1.4259017191659999  3.1832971318140002
  0.5578552500000000  2.9899777500000000  1.4466690000000002
  2.8737857500000001  0.9962562500000000  1.4466690000000002
