Sc Co C 
 1.0000000000000000
     3.4363709999999998    0.0000000000000000    0.0000000000000000
     0.0000000000000000    4.3382129999999997    0.0000000000000000
     0.0000000000000000    0.0000000000000000   11.9836749999999999
 Sc  Co  C  
   6   2   8
Cartesian
  0.0000000000000000  2.1691064999999998  0.0000000000000000
  0.0000000000000000  0.0000000000000000  2.2515048426749997
  0.0000000000000000  0.0000000000000000  9.7321701573250010
  1.7181854999999999  0.0000000000000000  5.9918374999999999
  1.7181854999999999  2.1691064999999998  8.2433423426749997
  1.7181854999999999  2.1691064999999998  3.7403326573249998
  1.7181854999999999  0.0000000000000000  0.0000000000000000
  0.0000000000000000  2.1691064999999998  5.9918374999999999
  1.7181854999999999  1.4441694166349999 10.5053329009750005
  1.7181854999999999  2.8940435833649993  1.4783420990250000
  1.7181854999999999  1.4441694166349999  1.4783420990250000
  1.7181854999999999  2.8940435833649993 10.5053329009750005
  0.0000000000000000  3.6132759166350001  4.5134954009749997
  0.0000000000000000  0.7249370833650000  7.4701795990250002
  0.0000000000000000  3.6132759166350001  7.4701795990250002
  0.0000000000000000  0.7249370833650000  4.5134954009749997
