Ba Br N 
 1.0000000000000000
    -2.0839120000000002   -3.6094409999999999    0.0000000000000000
    -4.1678230000000003    0.0000000000000000    0.0000000000000000
    -2.0839120000000002   -1.2031460000000000   -7.9385969999999997
 Ba  Br  N  
   2   1   1
Cartesian
 -2.0839096874290002 -1.2031454828310000 -2.4928941071340001
 -6.2517373125710014 -3.6094415171690000 -5.4457028928659996
  0.0000000000000000  0.0000000000000000  0.0000000000000000
 -4.1678234999999999 -2.4062934999999999 -3.9692984999999998
