Cd Ag Au
 1.0000000000000000
     4.1064379999999998   -0.0000000000000000    2.3708529999999999
     1.3688119999999999    3.8715860000000002    2.3708529999999999
    -0.0000000000000000   -0.0000000000000000    4.7417069999999999
 Cd  Ag  Au 
   2   1   1
Cartesian
  1.3688125000000000  0.9678965000000000  2.3708532499999997
  4.1064374999999993  2.9036895000000000  7.1125597499999991
  0.0000000000000000  0.0000000000000000  0.0000000000000000
  2.7376250000000000  1.9357930000000001  4.7417064999999994
