Ti P  Ru
 1.0000000000000000
     6.2333420000000004    0.0000000000000000    0.0000000000000000
    -3.1166710000000002    5.3982320000000001    0.0000000000000000
     0.0000000000000000    0.0000000000000000    3.6564030000000001
 Ti  P   Ru 
   3   3   3
Cartesian
  1.2977132376380001  2.2477050436960000  1.8282015000000000
  3.6379155247240003  0.0000000000000000  1.8282015000000000
 -1.8189577623620001  3.1505269563040001  1.8282015000000000
  0.0000000000000000  0.0000000000000000  1.8282015000000000
  3.1166741166710006  1.7994088672560000  0.0000000000000000
 -0.0000031166710003  3.5988231327440001  0.0000000000000000
 -0.7820631373590001  1.3545729575280001  0.0000000000000000
  1.5641262747180003  0.0000000000000000  0.0000000000000000
  2.3346078626410001  4.0436590424720000  0.0000000000000000
