Mg Be N 
 1.0000000000000000
     2.9409190000000001    0.0000000000000000    0.0000000000000000
    -1.4704590000000000    2.5469089999999999    0.0000000000000000
     0.0000000000000000    0.0000000000000000    5.0636320000000001
 Mg  Be  N  
   1   2   2
Cartesian
  0.0000000000000000  0.0000000000000000  0.0000000000000000
  1.4704611371260001  0.8489688176969999  1.8844154579040000
 -0.0000011371260000  1.6979401823030000  3.1792165420959999
  1.4704611371260001  0.8489688176969999  3.6607780725600003
 -0.0000011371260000  1.6979401823030000  1.4028539274400000
