Ge Pd
 1.0000000000000000
     3.5492599999999999    0.0000000000000000    0.0000000000000000
     0.0000000000000000    5.7835710000000002    0.0000000000000000
     0.0000000000000000    0.0000000000000000    6.2961520000000002
 Ge  Pd 
   4   4
Cartesian
  2.6619449999999998  4.7112853694580004  2.6581787090320002
  0.8873150000000000  1.0722856305420001  3.6379669948159998
  2.6619449999999998  1.8194998694580000  0.4898909948160000
  0.8873150000000000  3.9640711305420000  5.8062610051840000
  2.6619449999999998  5.7617091016200002  5.0936499295200006
  0.8873150000000000  0.0218618983800000  1.2025020704800000
  2.6619449999999998  2.8699236016200000  4.3505780704800001
  0.8873150000000000  2.9136473983800002  1.9455739295200001
