Li P  N  O 
 1.0000000000000000
     2.7305130000000002   -4.5779339999999999    0.0000000000000000
     2.7305130000000002    4.5779339999999999    0.0000000000000000
     0.0000000000000000    0.0000000000000000    4.7489689999999998
 Li  P   N   O  
   4   2   2   4
Cartesian
  3.6013527805770003  3.0610676146380000  2.3818738957640000
  3.6013527805770003 -3.0610676146380005  2.3818738957640000
  1.8596732194230001 -3.0610676146380000  0.0073893957640000
  1.8596732194230001  3.0610676146380000  0.0073893957640000
  3.5701457475000007  0.0000000000000002  2.3674132851590000
  1.8908802525000001  0.0000000000000001  4.7418977851589998
  2.1134170620000003  0.0000000000000001  1.6202342475439999
  3.3476089380000000 -0.0000000000000001  3.9947187475439998
  4.3985833916999999 -1.2730959777959998  1.9902976568689998
  4.3985833916999999  1.2730959777960003  1.9902976568689998
  1.0624426083000000  1.2730959777959998  4.3647821568689995
  1.0624426083000000 -1.2730959777959998  4.3647821568689995
