Fe B 
 1.0000000000000000
    -2.9049019999999999    0.0000000000000000    0.0000000000000000
     0.0000000000000000    0.0000000000000000   -2.9207709999999998
    -1.4524500000000000   -3.7918949999999998    0.0000000000000000
 Fe  B  
   2   2
Cartesian
 -1.4524502915399999 -2.6864059317000000 -2.1905782499999997
 -2.9049017084599997 -1.1054890683000000 -0.7301927499999999
 -1.4524494143299997 -0.5051524600050000 -2.1905782499999997
 -2.9049025856699999 -3.2867425399950001 -0.7301927499999999
