Pr Ag Ge
 1.0000000000000000
     4.0476549999999998   -0.0000000000000000   -1.4647399999999999
    -0.5300510000000000    4.0128000000000004   -1.4647399999999999
    -0.0014540000000000   -0.0016570000000000    6.3209900000000001
 Pr  Ag  Ge 
   1   2   2
Cartesian
  0.0000000000000000  0.0000000000000000  0.0000000000000000
  0.6136484999999999  3.0087715000000004  1.6957550000000001
  2.9025015000000001  1.0023715000000002  1.6957550000000001
  2.1456153858839997  2.4476679945300002 -0.3958337419800001
  1.3705346141160000  1.5634750054700002  3.7873437419800000
