Fe Co Si
 1.0000000000000000
     5.6284310000000000    0.0000000000000000    0.0000000000000000
     0.0000000000000000    5.6284310000000000    0.0000000000000000
     0.0000000000000000    0.0000000000000000    5.6284310000000000
 Fe  Co  Si 
   4   8   4
Cartesian
  0.0000000000000000  0.0000000000000000  0.0000000000000000
  0.0000000000000000  2.8142155000000000  2.8142155000000000
  2.8142155000000000  0.0000000000000000  2.8142155000000000
  2.8142155000000000  2.8142155000000000  0.0000000000000000
  4.2213232500000002  4.2213232500000002  1.4071077500000000
  1.4071077500000000  4.2213232500000002  1.4071077500000000
  4.2213232500000002  1.4071077500000000  4.2213232500000002
  1.4071077500000000  1.4071077500000000  4.2213232500000002
  1.4071077500000000  4.2213232500000002  4.2213232500000002
  4.2213232500000002  4.2213232500000002  4.2213232500000002
  1.4071077500000000  1.4071077500000000  1.4071077500000000
  4.2213232500000002  1.4071077500000000  1.4071077500000000
  0.0000000000000000  0.0000000000000000  2.8142155000000000
  0.0000000000000000  2.8142155000000000  0.0000000000000000
  2.8142155000000000  0.0000000000000000  0.0000000000000000
  2.8142155000000000  2.8142155000000000  2.8142155000000000
