Nb Cu Se
 1.0000000000000000
     5.6652699999999996    0.0000000000000000    0.0000000000000000
     0.0000000000000000    5.6652699999999996    0.0000000000000000
     0.0000000000000000    0.0000000000000000    5.6652699999999996
 Nb  Cu  Se 
   1   3   4
Cartesian
  0.0000000000000000  0.0000000000000000  0.0000000000000000
  2.8326349999999998  0.0000000000000000  0.0000000000000000
  0.0000000000000000  0.0000000000000000  2.8326349999999998
  0.0000000000000000  2.8326349999999998  0.0000000000000000
  1.4167310647099998  1.4167310647099998  1.4167310647099998
  4.2485389352900000  4.2485389352900000  1.4167310647099998
  4.2485389352900000  1.4167310647099998  4.2485389352900000
  1.4167310647099998  4.2485389352900000  4.2485389352900000
