Sn Au
 1.0000000000000000
     2.5939450000000002   -1.4976140000000000    4.9086290000000004
     0.0000000000000000    2.9952299999999998    4.9086290000000004
    -2.5939450000000002   -1.4976140000000000    4.9086290000000004
 Sn  Au 
   1   5
Cartesian
  0.0000000000000000  0.0000000000000000  0.0000000000000000
 -0.0000000000000000  0.0000006598159999  4.8581879283960001
  1.7010209368700002  0.0000009999999998  7.3629435000000001
 -0.8505104684350001 -1.4731261692520001  7.3629435000000010
 -0.8505104684350000  1.4731281692520002  7.3629435000000001
 -0.0000000000000001  0.0000013401839999  9.8676990716040009
