Ca O 
 1.0000000000000000
     4.8376049999999999    0.0000000000000000    0.0000000000000000
     0.0000000000000000    4.8376049999999999    0.0000000000000000
     0.0000000000000000    0.0000000000000000    4.8376049999999999
 Ca  O  
   4   4
Cartesian
  0.0000000000000000  0.0000000000000000  0.0000000000000000
  0.0000000000000000  2.4188025000000000  2.4188025000000000
  2.4188025000000000  0.0000000000000000  2.4188025000000000
  2.4188025000000000  2.4188025000000000  0.0000000000000000
  0.0000000000000000  0.0000000000000000  2.4188025000000000
  0.0000000000000000  2.4188025000000000  0.0000000000000000
  2.4188025000000000  0.0000000000000000  0.0000000000000000
  2.4188025000000000  2.4188025000000000  2.4188025000000000
