Ca Mn N 
 1.0000000000000000
     4.1824100000000000   -5.1105150000000004    0.0000000000000000
     4.1824100000000000    5.1105150000000004    0.0000000000000000
     0.0000000000000000    0.0000000000000000    5.0195429999999996
 Ca  Mn  N  
   6   2   6
Cartesian
  6.5886215739700003  1.1882407321349997  3.7646572500000000
  4.1824100000000000  1.0999770275700005  1.2548857499999999
  6.5886215739699994 -1.1882407321349995  1.2548857499999999
  4.1824100000000000 -1.0999770275700005  3.7646572500000000
  1.7761984260300001 -1.1882407321350001  1.2548857499999999
  1.7761984260299999  1.1882407321349999  3.7646572500000000
  4.1824100000000000 -3.0721963132800001  1.2548857499999999
  4.1824100000000000  3.0721963132800001  3.7646572500000000
  6.7550103909999999  1.2875431491000002  1.2548857499999999
  4.1824100000000000  1.2835773894600002  3.7646572500000000
  4.1824100000000000 -1.2835773894600000  1.2548857499999999
  6.7550103909999999 -1.2875431491000007  3.7646572500000000
  1.6098096089999998 -1.2875431491000000  3.7646572500000000
  1.6098096089999998  1.2875431491000000  1.2548857499999999
