Li Co As
 1.0000000000000000
     3.7079740000000001    0.0000000000000000    0.0000000000000000
     0.0000000000000000    3.7079740000000001    0.0000000000000000
     0.0000000000000000    0.0000000000000000    6.1216340000000002
 Li  Co  As 
   2   2   2
Cartesian
  2.7809805000000001  2.7809805000000001  4.1066430741940003
  0.9269935000000000  0.9269935000000000  2.0149909258059999
  0.9269935000000000  2.7809805000000001  0.0000000000000000
  2.7809805000000001  0.9269935000000000  0.0000000000000000
  0.9269935000000000  0.9269935000000000  4.7267462334920003
  2.7809805000000001  2.7809805000000001  1.3948877665080002
