Na Er S 
 1.0000000000000000
     6.6851859999999999   -1.9650500000000000   -0.0091280000000000
     6.6851859999999999    1.9650500000000000   -0.0091280000000000
     6.1121580000000000    0.0000000000000000    3.3458530000000000
 Na  Er  S  
   1   1   2
Cartesian
  9.7412650000000003  0.0000000000000000  1.6637985000000000
  0.0000000000000000  0.0000000000000000  0.0000000000000000
 14.4603039340699979 -0.0000000000000001  2.4698057177429997
  5.0222260659300000 -0.0000000000000000  0.8577912822570000
