Li Al Pd
 1.0000000000000000
     6.1095410000000001    0.0000000000000000    0.0000000000000000
     0.0000000000000000    6.1095410000000001    0.0000000000000000
     0.0000000000000000    0.0000000000000000    6.1095410000000001
 Li  Al  Pd 
   4   8   4
Cartesian
  0.0000000000000000  0.0000000000000000  0.0000000000000000
  0.0000000000000000  3.0547705000000001  3.0547705000000001
  3.0547705000000001  0.0000000000000000  3.0547705000000001
  3.0547705000000001  3.0547705000000001  0.0000000000000000
  4.5821557500000001  4.5821557500000001  1.5273852500000000
  4.5821557500000001  4.5821557500000001  4.5821557500000001
  4.5821557500000001  1.5273852500000000  4.5821557500000001
  4.5821557500000001  1.5273852500000000  1.5273852500000000
  1.5273852500000000  4.5821557500000001  4.5821557500000001
  1.5273852500000000  4.5821557500000001  1.5273852500000000
  1.5273852500000000  1.5273852500000000  1.5273852500000000
  1.5273852500000000  1.5273852500000000  4.5821557500000001
  0.0000000000000000  0.0000000000000000  3.0547705000000001
  0.0000000000000000  3.0547705000000001  0.0000000000000000
  3.0547705000000001  0.0000000000000000  0.0000000000000000
  3.0547705000000001  3.0547705000000001  3.0547705000000001
