Ac Br
 1.0000000000000000
     8.1682640000000006    0.0000340000000000    0.0000000000000000
    -4.0841620000000001    7.0739070000000002    0.0000000000000000
     0.0000000000000000    0.0000000000000000    4.7234509999999998
 Ac  Br 
   2   6
Cartesian
  4.0841260841420004  2.3579893087090000  3.5425882499999997
 -0.0000240841419998  4.7159516912910000  1.1808627500000000
  2.1605011699279997  4.9504824867480002  3.5425882499999997
  4.9612871020720011  4.3463244438799995  1.1808627500000000
  1.9236008300720000  2.1234585132519999  1.1808627500000000
 -0.8771851020719998  2.7276165561200001  3.5425882499999997
 -1.2834005727079998  6.4697631048780000  3.5425882499999997
  5.3675025727080001  0.6041778951219999  1.1808627500000000
