Ba Zr N 
 1.0000000000000000
     4.1803939999999997    0.0000000000000000    0.0000000000000000
     0.0000000000000000    4.1803939999999997    0.0000000000000000
     0.0000000000000000    0.0000000000000000    8.4338180000000005
 Ba  Zr  N  
   2   2   4
Cartesian
  3.1352954999999998  3.1352954999999998  1.2900705365520000
  1.0450984999999999  1.0450984999999999  7.1437474634480003
  1.0450984999999999  1.0450984999999999  3.4822306802020004
  3.1352954999999998  3.1352954999999998  4.9515873197980005
  3.1352954999999998  3.1352954999999998  6.9436804328520001
  1.0450984999999999  1.0450984999999999  1.4901375671480002
  3.1352954999999998  1.0450984999999999  4.2169090000000002
  1.0450984999999999  3.1352954999999998  4.2169090000000002
