Mg Sc
 1.0000000000000000
     3.3329920000000000    0.0001680000000000   -0.0000000000000000
     1.6669119999999999    8.2425270000000008   -0.0000010000000000
    -0.0000000000000000   -0.0000000000000000    5.2330259999999997
 Mg  Sc 
   2   4
Cartesian
  1.6572697523200000  2.8293185723880003 -0.0000003432520000
  1.6612384255999999  0.8299328941200002  2.6165128993200000
  3.3353494574400000  0.1196752995810000 -0.0000000144990000
  3.3376528194880004  5.5400707675530008  5.2330253278810002
  3.3353340600320003  3.5457703596840005  2.6165125698359999
  1.6725751531839999  6.3683523584369999  2.6165122273810000
