Fe S 
 1.0000000000000000
     3.5924489999999998    0.0000080000000000    0.0000090000000000
     0.0000080000000000    3.5924520000000002   -0.0000060000000000
     0.0000130000000000   -0.0000100000000000    5.2683229999999996
 Fe  S  
   2   2
Cartesian
  0.8981182499999999  2.6943410000000001 -0.0000022500000000
  2.6943387499999996  0.8981190000000000  0.0000052500000000
  0.8981136749079999  0.8981090864900001  1.2228048599120001
  2.6943563251049998  2.6943409135000005  4.0455264084109999
