La In N 
 1.0000000000000000
     5.1378529999999998    0.0000000000000000    0.0000000000000000
     0.0000000000000000    5.1378329999999997    0.0000000000000000
     0.0000000000000000    0.0000000000000000    5.1378450000000004
 La  In  N  
   3   1   1
Cartesian
  2.5689264999999999  2.5689164999999998  0.0000000000000000
  0.0000000000000000  2.5689164999999998  2.5689225000000002
  2.5689264999999999  0.0000000000000000  2.5689225000000002
  0.0000000000000000  0.0000000000000000  0.0000000000000000
  2.5689264999999999  2.5689164999999998  2.5689225000000002
