Ba Ge F 
 1.0000000000000000
     4.8090099999999998   -0.0091080000000000   -0.6853840000000000
    -0.7887230000000000    4.7438989999999999   -0.6853840000000000
    -0.0077330000000000   -0.0091080000000000    4.8575989999999996
 Ba  Ge  F  
   1   1   6
Cartesian
  2.0062769999999999  2.3628414999999996  1.7434154999999998
  0.0000000000000000  0.0000000000000000  0.0000000000000000
  1.0624064569859999  1.2512216405170002  4.1246132382689993
  0.5484056983860002  4.3793656674969998  0.4765544066490001
  3.4641483016139998  0.3463173325030000  3.0102765933509996
  2.9501475430139998  3.4744613594829996 -0.6377822382690000
 -0.2199436950060000  3.4744613594829996  3.0102765933509996
  4.2324976950059989  1.2512216405170000  0.4765544066490001
