Na Ru N 
 1.0000000000000000
     1.6148350000000000   -2.7969759999999999    0.0000000000000000
     1.6148350000000000    2.7969759999999999    0.0000000000000000
     0.0000000000000000    0.0000000000000000   10.0158450000000006
 Na  Ru  N  
   2   2   2
Cartesian
  1.6148350000000000  0.9323271979840000  2.6387645078549999
  1.6148350000000000 -0.9323271979840001  7.6466870078550002
  0.0000000000000000  0.0000000000000000  0.1700690481000000
  0.0000000000000000  0.0000000000000000  5.1779915481000005
  1.6148350000000000 -0.9323271979840001  0.6430472965350000
  1.6148350000000000  0.9323271979840000  5.6509697965350005
