Tb Sc Ge
 1.0000000000000000
     4.0991359999999997    0.0003260000000000   -1.0853680000000001
    -0.2868500000000000    4.0890849999999999   -1.0853670000000000
     0.0140780000000000    0.0151040000000000    8.3421669999999999
 Tb  Sc  Ge 
   2   2   2
Cartesian
  2.5881564322120001  2.7762972006970004  1.4925678778000000
  1.2382075677879998  1.3282177993030000  4.6788641222000003
 -0.1434250000000000  2.0445424999999999 -0.5426835000000000
  1.7627179999999998  4.0892479999999995 -1.6280510000000001
  0.4892140255740000  0.5247769375500000  1.8461514866069999
  3.3371499744259996  3.5797380624500001  4.3252805133930003
