Sr N 
 1.0000000000000000
     3.6785120000000000   -0.0000310000000000   -1.0410800000000000
    -0.1415830000000000    6.6917819999999999   -0.4998220000000000
    -0.0062590000000000    0.0332500000000000    6.9967400000000000
 Sr  N  
   4   4
Cartesian
  1.2933805536990000  0.6133541921420000  4.5691934225399997
  2.2372894463010002  6.1116468078579995  0.8866445774600000
  0.5085232487660001  2.6117674545080001  1.7965378848240001
  3.0221467512340001  4.1132335454920002  3.6593001151760003
  0.0721304298930000  0.5644303524460000  0.2535953875400000
  3.4585395701069999  6.1605706475540005  5.2022426124600001
  0.7994154296560001  5.0283533538800000  2.8245332822220002
  2.7312545703440003  1.6966476461200000  2.6313047177779998
