Mg Al
 1.0000000000000000
    10.5320169999999997    0.0000000000000000    0.0000000000000000
     0.0000000000000000   10.5320169999999997    0.0000000000000000
     0.0000000000000000    0.0000000000000000   10.5320169999999997
 Mg  Al 
  34  24
Cartesian
  0.0000000000000000  0.0000000000000000  0.0000000000000000
  8.7174663230869989  1.8145506769130000  8.7174663230869989
  8.7174663230869989  8.7174663230869989  1.8145506769130000
  1.8145506769130000  8.7174663230869989  8.7174663230869989
  1.8145506769130000  1.8145506769130000  1.8145506769130000
  9.0252329238609992  4.8338061183710002  9.0252329238609992
  3.7592244238609998  0.4322023816289999  6.7727925761390004
  6.7727925761390004  0.4322023816289999  3.7592244238609998
  4.8338061183710002  1.5067840761389999  1.5067840761389999
  0.4322023816289999  3.7592244238609998  6.7727925761390004
  6.7727925761390004  3.7592244238609998  0.4322023816289999
  1.5067840761389999  1.5067840761389999  4.8338061183710002
  9.0252329238609992  9.0252329238609992  4.8338061183710002
  4.8338061183710002  9.0252329238609992  9.0252329238609992
  0.4322023816289999  6.7727925761390004  3.7592244238609998
  3.7592244238609998  6.7727925761390004  0.4322023816289999
  1.5067840761389999  4.8338061183710002  1.5067840761389999
  5.2660084999999999  5.2660084999999999  5.2660084999999999
  3.4514578230869994  7.0805591769129999  3.4514578230869994
  3.4514578230869994  3.4514578230869994  7.0805591769129999
  7.0805591769129999  3.4514578230869994  3.4514578230869994
  7.0805591769129999  7.0805591769129999  7.0805591769129999
  3.7592244238609998 10.0998146183709991  3.7592244238609998
  9.0252329238609992  5.6982108816289996  1.5067840761389999
  1.5067840761389999  5.6982108816289996  9.0252329238609992
 10.0998146183709991  6.7727925761390004  6.7727925761390004
  5.6982108816289996  9.0252329238609992  1.5067840761389999
  1.5067840761389999  9.0252329238609992  5.6982108816289996
  6.7727925761390004  6.7727925761390004 10.0998146183709991
  3.7592244238609998  3.7592244238609998 10.0998146183709991
 10.0998146183709991  3.7592244238609998  3.7592244238609998
  5.6982108816289996  1.5067840761389999  9.0252329238609992
  9.0252329238609992  1.5067840761389999  5.6982108816289996
  6.7727925761390004 10.0998146183709991  6.7727925761390004
  0.9534319029589999  7.6245062589119996  0.9534319029589999
  0.9534319029589999  2.9075107410879997  9.5785850970409996
  9.5785850970409996  2.9075107410879997  0.9534319029589999
  7.6245062589119996  9.5785850970409996  9.5785850970409996
  2.9075107410879997  0.9534319029589999  9.5785850970409996
  9.5785850970409996  0.9534319029589999  2.9075107410879997
  9.5785850970409996  9.5785850970409996  7.6245062589119996
  0.9534319029589999  0.9534319029589999  7.6245062589119996
  7.6245062589119996  0.9534319029589999  0.9534319029589999
  2.9075107410879997  9.5785850970409996  0.9534319029589999
  0.9534319029589999  9.5785850970409996  2.9075107410879997
  9.5785850970409996  7.6245062589119996  9.5785850970409996
  6.2194404029590000  2.3584977589119998  6.2194404029590000
  6.2194404029590000  8.1735192410880000  4.3125765970409997
  4.3125765970409997  8.1735192410880000  6.2194404029590000
  2.3584977589119998  4.3125765970409997  4.3125765970409997
  8.1735192410880000  6.2194404029590000  4.3125765970409997
  4.3125765970409997  6.2194404029590000  8.1735192410880000
  4.3125765970409997  4.3125765970409997  2.3584977589119998
  6.2194404029590000  6.2194404029590000  2.3584977589119998
  2.3584977589119998  6.2194404029590000  6.2194404029590000
  8.1735192410880000  4.3125765970409997  6.2194404029590000
  6.2194404029590000  4.3125765970409997  8.1735192410880000
  4.3125765970409997  2.3584977589119998  4.3125765970409997
