Zr Cl
 1.0000000000000000
     3.4450440000000002    0.0000090000000000    0.0000160000000000
    -1.7225189999999999    2.9121320000000002   -0.6477530000000000
     0.0000430000000000    0.0220170000000000    9.2739250000000002
 Zr  Cl 
   2   2
Cartesian
  1.7225704603510001  0.7356670922450000  7.9040046817530003
 -0.0000024603509998  2.1984909077550001  0.7221833182470001
  1.7225552256080001  2.3007669613710000  5.7780579964080001
  0.0000127743920000  0.6333910386290001  2.8481300035920003
