Dy Si Ir
 1.0000000000000000
     4.2271729999999996    0.0000000000000000    0.0000000000000000
     0.0000000000000000    6.8598949999999999    0.0000000000000000
     0.0000000000000000    0.0000000000000000    7.3688510000000003
 Dy  Si  Ir 
   4   4   4
Cartesian
  3.1703797499999995  3.4402990815549996  1.3758750144650000
  1.0567932499999999  6.8495434184450001  5.0603005144650002
  3.1703797499999995  0.0103515815550000  2.3085504855350001
  1.0567932499999999  3.4195959184450002  5.9929759855350007
  1.0567932499999999  5.4878199614699996  0.8088419300150000
  1.0567932499999999  2.0578724614699997  2.8755835699850003
  3.1703797499999995  1.3720750385300000  6.5600090699850000
  3.1703797499999995  4.8020225385300002  4.4932674300150000
  1.0567932499999999  4.4992679326000005  3.1869470001390003
  1.0567932499999999  1.0693204325999999  0.4974784998610000
  3.1703797499999995  5.7905745673999993  6.8713725001390005
  3.1703797499999995  2.3606270673999998  4.1819039998610004
