Er Zn Ga
 1.0000000000000000
     4.3505810000000000    0.0000310000000000   -0.0000000000000000
    -2.1752630000000002    3.7680120000000001    0.0000000000000000
    -0.0000000000000000    0.0000000000000000    7.0529070000000003
 Er  Zn  Ga 
   2   2   2
Cartesian
 -0.0000021747130000  0.0000791285620000  3.5249935482510000
  2.1753201747130002  3.7679638714379999  7.0514470482510010
  2.1752953164340001  1.2560723949840000  1.4815759618620001
  0.0000226835660001  2.5119706050159998  5.0080294618619998
  2.1752626849590002  1.2557822566340000  5.5290629664870004
  0.0000553150410000  2.5122607433659998  2.0026094664870002
