Fe Mo N 
 1.0000000000000000
    -0.0000130000000000    5.5621000000000000    5.5620890000000003
     5.5620969999999996   -0.0000140000000000    5.5620900000000004
     5.5620940000000001    5.5620979999999998   -0.0000110000000000
 Fe  Mo  N  
  12  12   4
Cartesian
  6.9525955014529996  4.1716373073680000  4.1715994346070007
  4.1716239330990001  6.9525997514220004  4.1716211830140004
  4.1716031846229997  4.1716327452219994  6.9526049377980002
  6.9525389427960000  6.9525649412100003  6.9525493791690014
  4.6601531178749998  6.4640545574499999  6.4640498492980010
  6.4640455088650004  4.6601608692100003  6.4640390494259998
  6.4640500980210005  6.4640483467119996  4.6601495773090003
  4.6600905889669999  4.6600875403459998  4.6600863998100008
  9.2450638200699995  7.4411531941519993  7.4411434644460002
  7.4411436185499999  9.2450746929859999  7.4411320159330012
  7.4411557157069996  7.4411649670060003  9.2450492985340009
  9.2451819698449995  9.2451813942639998  9.2451792210530002
  5.5621137604789999  5.5620994641539996  8.9549786362480006
  5.5620976120470003  5.5620956599260003  2.1692672330400002
  5.5621063683690002  8.9549933462679991  5.5620970262469998
  5.5621050040949997  2.1692796473560003  5.5620932220070012
  8.9549823441680001  5.5620982441720006  5.5621031983580007
  2.1692846494280000  5.5620968798880002  5.5620870499300006
  2.7810481121699997  2.7810380979580005  4.9501923048610008
  2.7810019532550001  2.7810094053399999  0.6118082637970000
  2.7810302559369999  4.9501727842200003  2.7810340980170003
  2.7810086853370000  0.6118135358860000  2.7810054053820004
  4.9501808484809997  2.7810317559020001  2.7810456121820000
  0.6118191579940000  2.7810101853140003  2.7809994532870004
  1.3905379984080000  4.1715729999680002  4.1715654999800007
  4.1715707499839993  1.3905271242120001  4.1715659999880002
  4.1715636878830002  4.1715719999900003  1.3905321862900000
  1.3905166879160000  1.3905174379140000  1.3905098758209999
