Mn Co Si
 1.0000000000000000
     5.6262530000000002    0.0000000000000000    0.0000000000000000
     0.0000000000000000    5.6262530000000002    0.0000000000000000
     0.0000000000000000    0.0000000000000000    5.6262530000000002
 Mn  Co  Si 
   8   4   4
Cartesian
  1.4065632500000000  4.2196897500000006  1.4065632500000000
  0.0000000000000000  0.0000000000000000  0.0000000000000000
  1.4065632500000000  1.4065632500000000  4.2196897500000006
  0.0000000000000000  2.8131265000000001  2.8131265000000001
  4.2196897500000006  4.2196897500000006  4.2196897500000006
  2.8131265000000001  0.0000000000000000  2.8131265000000001
  4.2196897500000006  1.4065632500000000  1.4065632500000000
  2.8131265000000001  2.8131265000000001  0.0000000000000000
  0.0000000000000000  0.0000000000000000  2.8131265000000001
  0.0000000000000000  2.8131265000000001  0.0000000000000000
  2.8131265000000001  0.0000000000000000  0.0000000000000000
  2.8131265000000001  2.8131265000000001  2.8131265000000001
  1.4065632500000000  4.2196897500000006  4.2196897500000006
  1.4065632500000000  1.4065632500000000  1.4065632500000000
  4.2196897500000006  4.2196897500000006  1.4065632500000000
  4.2196897500000006  1.4065632500000000  4.2196897500000006
