Sm Ag Ru
 1.0000000000000000
     0.0000000000000000    3.5596779999999999    3.5596779999999999
     3.5596779999999999    0.0000000000000000    3.5596779999999999
     3.5596779999999999    3.5596779999999999    0.0000000000000000
 Sm  Ag  Ru 
   2   1   1
Cartesian
  0.0000000000000000  0.0000000000000000  0.0000000000000000
  3.5596779999999999  3.5596779999999999  3.5596779999999999
  1.7798389999999999  1.7798389999999999  1.7798389999999999
  5.3395169999999998  5.3395169999999998  5.3395169999999998
