Cs Sc O 
 1.0000000000000000
    -4.5185350000000000    4.5185350000000000    0.0000000000000000
     4.5185350000000000    0.0000000000000000    4.5185350000000000
     4.5185350000000000    4.5185350000000000    0.0000000000000000
 Cs  Sc  O  
   2   2   4
Cartesian
  0.0000000000000000  4.5185350000000000  0.0000000000000000
  2.2592675000000000  6.7778025000000000  2.2592675000000000
  0.0000000000000000  0.0000000000000000  0.0000000000000000
  2.2592675000000000  2.2592675000000000  2.2592675000000000
  1.1296337500000000  1.1296337500000000  1.1296337500000000
  1.1296337500000000  3.3889012500000000  3.3889012500000000
  3.3889012500000000  1.1296337500000000  3.3889012500000000
  3.3889012500000000  3.3889012500000000  1.1296337500000000
