Ac Pb Au
 1.0000000000000000
     0.0000000000000000    3.7384520000000001    3.7384520000000001
     3.7384520000000001    0.0000000000000000    3.7384520000000001
     3.7384520000000001    3.7384520000000001    0.0000000000000000
 Ac  Pb  Au 
   1   1   2
Cartesian
  3.7384520000000001  3.7384520000000001  3.7384520000000001
  0.0000000000000000  0.0000000000000000  0.0000000000000000
  5.6076779999999999  5.6076779999999999  5.6076779999999999
  1.8692260000000001  1.8692260000000001  1.8692260000000001
