Hf Si Se
 1.0000000000000000
     3.5592320000000002    0.0000000000000000    0.0000000000000000
     0.0000000000000000    3.5592320000000002    0.0000000000000000
     0.0000000000000000    0.0000000000000000    8.7082949999999997
 Hf  Si  Se 
   2   2   2
Cartesian
  2.6694240000000002  2.6694240000000002  6.5873026697999997
  0.8898080000000000  0.8898080000000000  2.1209923302000000
  2.6694240000000002  0.8898080000000000  0.0000000000000000
  0.8898080000000000  2.6694240000000002  0.0000000000000000
  0.8898080000000000  0.8898080000000000  5.5078137133049996
  2.6694240000000002  2.6694240000000002  3.2004812866949996
