Sb Rh
 1.0000000000000000
     3.9214530000000001    0.0000000000000000    0.0000000000000000
     0.0000000000000000    6.0528139999999997    0.0000000000000000
     0.0000000000000000    0.0000000000000000    6.4226310000000000
 Sb  Rh 
   4   4
Cartesian
  2.9410897500000002  4.8625886550399997  2.6226299878020001
  0.9803632500000000  1.1902253449600000  3.8000010121979999
  2.9410897500000002  1.8361816550400001  0.5886855121980000
  0.9803632500000000  4.2166323449599998  5.8339454878019996
  2.9410897500000002  6.0159584155539996  5.1743990877810004
  0.9803632500000000  0.0368555844460000  1.2482319122190000
  2.9410897500000002  2.9895514155539997  4.4595474122190000
  0.9803632500000000  3.0632625844460000  1.9630835877810000
