Ce P  Pd
 1.0000000000000000
     4.2389469999999996   -0.0000000000000000    0.0000000000000000
    -2.1194739999999999    3.6710360000000000    0.0000000000000000
     0.0000000000000000    0.0000000000000000    7.8967150000000004
 Ce  P   Pd 
   2   2   2
Cartesian
  0.0000000000000000  0.0000000000000000  3.9483575000000002
  0.0000000000000000  0.0000000000000000  0.0000000000000000
 -0.0000024528070002  2.4473585570120000  5.9229073956050007
  2.1194754528069994  1.2236774429880000  1.9738076043950001
 -0.0000024528070002  2.4473585570120000  1.9737523273900002
  2.1194754528069994  1.2236774429880000  5.9229626726100006
