Hf Ga Cu
 1.0000000000000000
     4.1802390000000003    0.0000000000000000    0.0000000000000000
    -2.0901200000000002    3.6178789999999998    0.0000000000000000
     0.0000000000000000    0.0000000000000000    6.3054459999999999
 Hf  Ga  Cu 
   2   2   2
Cartesian
  0.0000000000000000  0.0000000000000000  3.1527229999999999
  0.0000000000000000  0.0000000000000000  0.0000000000000000
 -0.0000003336430001  2.4141600063939999  4.7290844999999999
  2.0901193336430000  1.2037189936060000  1.5763615000000000
 -0.0000086931750001  2.4073149793260002  1.5763615000000000
  2.0901276931750004  1.2105640206740000  4.7290844999999999
