Ca Zn
 1.0000000000000000
     4.0546759999999997    0.0000000000000000    0.0000000000000000
     0.0000000000000000   13.4051659999999995    0.0000000000000000
     0.0000000000000000    0.0000000000000000   10.1088199999999997
 Ca  Zn 
  12   4
Cartesian
  2.0273379999999999 12.4888290677379992  7.5816149999999993
  2.0273379999999999  0.9163369322620000  2.5272049999999999
  0.0000000000000000  1.9178368841219999  9.4825078392600002
  0.0000000000000000 11.4873291158779995  0.6263121607400000
  0.0000000000000000 11.4873291158779995  4.4280978392600003
  0.0000000000000000  1.9178368841219999  5.6807221607400002
  0.0000000000000000  5.7862460677379994  7.5816149999999993
  0.0000000000000000  7.6189199322620000  2.5272049999999999
  2.0273379999999999  8.6204198841220006  9.4825078392600002
  2.0273379999999999  4.7847461158779998  0.6263121607400000
  2.0273379999999999  4.7847461158779998  4.4280978392600003
  2.0273379999999999  8.6204198841220006  5.6807221607400002
  0.0000000000000000 10.1338095048580001  7.5816149999999993
  0.0000000000000000  3.2713564951419998  2.5272049999999999
  2.0273379999999999  3.4312265048580000  7.5816149999999993
  2.0273379999999999  9.9739394951419982  2.5272049999999999
