Ti Cu
 1.0000000000000000
     3.1460889999999999    0.0000000000000000    0.0000000000000000
     0.0000000000000000    3.1460889999999999    0.0000000000000000
     0.0000000000000000    0.0000000000000000   19.9396410000000017
 Ti  Cu 
   6   8
Cartesian
  1.5730445000000000  1.5730445000000000  4.1388712823700002
  1.5730445000000000  1.5730445000000000 15.8007697176300006
  0.0000000000000000  0.0000000000000000  0.0000000000000000
  0.0000000000000000  0.0000000000000000 14.1086917823700020
  0.0000000000000000  0.0000000000000000  5.8309492176300006
  1.5730445000000000  1.5730445000000000  9.9698205000000009
  1.5730445000000000  1.5730445000000000  1.4025742875810001
  1.5730445000000000  1.5730445000000000 18.5370667124190014
  0.0000000000000000  0.0000000000000000 17.2503616786890035
  0.0000000000000000  0.0000000000000000  2.6892793213110000
  0.0000000000000000  0.0000000000000000 11.3723947875810012
  0.0000000000000000  0.0000000000000000  8.5672462124190005
  1.5730445000000000  1.5730445000000000  7.2805411786890000
  1.5730445000000000  1.5730445000000000 12.6590998213110009
