Sc Cd S 
 1.0000000000000000
     6.6075450000000000    0.0000000000000000    3.8148689999999998
     2.2025160000000001    6.2296540000000000    3.8148689999999998
     0.0000000000000000    0.0000000000000000    7.6297360000000003
 Sc  Cd  S  
   4   2   8
Cartesian
  3.3037725000000000  0.0000000000000000  5.7223024999999996
  1.1012580000000001  3.1148270000000000  5.7223024999999996
  4.4050305000000005  3.1148270000000000  3.8148689999999998
  4.4050305000000005  3.1148270000000000  7.6297370000000004
  7.7088033749999996  5.4509472500000005 13.3520397499999994
  1.1012576250000001  0.7787067500000000  1.9074342500000001
  6.5170223732249992  4.6082308051499998 11.2878144046499997
  2.2930386267749996  1.6214231948500000  7.4729378160139994
  3.3037710166589997  4.4802051857959997  5.7222991645810000
  5.3252344197299992  1.6214231948500000  5.7222991645810000
  5.5062899833409995  1.7494488142040001  9.5371748354190000
  3.4848265802700000  4.6082308051499998  9.5371748354190000
  2.2930386267749996  1.6214231948500000  3.9716595953499998
  6.5170223732249992  4.6082308051499998  7.7865361839859997
