Br
 1.0000000000000000
     4.2586480000000000    0.0000000000000000    0.0000000000000000
    -2.1293240000000000    4.2260949999999999    0.0000000000000000
     0.0000000000000000    0.0000000000000000    8.7437959999999997
 Br 
   4
Cartesian
  2.7360663565039998  0.0000000000000000  1.0295907227959999
  1.5225816434960000  0.0000000000000000  7.7142052772039991
  3.6519056434960002  0.0000000000000000  5.4014887227960005
  0.6067423565040000  0.0000000000000000  3.3423072772040001
