Ag N  O 
 1.0000000000000000
     4.6667730000000001   -0.0202000000000000    4.0844529999999999
     1.8411480000000000    4.2882280000000002    4.0843809999999996
    -0.0303350000000000   -0.0201780000000000    6.2015799999999999
 Ag  N   O  
   2   2   6
Cartesian
  6.4553922408040005  4.2331941903660004 14.3209894633890009
  3.2163815689019999  2.1092866268260000  7.1358136008889996
  1.4445176356460001  0.9475397806380002  3.2051893703499998
  4.6835666419619999  3.0714139663000002 10.3900239967249988
  4.9098107405710003  4.2291667795099999  9.9349350790719999
  2.5964000855039999  0.6934641669180001  2.7501498813910001
  3.5796975291219999  2.8175040612060003 10.9516609470810007
  5.5496393872490000  2.1595917470960000 10.2580982304670005
  0.7720817652890001  0.0359441131660000  3.7667680455909998
  0.9539971026820000  2.1051973417179997  3.0730484850299997
