Na Be As
 1.0000000000000000
     3.8181490000000000    0.0000000000000000    0.0000000000000000
    -1.9090750000000001    3.3066149999999999    0.0000000000000000
     0.0000000000000000    0.0000000000000000    8.8443880000000004
 Na  Be  As 
   2   2   2
Cartesian
  0.0000000000000000  0.0000000000000000  0.0000000000000000
  0.0000000000000000  0.0000000000000000  4.4221940000000002
  1.9090762424079999  1.1022038977949999  2.2110970000000001
 -0.0000022424080002  2.2044111022049999  6.6332909999999998
 -0.0000022424080002  2.2044111022049999  2.2110970000000001
  1.9090762424079999  1.1022038977949999  6.6332909999999998
