Sb Rh
 1.0000000000000000
     6.0820590000000001    0.0000000000000000   -3.0148440000000001
     0.0000000000000000    6.6532429999999998    0.0000000000000000
     0.0000990000000000    0.0000000000000000    6.7094430000000003
 Sb  Rh 
   8   4
Cartesian
  5.0156774061359997  4.2482420268460004  1.9106669443530002
  4.1075100938640006  0.9216205268460000  0.2765100556469999
  1.0664805938640001  2.4050009731539999  1.7839320556470002
  1.9746479061360001  5.7316224731539993  3.4180889443530003
  3.8126470920960003  2.4165709627309999  3.8083958246939997
  5.3105404079039999  5.7431924627309998 -1.6212188246939998
  2.2695109079039999  4.2366720372689999 -0.1137968246939998
  0.7716175920960000  0.9100505372689999  5.3158178246940002
  4.3345183679249999  0.0034729928460000  2.7390930400979996
  4.7886691320749994  3.3300944928459999 -0.5519160400979999
  1.7476396320750001  6.6497700071539994  0.9555059599019999
  1.2934888679250001  3.3231485071539999  4.2465150400980001
