Dy Ni Sb
 1.0000000000000000
     3.8648220000000002    0.0000000000000000    2.2313550000000002
     1.2882750000000001    3.6437889999999999    2.2313550000000002
    -0.0000000000000000   -0.0000000000000000    4.4627129999999999
 Dy  Ni  Sb 
   1   1   1
Cartesian
  2.5765485000000004  1.8218945000000000  4.4627115000000002
  1.2882742500000002  0.9109472500000000  2.2313557500000001
  0.0000000000000000  0.0000000000000000  0.0000000000000000
