Be Co Ir
 1.0000000000000000
     0.0000170000000000    2.6971010000000000    2.6971010000000000
     2.6971010000000000    0.0000170000000000    2.6971010000000000
     2.6971010000000000    2.6971010000000000    0.0000170000000000
 Be  Co  Ir 
   2   1   1
Cartesian
  0.0000000000000000  0.0000000000000000  0.0000000000000000
  2.6971148942190002  2.6971148942190002  2.6971148942190002
  1.3485493557810000  1.3485493557810000  1.3485493557810000
  4.0456642499999997  4.0456642499999997  4.0456642499999997
