Ac Cu O 
 1.0000000000000000
     3.9133309999999999    0.0000000000000000    0.0000000000000000
     0.0000000000000000    3.9133309999999999    0.0000000000000000
     0.0000000000000000    0.0000000000000000    3.9133309999999999
 Ac  Cu  O  
   1   1   3
Cartesian
  0.0000000000000000  0.0000000000000000  0.0000000000000000
  1.9566576733379999  1.9566576733379999  1.9566576733379999
  1.9566576733379999  1.9566576733379999  0.0000000000000000
  1.9566576733379999  0.0000000000000000  1.9566576733379999
  0.0000000000000000  1.9566576733379999  1.9566576733379999
