Nd Ho In
 1.0000000000000000
     0.0000000000000000    3.7958840000000000    3.7958840000000000
     3.7958840000000000    0.0000000000000000    3.7958840000000000
     3.7958840000000000    3.7958840000000000    0.0000000000000000
 Nd  Ho  In 
   1   1   2
Cartesian
  5.6938259999999996  5.6938259999999996  5.6938259999999996
  1.8979420000000000  1.8979420000000000  1.8979420000000000
  0.0000000000000000  0.0000000000000000  0.0000000000000000
  3.7958840000000000  3.7958840000000000  3.7958840000000000
