Co Te
 1.0000000000000000
     3.9361210000000000    0.0000000000000000    0.0000000000000000
     0.0000000000000000    5.3220960000000002   -0.0000930000000000
     0.0000000000000000   -0.0000990000000000    6.3908920000000000
 Co  Te 
   2   4
Cartesian
  0.0000000000000000  0.0000000000000000  0.0000000000000000
  1.9680605000000000  2.6609985000000003  3.1953995000000002
  0.0000000000000000  1.1696008493610002  2.3361126139619999
  0.0000000000000000  4.1523961506389995  4.0546863860380000
  1.9680605000000000  3.8306344690350000  0.8594249544450000
  1.9680605000000000  1.4913625309650000  5.5313740455550002
