Ti Al
 1.0000000000000000
     3.9343270000000001    0.0000000000000000    0.0000000000000000
     0.0000000000000000   12.1538649999999997    0.0000000000000000
     0.0000000000000000    0.0000000000000000    4.0041810000000000
 Ti  Al 
   4   8
Cartesian
  1.9671635000000001 10.2578742138649996  0.0000000000000000
  1.9671635000000001  1.8959907861349998  0.0000000000000000
  0.0000000000000000  4.1809417138649998  0.0000000000000000
  0.0000000000000000  7.9729232861349999  0.0000000000000000
  0.0000000000000000  0.0000000000000000  0.0000000000000000
  1.9671635000000001  0.0000000000000000  2.0020905000000000
  0.0000000000000000  2.1010751041450000  2.0020905000000000
  0.0000000000000000 10.0527898958549997  2.0020905000000000
  1.9671635000000001  6.0769324999999998  0.0000000000000000
  0.0000000000000000  6.0769324999999998  2.0020905000000000
  1.9671635000000001  8.1780076041449998  2.0020905000000000
  1.9671635000000001  3.9758573958549999  2.0020905000000000
