Ga Cl
 1.0000000000000000
     6.0106019999999996   -0.0033220000000000    3.4206029999999998
     2.0658919999999998    5.8489789999999999    3.3542200000000002
     0.0006210000000000    0.0248540000000000    6.9848800000000004
 Ga  Cl 
   2   6
Cartesian
  2.2372893877309998  0.5152890539489999  3.0550971891780003
  5.8398096463549996  5.3552278049959998 10.7045989032330002
  6.4893320938149994  5.8461120616059992  5.8744403276549999
  1.5877817682109998  0.0244805424620000  7.8852087098500006
  4.5299007025459996  0.9900829907980000  6.0266674972820002
  3.5472715843179996  4.8803517271349994  7.7329839072600004
  6.0546196938249990  3.2940706993069999 10.3253433369760010
  2.0224431019950000  2.5764291263909995  3.4344652873599997
