Pr Al O 
 1.0000000000000000
     4.6118920000000001   -0.0133850000000000    2.6381730000000001
     1.5239100000000001    4.3528640000000003    2.6381730000000001
    -0.0189250000000000   -0.0133850000000000    5.3131100000000000
 Pr  Al  O  
   2   2   6
Cartesian
  4.5876577500000000  3.2445705000000000  7.9420920000000006
  1.5292192499999999  1.0815234999999999  2.6473640000000001
  3.0584384999999998  2.1630469999999997  5.2947280000000001
  0.0000000000000000  0.0000000000000000  0.0000000000000000
  2.4881228970100002  3.2579555000000000  3.8526854293900001
  3.7695484774499999  0.8891344300300000  4.0802155706100001
  1.3884248755399999  1.2605275699700000  5.3039190000000005
  3.6287541029900003  1.0681385000000001  6.7367705706100001
  4.7284521244600004  3.0655664300300005  5.2855369999999997
  2.3473285225500002  3.4369595699700000  6.5092404293900001
