Sr Ag Ge
 1.0000000000000000
     4.1721159999999999    0.0000000000000000   -1.5831640000000000
    -0.6007510000000000    4.1286379999999996   -1.5831640000000000
    -0.0139340000000000   -0.0161080000000000    6.2522599999999997
 Sr  Ag  Ge 
   1   2   2
Cartesian
  0.0000000000000000  0.0000000000000000  0.0000000000000000
  0.5854987500000000  3.0884244999999999  1.5429659999999998
  2.9719322500000001  1.0241054999999999  1.5429659999999998
  2.1862925533349999  2.5274399892099999 -0.5274347034400000
  1.3711384466650001  1.5850900107899997  3.6133667034399997
