Ta B 
 1.0000000000000000
     3.1570830000000001    0.0000000000000000    0.0000000000000000
     0.0000000000000000    3.0696150000000002   -1.1600020000000000
     0.0000000000000000    0.0018680000000000    4.6463770000000002
 Ta  B  
   2   2
Cartesian
  2.3678122500000001  0.4473600430430000  1.1838068674950002
  0.7892707500000000  2.6241229569569997  2.3025681325050003
  2.3678122500000001  1.3526985643060001  3.5795378461530003
  0.7892707500000000  1.7187844356940001 -0.0931628461529999
