Ca Sm Zn
 1.0000000000000000
    -0.0005120000000000    3.6343540000000001    3.6343540000000001
     3.6343540000000001   -0.0005120000000000    3.6343540000000001
     3.6343540000000001    3.6343540000000001   -0.0005120000000000
 Ca  Sm  Zn 
   1   1   2
Cartesian
  1.8170489999999999  1.8170489999999999  1.8170490000000001
  5.4511542681960004  5.4511542681960004  5.4511542681960004
  7.2679052721600002  7.2679052721600002  7.2679052721600002
  3.6343887278400002  3.6343887278400002  3.6343887278400002
