Cr Sb Se
 1.0000000000000000
     3.8254139999999999    0.0000000000000000    0.0000000000000000
     0.0000000000000000    9.3279440000000005    0.0000000000000000
     0.0000000000000000    0.0000000000000000   13.5253429999999994
 Cr  Sb  Se 
   4   4  12
Cartesian
  2.8690604999999998  1.4523515528560000  6.1695581587639996
  0.9563535000000000  7.8755924471440002  7.3557848412359998
  2.8690604999999998  6.1163235528560005  0.5931133412360000
  0.9563535000000000  3.2116204471440004 12.9322296587639993
  0.9563535000000000  4.3748057359999999  4.6560993277499998
  2.8690604999999998  4.9531382640000006  8.8692436722500005
  0.9563535000000000  9.0387777360000001  2.1065721722499999
  2.8690604999999998  0.2891662640000000 11.4187708277499986
  2.8690604999999998  1.6188553532560002  0.2146607187530000
  0.9563535000000000  7.7090886467440010 13.3106822812470007
  2.8690604999999998  6.2828273532559997  6.5480107812469992
  0.9563535000000000  3.0451166467440003  6.9773322187529994
  0.9563535000000000  1.9842309197360000 10.6786370081039994
  2.8690604999999998  7.3437130802640000  2.8467059918959996
  0.9563535000000000  6.6482029197360006  9.6093774918959998
  2.8690604999999998  2.6797410802640003  3.9159655081040001
  2.8690604999999998  4.6484876129600003 12.0845423115820001
  0.9563535000000000  4.6794563870400001  1.4408006884179998
  2.8690604999999998  9.3124596129599997  8.2034721884179991
  0.9563535000000000  0.0154843870400000  5.3218708115819995
