La Hf O 
 1.0000000000000000
     0.0000000000000000    5.3694100000000002    5.3694100000000002
     5.3694100000000002    0.0000000000000000    5.3694100000000002
     5.3694100000000002    5.3694100000000002    0.0000000000000000
 La  Hf  O  
   4   4  14
Cartesian
  4.0270575000000006  1.3423525000000001  4.0270574999999997
  4.0270574999999997  4.0270574999999997  1.3423525000000001
  1.3423525000000001  4.0270575000000006  4.0270575000000006
  1.3423525000000001  1.3423525000000001  1.3423525000000001
  4.0270574999999997  6.7117625000000007  4.0270575000000006
  4.0270575000000006  4.0270575000000006  6.7117625000000007
  6.7117625000000007  4.0270574999999997  4.0270574999999997
  6.7117625000000007  6.7117625000000007  6.7117625000000007
  0.0000000000000000  0.0000000000000000  0.0000000000000000
  2.6847050000000001  2.6847050000000001  2.6847050000000001
  5.3694100000000002  5.3694100000000002  3.1737616016200003
  8.0541150000000012  8.0541150000000012  5.8584666016200009
  5.3694100000000002  7.5650583983799997  5.3694100000000002
  3.1737616016200003  5.3694100000000002  5.3694100000000002
  7.5650583983799997  5.3694100000000002  5.3694100000000002
  5.3694100000000002  3.1737616016200003  5.3694100000000002
  5.3694100000000002  5.3694100000000002  7.5650583983799997
  5.8584666016200009  8.0541150000000012  8.0541150000000012
 10.2497633983800007  8.0541150000000012  8.0541150000000012
  8.0541150000000012  8.0541150000000012 10.2497633983800007
  8.0541150000000012 10.2497633983800007  8.0541150000000012
  8.0541150000000012  5.8584666016200009  8.0541150000000012
