Mn Co Sn
 1.0000000000000000
     5.9925910000000000    0.0000000000000000    0.0000000000000000
     0.0000000000000000    5.9925910000000000    0.0000000000000000
     0.0000000000000000    0.0000000000000000    5.9925910000000000
 Mn  Co  Sn 
   4   8   4
Cartesian
  0.0000000000000000  0.0000000000000000  0.0000000000000000
  0.0000000000000000  2.9962955000000000  2.9962955000000000
  2.9962955000000000  0.0000000000000000  2.9962955000000000
  2.9962955000000000  2.9962955000000000  0.0000000000000000
  1.4981477500000000  4.4944432499999998  4.4944432499999998
  4.4944432499999998  1.4981477500000000  1.4981477500000000
  1.4981477500000000  1.4981477500000000  1.4981477500000000
  4.4944432499999998  4.4944432499999998  4.4944432499999998
  4.4944432499999998  4.4944432499999998  1.4981477500000000
  1.4981477500000000  1.4981477500000000  4.4944432499999998
  4.4944432499999998  1.4981477500000000  4.4944432499999998
  1.4981477500000000  4.4944432499999998  1.4981477500000000
  0.0000000000000000  0.0000000000000000  2.9962955000000000
  0.0000000000000000  2.9962955000000000  0.0000000000000000
  2.9962955000000000  0.0000000000000000  0.0000000000000000
  2.9962955000000000  2.9962955000000000  2.9962955000000000
