Be Mo
 1.0000000000000000
     4.4509900000000000    0.0000000000000000    0.0000000000000000
    -2.2254939999999999    3.8546700000000000    0.0000000000000000
     0.0000000000000000    0.0000000000000000    7.3146779999999998
 Be  Mo 
   8   4
Cartesian
  0.0000000000000000  0.0000000000000000  0.0000000000000000
  0.0000000000000000  0.0000000000000000  3.6573389999999999
  2.2254956609860002  2.5478829046199998  1.8286694999999999
 -1.0937832266120000  3.2012764523100001  5.4860084999999996
  1.0937848875979999  3.2012764523100001  5.4860084999999996
  1.1317111124019998  0.6533935476900000  1.8286694999999999
  3.3192792266120001  0.6533935476900000  1.8286694999999999
  0.0000003390140000  1.3067870953800000  5.4860084999999996
 -0.0000015588279999  2.5697812848899999  0.4545340909200000
  2.2254975588280002  1.2848887151099999  4.1118730909199996
  2.2254975588280002  1.2848887151099999  6.8601439090799996
 -0.0000015588279999  2.5697812848899999  3.2028049090800002
