Ta Nb Ru
 1.0000000000000000
     0.0000000000000000    3.2194360000000000    3.2194360000000000
     3.2194360000000000    0.0000000000000000    3.2194360000000000
     3.2194360000000000    3.2194360000000000    0.0000000000000000
 Ta  Nb  Ru 
   2   1   1
Cartesian
  0.0000000000000000  0.0000000000000000  0.0000000000000000
  3.2194424388720000  3.2194424388720000  3.2194424388720000
  1.6097180000000000  1.6097180000000000  1.6097180000000000
  4.8291539999999999  4.8291539999999999  4.8291539999999999
