Na Re O 
 1.0000000000000000
     5.4878539999999996   -0.2568750000000000   -1.0018769999999999
    -2.7529349999999999    4.7543540000000002   -1.0018769999999999
     0.0089650000000000    0.0147420000000000    5.5555329999999996
 Na  Re  O  
   5   1   6
Cartesian
  2.7381004896359999  1.4152518478039999 -1.0018769999999999
  4.0651307346680001  0.6183807280520001  1.7758894999999999
 -0.0031814896360002  3.0822271521960003 -1.0018769999999999
 -1.3212467346680001  3.8938402719480001  1.7758894999999999
  1.3719419999999998  2.2561105000000001  1.7758894999999999
  0.0000000000000000  0.0000000000000000  0.0000000000000000
  2.1767244461599993  3.5795473760130001 -0.4479454809129998
  0.5671595538399999  0.9326736239870002  3.9997244809130001
  3.3193871947939999  2.8603735442109999  2.7769448544610000
  1.7314150370769998  0.2490090207580000  0.7748341455389999
 -0.5755031947939999  1.6518474557890002  0.7748341455389999
  1.0124689629229997  4.2632119792420005  2.7769448544610000
