Nd Mg Pt
 1.0000000000000000
     7.5339809999999998   -0.0000000000000000    0.0000000000000000
    -3.7669910000000000    6.5246190000000004    0.0000000000000000
     0.0000000000000000    0.0000000000000000    4.1295669999999998
 Nd  Mg  Pt 
   3   3   3
Cartesian
  1.5547573166800002  2.6929190491080002  0.0000000000000000
  4.4244659539080002  0.0000000000000000  0.0000000000000000
 -2.2122332705879999  3.8316999508920002  0.0000000000000000
 -0.8984725573920000  1.5561999269280000  2.0647834999999999
  2.8685176811199997  4.9684190730720008  2.0647834999999999
  1.7969448762719999  0.0000000000000000  2.0647834999999999
  3.7669941003239997  2.1748708251269999  2.0647834999999999
  0.0000000000000000  0.0000000000000000  0.0000000000000000
 -0.0000041003240001  4.3497481748730005  2.0647834999999999
