Ag Cl
 1.0000000000000000
     3.3958050000000002   -0.0000000000000000    1.9605690000000000
     1.1319340000000000    3.2015950000000002    1.9605690000000000
     0.0000000000000000    0.0000000000000000    3.9211369999999999
 Ag  Cl 
   1   1
Cartesian
  0.0000000000000000  0.0000000000000000  0.0000000000000000
  2.2638695000000002  1.6007975000000001  3.9211374999999999
