Al V  Fe
 1.0000000000000000
     5.7072430000000001    0.0000000000000000    0.0000000000000000
     0.0000000000000000    5.7072430000000001    0.0000000000000000
     0.0000000000000000    0.0000000000000000    5.7072430000000001
 Al  V   Fe 
   4   4   8
Cartesian
  0.0000000000000000  0.0000000000000000  0.0000000000000000
  0.0000000000000000  2.8536215000000000  2.8536215000000000
  2.8536215000000000  0.0000000000000000  2.8536215000000000
  2.8536215000000000  2.8536215000000000  0.0000000000000000
  0.0000000000000000  0.0000000000000000  2.8536215000000000
  0.0000000000000000  2.8536215000000000  0.0000000000000000
  2.8536215000000000  0.0000000000000000  0.0000000000000000
  2.8536215000000000  2.8536215000000000  2.8536215000000000
  1.4268107500000000  4.2804322500000005  1.4268107500000000
  1.4268107500000000  4.2804322500000005  4.2804322500000005
  1.4268107500000000  1.4268107500000000  4.2804322500000005
  1.4268107500000000  1.4268107500000000  1.4268107500000000
  4.2804322500000005  4.2804322500000005  4.2804322500000005
  4.2804322500000005  4.2804322500000005  1.4268107500000000
  4.2804322500000005  1.4268107500000000  1.4268107500000000
  4.2804322500000005  1.4268107500000000  4.2804322500000005
