Th Ga
 1.0000000000000000
     5.0790199999999999   -0.0000000000000000    2.8564219999999998
     2.5395089999999998    5.3382880000000004    1.4282100000000000
    -0.0772790000000000   -0.0000000000000000    6.0811380000000002
 Th  Ga 
   4   2
Cartesian
  2.0572248974229996  2.6691440000000002  2.2857574766699997
  5.4840251025770002  2.6691440000000002  8.0800125233299998
  3.7706272238129999  4.3544255067360007  5.1828861125139998
  3.7706227761869999  0.9838624932640000  5.1828838874859997
  1.2697550000000000  0.0000000000000000  0.7141054999999999
  3.8092649999999999  0.0000000000000000  2.1423164999999997
