Hf Mg Pd
 1.0000000000000000
     0.0000080000000000    3.2338040000000001    3.2338030000000000
     3.2338060000000000    0.0000070000000000    3.2338049999999998
     3.2338070000000001    3.2338079999999998    0.0000050000000000
 Hf  Mg  Pd 
   1   1   2
Cartesian
  1.6168987823790000  1.6168982823809999  1.6168967823869997
  4.8507157500000000  4.8507142500000002  4.8507097500000000
  0.0000000000000000  0.0000000000000000  0.0000000000000000
  3.2338104999999997  3.2338095000000000  3.2338065000000000
