Nd Hg
 1.0000000000000000
     3.8167080000000002    0.0000000000000000    0.0000000000000000
     0.0000000000000000    3.8167080000000002    0.0000000000000000
     0.0000000000000000    0.0000000000000000    3.8167080000000002
 Nd  Hg 
   1   1
Cartesian
  1.9083540000000001  1.9083540000000001  1.9083540000000001
  0.0000000000000000  0.0000000000000000  0.0000000000000000
