Nd Ge Rh
 1.0000000000000000
     3.9002539999999999    0.0000000000000000   -1.4410190000000000
    -0.5324100000000000    3.8637459999999999   -1.4410190000000000
     0.0001400000000000    0.0001600000000000    5.9990920000000001
 Nd  Ge  Rh 
   1   2   2
Cartesian
  0.0000000000000000  0.0000000000000000  0.0000000000000000
  2.1043918637719994  2.4142552711479999 -0.3029835647440001
  1.2635921362279998  1.4496507288520000  3.4200375647440002
  0.5758259999999999  2.8978895000000002  1.5585270000000000
  2.7921579999999997  0.9660164999999999  1.5585270000000000
