Na Nd S 
 1.0000000000000000
    -2.0609929999999999   -3.5697470000000000    0.0000000000000000
    -4.1219890000000001    0.0000000000000000    0.0000000000000000
    -2.0609929999999999   -1.1899160000000000   -6.6156420000000002
 Na  Nd  S  
   1   1   2
Cartesian
 -4.1219874999999995 -2.3798314999999999 -3.3078210000000001
  0.0000000000000000  0.0000000000000000  0.0000000000000000
 -6.1829750531309999 -3.5697436848819994 -5.0536029204539998
 -2.0609999468689999 -1.1899193151180001 -1.5620390795460000
