Cu Ag O 
 1.0000000000000000
     0.0000000000000000    0.0000000000000000    2.8164430000000000
     3.3538929999999998    0.0000000000000000    0.0000000000000000
     0.0000000000000000    5.4041769999999998    0.0000000000000000
 Cu  Ag  O  
   1   1   2
Cartesian
  1.6769464999999999  2.7020884999999999  1.4082215000000000
  0.0000000000000000  0.0000000000000000  0.0000000000000000
  1.6769464999999999  1.4637213404499998  0.0000000000000000
  1.6769464999999999  3.9404556595499995  0.0000000000000000
