Ca Al Ge
 1.0000000000000000
     4.0177889999999996    0.0000000000000000   -0.8583700000000000
    -0.2292650000000000    4.4383480000000004   -1.0731280000000001
    -0.0166250000000000    0.0009460000000000    9.7544339999999998
 Ca  Al  Ge 
   3   2   2
Cartesian
  2.0088944999999998  0.0000000000000000 -0.4291850000000000
  0.6983792257300000  0.8193689370160001  3.2689146171240000
  3.0735197742699998  3.6199250629840001  4.5540213828759999
  3.6303141375359997  1.9200740558220000  7.1602291967880003
  0.1415848624640000  2.5192199441780003  0.6627068032119999
  1.3309095709119998  1.5865680548380001  6.2296191567020003
  2.4409894290879999  2.8527259451620002  1.5933168432980001
