Al Re
 1.0000000000000000
     7.6316990000000002   -0.0000010000000000    0.0000000000000000
    -0.0000010000000000    6.6272390000000003    0.0000000000000000
     0.0000000000000000    0.0000000000000000    9.0714830000000006
 Al  Re 
  24   4
Cartesian
  2.4757842091919997 -0.0000003244080000  0.0000000000000000
  5.1559147908079996 -0.0000006755920000  4.5357415000000003
  5.1559147908079996 -0.0000006755920000  0.0000000000000000
  2.4757842091919997 -0.0000003244080000  4.5357415000000003
 -0.0000001312100000  0.8695600291900000  5.4470898966290004
 -0.0000008687900000  5.7576789708099998  0.9113483966290000
 -0.0000001312100000  0.8695600291900000  8.1601346033710005
 -0.0000008687900000  5.7576789708099998  3.6243931033710002
  1.3738200867560000  1.3832967892160000  2.2678707500000002
  6.2578779132440001  5.2439412107839996  6.8036122500000005
  6.2578784957859996  1.3832961492460001  2.2678707500000002
  1.3738195042140000  5.2439418507540001  6.8036122500000005
  6.2916332091920006  3.3136186755920001  0.0000000000000000
  1.3400647908079999  3.3136193244080001  4.5357415000000003
  1.3400647908079999  3.3136193244080001  0.0000000000000000
  6.2916332091920006  3.3136186755920001  4.5357415000000003
  3.8158488687900003  4.1831790291900006  5.4470898966290004
  3.8158491312100002  2.4440589708100000  0.9113483966290000
  3.8158488687900003  4.1831790291900006  8.1601346033710005
  3.8158491312100002  2.4440589708100000  3.6243931033710002
  5.1896690867560009  4.6969157892160007  2.2678707500000002
  2.4420289132440001  1.9303222107840001  6.8036122500000005
  2.4420284957860003  4.6969161492460003  2.2678707500000002
  5.1896695042140006  1.9303218507540001  6.8036122500000005
 -0.0000005443880000  3.6077893847319999  2.2678707500000002
 -0.0000004556130000  3.0194562425070002  6.8036122500000005
  3.8158494556120002  0.2941693847320000  2.2678707500000002
  3.8158485443870003  6.3330752425070003  6.8036122500000005
