Na Nd Hg
 1.0000000000000000
     0.0000000000000000    3.7058170000000001    3.7058170000000001
     3.7058170000000001    0.0000000000000000    3.7058170000000001
     3.7058170000000001    3.7058170000000001    0.0000000000000000
 Na  Nd  Hg 
   1   1   2
Cartesian
  1.8529010883660000  1.8529010883660000  1.8529010883660000
  5.5587255000000004  5.5587255000000004  5.5587255000000004
  0.0000000000000000  0.0000000000000000  0.0000000000000000
  3.7058170000000001  3.7058170000000001  3.7058170000000001
