Na P  F 
 1.0000000000000000
     4.7207770000000000   -0.0000000000000000    2.7255419999999999
     1.5735930000000000    4.4507909999999997    2.7255419999999999
    -0.0000000000000000    0.0000000000000000    5.4510829999999997
 Na  P   F  
   1   1   6
Cartesian
  3.1471849999999999  2.2253954999999999  5.4510834999999993
  0.0000000000000000  0.0000000000000000  0.0000000000000000
  2.2327140394880001  3.5186529392880002  7.0349937851439996
  2.2327140394880001  3.5186529392880002  3.8671732148559999
  4.0616559605120006  0.9321380607120000  3.8671732148559999
  4.9761275021600007  3.5186529392880002  5.4510837905680001
  1.3182424978400000  0.9321380607120000  5.4510832094320003
  4.0616559605120006  0.9321380607120000  7.0349937851439996
