Ti Ge C 
 1.0000000000000000
     3.0872940000000000    0.0000000000000000    0.0000000000000000
    -1.5436470000000000    2.6736740000000001    0.0000000000000000
     0.0000000000000000    0.0000000000000000   12.9156110000000002
 Ti  Ge  C  
   4   2   2
Cartesian
  1.5436485436469998  0.8912237754420000  7.6116991023510003
 -0.0000015436470001  1.7824502245580001  5.3039118976489998
 -0.0000015436470001  1.7824502245580001  1.1538936023510000
  1.5436485436469998  0.8912237754420000 11.7617173976490008
  1.5436485436469998  0.8912237754420000  3.2289027500000000
 -0.0000015436470001  1.7824502245580001  9.6867082500000006
  0.0000000000000000  0.0000000000000000  6.4578055000000001
  0.0000000000000000  0.0000000000000000  0.0000000000000000
