Hf Co
 1.0000000000000000
     6.8714649999999997    0.0000000000000000    0.0000000000000000
     0.0000000000000000    6.8714649999999997    0.0000000000000000
     0.0000000000000000    0.0000000000000000    6.8714649999999997
 Hf  Co 
   8  16
Cartesian
  6.0125318749999996  2.5767993749999998  6.0125318749999996
  4.2946656249999995  0.8589331250000000  0.8589331250000000
  6.0125318749999996  6.0125318749999996  2.5767993749999998
  4.2946656249999995  4.2946656249999995  4.2946656249999995
  2.5767993749999998  2.5767993749999998  2.5767993749999998
  0.8589331250000000  0.8589331250000000  4.2946656249999995
  2.5767993749999998  6.0125318749999996  6.0125318749999996
  0.8589331250000000  4.2946656249999995  0.8589331250000000
  1.7178662499999999  1.7178662499999999  0.0000000000000000
  0.0000000000000000  3.4357324999999999  3.4357324999999999
  1.7178662499999999  3.4357324999999999  5.1535987499999996
  0.0000000000000000  1.7178662499999999  1.7178662499999999
  1.7178662499999999  5.1535987499999996  3.4357324999999999
  0.0000000000000000  0.0000000000000000  0.0000000000000000
  1.7178662499999999  0.0000000000000000  1.7178662499999999
  0.0000000000000000  5.1535987499999996  5.1535987499999996
  5.1535987499999996  1.7178662499999999  3.4357324999999999
  3.4357324999999999  3.4357324999999999  0.0000000000000000
  5.1535987499999996  3.4357324999999999  1.7178662499999999
  3.4357324999999999  1.7178662499999999  5.1535987499999996
  5.1535987499999996  5.1535987499999996  0.0000000000000000
  3.4357324999999999  0.0000000000000000  3.4357324999999999
  5.1535987499999996  0.0000000000000000  5.1535987499999996
  3.4357324999999999  5.1535987499999996  1.7178662499999999
