Ti Re Ir
 1.0000000000000000
     0.0000000000000000    3.0977109999999999    3.0977109999999999
     3.0977109999999999    0.0000000000000000    3.0977109999999999
     3.0977109999999999    3.0977109999999999    0.0000000000000000
 Ti  Re  Ir 
   2   1   1
Cartesian
  0.0000000000000000  0.0000000000000000  0.0000000000000000
  3.0977109999999999  3.0977109999999999  3.0977109999999999
  4.6465603045779993  4.6465603045779993  4.6465603045779993
  1.5488493045779999  1.5488493045779999  1.5488493045779999
