Pr H 
 1.0000000000000000
    -1.8529480000000000    1.8529480000000000    3.0047679999999999
     1.8529480000000000   -1.8529480000000000    3.0047679999999999
     1.8529480000000000    1.8529480000000000   -3.0047679999999999
 Pr  H  
   1   3
Cartesian
  0.0000000000000000  0.0000000000000000  0.0000000000000000
  0.0000000000000001  1.8529442941040000  1.5023839999999997
  1.8529442941040000  0.0000000000000001  1.5023839999999997
  0.0000000000000000  0.0000000000000000  3.0047679999999999
