Th Fe Si
 1.0000000000000000
     3.7699989999999999    0.0000000000000000   -1.4347660000000000
    -0.5460350000000000    3.7302469999999999   -1.4347660000000000
    -0.0426820000000000   -0.0493850000000000    5.5582680000000000
 Th  Fe  Si 
   1   2   2
Cartesian
  0.0000000000000000  0.0000000000000000  0.0000000000000000
  2.6696494999999998  0.9078692500000000  1.3443680000000000
  0.5116324999999999  2.7729927499999998  1.3443680000000000
  2.0517783249999999  2.3739842146250001 -0.2791545645000002
  1.1295036750000000  1.3068777853750000  2.9678905645000002
