Er Pd
 1.0000000000000000
     3.4530630000000002    0.0000000000000000    0.0000000000000000
     0.0000000000000000    3.4530630000000002    0.0000000000000000
     0.0000000000000000    0.0000000000000000    3.4530630000000002
 Er  Pd 
   1   1
Cartesian
  0.0000000000000000  0.0000000000000000  0.0000000000000000
  1.7265315000000001  1.7265315000000001  1.7265315000000001
