Ta C  S 
 1.0000000000000000
     3.2867639999999998   -0.0000000000000000    0.0000000000000000
    -1.6433830000000000    2.8464220000000000    0.0000000000000000
     0.0000000000000000    0.0000000000000000    8.8236950000000007
 Ta  C   S  
   2   1   2
Cartesian
  1.6433833100489998  0.9488063845260000  7.6397757233750001
 -0.0000023100490001  1.8976156154740000  1.1839192766250000
  0.0000000000000000  0.0000000000000000  0.0000000000000000
 -0.0000023100490001  1.8976156154740000  6.0364573997050011
  1.6433833100489998  0.9488063845260000  2.7872464239900001
