Mn Ga N 
 1.0000000000000000
     3.9957989999999999   -0.0000320000000000    0.0000120000000000
    -0.0000250000000000    3.9939890000000000   -0.0000040000000000
     0.0001040000000000   -0.0000060000000000    3.9958990000000001
 Mn  Ga  N  
   3   1   1
Cartesian
  1.9978909958240001  1.9969745059790001  0.0000040000160000
  1.9979514998960000 -0.0000189999940000  1.9979515041010001
  3.9958145251810002  1.9969634941810002  1.9979594999240000
  3.9958779999999998  3.9939510000000000  3.9959069999999999
  1.9979669705929999  1.9969754997760001  1.9979535000840001
