Mg As
 1.0000000000000000
     5.4295840000000002    0.0000000000000000    0.0000000000000000
     0.0000000000000000    5.4295840000000002    0.0000000000000000
     0.0000000000000000    0.0000000000000000   15.9339739999999992
 Mg  As 
   4  16
Cartesian
  4.3603631708000004  4.3603631708000004  7.9669869999999996
  3.7840128292000004  1.6455711708000000 11.9504804999999994
  1.6455711708000000  3.7840128292000004  3.9834934999999998
  1.0692208292000001  1.0692208292000001  0.0000000000000000
  2.1726154600959999  2.5993264666560001 13.9419563724419984
  4.8874074600960009  0.1154655333440000 13.9424981275580002
  5.3141184666559997  0.5421765399040001  9.9584628724419986
  0.1154655333440000  4.8874074600960009  1.9914758724419999
  3.6713652499519998  0.3715301443680000  3.2271555561419998
  2.3432618556320000  0.9565732499520000  7.2106490561419996
  3.0863221443680002  4.4730107500480001 15.1776360561419992
  0.9565732499520000  2.3432618556320000  8.7233249438579996
  4.4730107500480001  3.0863221443680002  0.7563379438580000
  1.7582187500480000  5.0580538556320001 11.1941425561419994
  0.3715301443680000  3.6713652499519998 12.7068184438579994
  5.0580538556320001  1.7582187500480000  4.7398314438579998
  3.2569685399039998  2.8302575333440001  5.9749693724419997
  2.5993264666560001  2.1726154600959999  1.9920176275579997
  2.8302575333440001  3.2569685399039998  9.9590046275580004
  0.5421765399040001  5.3141184666559997  5.9755111275579997
