Na Zr O 
 1.0000000000000000
     4.8622280000000000    2.8037139999999998    0.0002440000000000
    -4.8622280000000000    2.8037139999999998    0.0002440000000000
     0.0000000000000000    1.9097029999999999   10.8665920000000007
 Na  Zr  O  
   8   4  12
Cartesian
 -4.0395098490320001  4.2359912499999997  8.1501880000000000
  4.0395098490320001  3.2811397499999999  2.7168920000000001
 -2.4311140000000000  1.4018569999999999  0.0001220000000000
  2.4311140000000000  2.3567084999999999  5.4334180000000005
 -0.7681347794400000  2.2831454294490001  5.4326183489120004
 -0.7681347794400001  4.2791340705509997  0.0011656510880000
  0.7681347794400004  5.2339855705509999  5.4344616510880002
  0.7681347794400000  3.2379969294489999 10.8659143489120016
 -0.7993989054799996  4.2359912499999997  8.1501880000000000
  0.7993989054799996  3.2811397499999999  2.7168920000000001
 -2.4340313367999999  3.2811397499999999  2.7168920000000001
  2.4340313367999999  4.2359912499999997  8.1501880000000000
 -0.8224944884800002  2.5446671475370000  1.5644543166560001
 -0.8224944884800001  4.0176123524629999  3.8693296833440005
  0.8224944884799997  4.9724638524629992  9.3026256833440009
  0.8224944884800001  3.4995186475370001  6.9977503166560009
 -2.2413995878960002  3.1986124609539996  7.0006254652560003
 -2.2413995878959998  5.2733700390459992  9.2997505347440015
  2.2413995878959998  4.3185185390459999  3.8664545347440002
  2.2413995878960002  2.2437609609539999  1.5673294652560001
 -0.9673791584239999  2.4647998378789997  9.3184897580000001
 -0.9673791584239998  6.0071826621209992  6.9818862420000007
  0.9673791584239996  5.0523311621209999  1.5485902420000000
  0.9673791584240000  1.5099483378790000  3.8851937580000002
