Sr C  O 
 1.0000000000000000
     5.1169570000000002    0.0000000000000000    0.0000000000000000
     0.0000000000000000    5.9860239999999996    0.0000000000000000
     0.0000000000000000    0.0000000000000000    8.4376639999999998
 Sr  C   O  
   4   4  12
Cartesian
  1.2792392500000000  4.5271162167440000  7.7302418125759997
  3.8377177500000004  1.4589077832559998  0.7074221874240000
  1.2792392500000000  1.5341042167439998  4.9262541874240000
  3.8377177500000004  4.4519197832559998  3.5114098125759998
  1.2792392500000000  5.4684484208640001  2.1764785534720001
  3.8377177500000004  0.5175755791359999  6.2611854465280006
  1.2792392500000000  2.4754364208639998  2.0423534465279998
  3.8377177500000004  3.5105875791359997  6.3953105534719992
  2.3978418688990000  2.4712940922559996  2.6913954367359998
  4.9563203688990001  3.5147299077440000  5.7462685632640005
  0.1606366311010000  5.4643060922559998  1.5274365632639999
  2.7191151311010002  0.5217179077440000  6.9102274367359993
  3.8377177500000004  3.5653417406639996  7.6843915463999997
  1.2792392500000000  2.4206822593360000  0.7532724535999999
  3.8377177500000004  0.5723297406640000  4.9721044536000001
  1.2792392500000000  5.4136942593359993  3.4655595464000002
  2.7191151311010002  3.5147299077440000  5.7462685632640005
  0.1606366311010000  2.4712940922559996  2.6913954367359998
  4.9563203688990001  0.5217179077440000  6.9102274367359993
  2.3978418688990000  5.4643060922559998  1.5274365632639999
