Mg Pb F 
 1.0000000000000000
     4.6062960000000004    0.0622390000000000    3.1669360000000002
     1.6986840000000001    4.2820919999999996    3.1669339999999999
     0.0903290000000000    0.0622430000000000    5.5892119999999998
 Mg  Pb  F  
   1   1   6
Cartesian
  0.0000000000000000  0.0000000000000000  0.0000000000000000
  3.1976545000000001  2.2032869999999996  5.9615410000000004
  2.0103195096740003  0.5069987048219999  5.7779095743660003
  1.7920180918880002  3.2781788918629999  4.8708191890360002
  2.2399444269350002  2.7086383487629999  7.7358840615559998
  4.6032909081120001  1.1283951081369998  7.0522628109639998
  4.3849894903260003  3.8995752951779994  6.1451724256339997
  4.1553645730650004  1.6979356512369999  4.1871979384440001
