Mg Ga
 1.0000000000000000
     6.7905629999999997   -0.0040430000000000   -1.7780659999999999
    -4.0466329999999999    5.4531210000000003   -1.7780670000000001
     0.0000400000000000    0.0000800000000000    7.0122510000000000
 Mg  Ga 
   4  10
Cartesian
  1.9231158834400000  3.8190511694880001  0.3264755561359998
  3.5506105585130001  1.6275598679590002  5.2341864790969996
 -0.8066073490760002  3.8216781360840000  5.2341842989689997
  0.8208541165200000  1.6301068304320003  3.1296354316130000
  3.4484626025820000  2.8344226065059996  2.5468600234780001
 -2.5255453250460000  4.4589014507660005  0.4248166547609997
  0.2238115839979994  4.4582235833620008  2.5468597259240000
  5.0860893319060008  0.6259968293980001  0.4248173571229998
  0.8072603003200000  1.6031115567520002  5.9656027119579997
  1.9367096996799997  3.8460464432480004 -2.5094847119580002
  5.2695153250459992  0.9902565492340001  3.0313013452390001
 -0.7044926025820000  2.6147353934940001  0.9092579765219999
 -2.3421193319060003  4.8231611706019999  3.0313006428770000
  2.5201584160019994  0.9909344166380001  0.9092582740760000
