Hf Sn Pd
 1.0000000000000000
     6.3636590000000002    0.0000000000000000    0.0000000000000000
     0.0000000000000000    6.3636590000000002    0.0000000000000000
     0.0000000000000000    0.0000000000000000    6.3636590000000002
 Hf  Sn  Pd 
   4   4   4
Cartesian
  0.0000000000000000  0.0000000000000000  0.0000000000000000
  0.0000000000000000  3.1818295000000001  3.1818295000000001
  3.1818295000000001  0.0000000000000000  3.1818295000000001
  3.1818295000000001  3.1818295000000001  0.0000000000000000
  0.0000000000000000  0.0000000000000000  3.1818295000000001
  0.0000000000000000  3.1818295000000001  0.0000000000000000
  3.1818295000000001  0.0000000000000000  0.0000000000000000
  3.1818295000000001  3.1818295000000001  3.1818295000000001
  1.5909147500000000  4.7727442500000006  4.7727442500000006
  1.5909147500000000  1.5909147500000000  1.5909147500000000
  4.7727442500000006  4.7727442500000006  1.5909147500000000
  4.7727442500000006  1.5909147500000000  4.7727442500000006
