Li Ag Sn
 1.0000000000000000
     4.0547630000000003    0.0000000000000000    2.3410180000000000
     1.3515880000000000    3.8228670000000000    2.3410180000000000
     0.0000000000000000    0.0000000000000000    4.6820360000000001
 Li  Ag  Sn 
   1   2   1
Cartesian
  0.0000000000000000  0.0000000000000000  0.0000000000000000
  4.0547632499999997  2.8671502499999999  7.0230540000000001
  1.3515877500000002  0.9557167500000000  2.3410180000000000
  2.7031755000000004  1.9114335000000000  4.6820360000000001
