Ga Ni Rh
 1.0000000000000000
     0.0095740000000000    2.9597760000000002    2.9601679999999999
     2.9692020000000001    0.0000300000000000    2.9695719999999999
     2.9691489999999998    2.9694490000000000   -0.0000730000000000
 Ga  Ni  Rh 
   1   1   2
Cartesian
  1.4869812499999999  1.4823137500000001  1.4824167499999998
  4.4609496883510005  4.4469442194790005  4.4472532194990002
  0.0153683383920000  2.9539755072540004  2.9543455849159996
  2.9681711595319999  2.9704368721040000  2.9706677651600004
