Rb Ca As
 1.0000000000000000
     5.1563270000000001    0.0000000000000000    0.0000000000000000
     0.0000000000000000    5.1563270000000001    0.0000000000000000
     0.0000000000000000    0.0000000000000000    7.9313469999999997
 Rb  Ca  As 
   2   2   2
Cartesian
  3.8672452499999999  3.8672452499999999  2.9581227652019999
  1.2890817500000000  1.2890817500000000  4.9732242347979998
  1.2890817500000000  3.8672452499999999  0.0000000000000000
  3.8672452499999999  1.2890817500000000  0.0000000000000000
  1.2890817500000000  1.2890817500000000  1.4645866743259999
  3.8672452499999999  3.8672452499999999  6.4667603256739996
