Na Tm S 
 1.0000000000000000
     6.6943089999999996   -1.9554920000000000   -0.0069460000000000
     6.6943089999999996    1.9554920000000000   -0.0069460000000000
     6.1265510000000001    0.0000000000000000    3.3321399999999999
 Na  Tm  S  
   1   1   2
Cartesian
  9.7575845000000001  0.0000000000000000  1.6591240000000000
  0.0000000000000000  0.0000000000000000  0.0000000000000000
  5.0388751813069996 -0.0000000000000000  0.8567815883440000
 14.4762938186929997  0.0000000000000000  2.4614664116560001
