Zr Os
 1.0000000000000000
     3.2764850000000001    0.0000000000000000    0.0000000000000000
     0.0000000000000000    3.2764850000000001    0.0000000000000000
     0.0000000000000000    0.0000000000000000    3.2764850000000001
 Zr  Os 
   1   1
Cartesian
  1.6382425000000000  1.6382425000000000  1.6382425000000000
  0.0000000000000000  0.0000000000000000  0.0000000000000000
