Ti Ru
 1.0000000000000000
     3.0863809999999998    0.0000000000000000    0.0000000000000000
     0.0000000000000000    3.0863809999999998    0.0000000000000000
     0.0000000000000000    0.0000000000000000    3.0863809999999998
 Ti  Ru 
   1   1
Cartesian
  0.0000000000000000  0.0000000000000000  0.0000000000000000
  1.5431904999999999  1.5431904999999999  1.5431904999999999
