Na Ti O 
 1.0000000000000000
     3.7916479999999999    0.0000000000000000    0.0000000000000000
     0.0000000000000000    8.5461819999999999    0.0124970000000000
     0.0000000000000000    1.8679239999999999    8.9443470000000005
 Na  Ti  O  
   4   6  14
Cartesian
  2.8437359999999998  5.8422301862259998  7.5335205545950004
  0.9479120000000000  4.5718758137740005  1.4233234454049999
  2.8437359999999998  6.6015446654579995  3.6814205027770002
  0.9479120000000000  3.8125613345420000  5.2754234972230005
  2.8437359999999998  1.6059158094799999  6.4450237445910004
  0.9479120000000000  8.8081901905200013  2.5118202554090003
  2.8437359999999998  2.7396448789379999  2.8997125867010003
  0.9479120000000000  7.6744611210619995  6.0571314132990004
  2.8437359999999998  1.2896609462140001  0.1347582659490000
  0.9479120000000000  9.1244450537859993  8.8220857340510008
  2.8437359999999998  9.6073113332460007  8.5657472024900017
  0.9479120000000000  0.8067946667540000  0.3910967975100000
  2.8437359999999998  8.1408215340099996  6.1266012161060006
  0.9479120000000000  2.2732844659899998  2.8302427838940005
  2.8437359999999998  0.5905393492360000  2.2021372816250002
  0.9479120000000000  9.8235666507640005  6.7547067183750000
  2.8437359999999998  2.9634199883519998  0.8137641869240000
  0.9479120000000000  7.4506860116480000  8.1430798130759996
  2.8437359999999998  4.4593367682179998  3.0972617940970002
  0.9479120000000000  5.9547692317820005  5.8595822059030001
  0.9479120000000000  7.0182638928939998  1.6977691351740001
  2.8437359999999998  3.3958421071060001  7.2590748648260002
  0.9479120000000000  8.1279502401140000  4.1522647388970002
  2.8437359999999998  2.2861557598859998  4.8045792611030009
