Na Cl
 1.0000000000000000
     5.6983569999999997    0.0000000000000000    0.0000000000000000
     0.0000000000000000    5.6983569999999997    0.0000000000000000
     0.0000000000000000    0.0000000000000000    5.6983569999999997
 Na  Cl 
   4   4
Cartesian
  0.0000000000000000  0.0000000000000000  0.0000000000000000
  0.0000000000000000  2.8491784999999998  2.8491784999999998
  2.8491784999999998  0.0000000000000000  2.8491784999999998
  2.8491784999999998  2.8491784999999998  0.0000000000000000
  0.0000000000000000  0.0000000000000000  2.8491784999999998
  0.0000000000000000  2.8491784999999998  0.0000000000000000
  2.8491784999999998  0.0000000000000000  0.0000000000000000
  2.8491784999999998  2.8491784999999998  2.8491784999999998
