Sn O 
 1.0000000000000000
     3.8669519999999999    0.0000000000000000    0.0000000000000000
     0.0000000000000000    3.8669519999999999    0.0000000000000000
     0.0000000000000000    0.0000000000000000    5.0267739999999996
 Sn  O  
   2   2
Cartesian
  0.0000000000000000  1.9334760000000000  1.1628687632899999
  1.9334760000000000  0.0000000000000000  3.8639052367100000
  1.9334760000000000  1.9334760000000000  0.0000000000000000
  0.0000000000000000  0.0000000000000000  0.0000000000000000
