Li
 1.0000000000000000
     3.4364990000000000    0.0000000000000000    0.0000000000000000
     0.0000000000000000    3.4364990000000000    0.0000000000000000
     0.0000000000000000    0.0000000000000000    3.4364990000000000
 Li 
   2
Cartesian
  0.0000000000000000  0.0000000000000000  0.0000000000000000
  1.7182495000000000  1.7182495000000000  1.7182495000000000
