Ca Pr Zn
 1.0000000000000000
    -0.0003030000000000    3.6760769999999998    3.6760769999999998
     3.6760769999999998   -0.0003030000000000    3.6760769999999998
     3.6760769999999998    3.6760769999999998   -0.0003030000000000
 Ca  Pr  Zn 
   1   1   2
Cartesian
  1.8379627500000000  1.8379627500000000  1.8379627500000000
  5.5138882499999999  5.5138882499999999  5.5138882499999999
  7.3513363704299994  7.3513363704299994  7.3513363704299994
  3.6764327777189996  3.6764327777189996  3.6764327777189996
