Li Ga Au
 1.0000000000000000
     3.7694429999999999    0.0000000000000000    2.1762880000000000
     1.2564810000000000    3.5538630000000002    2.1762880000000000
     0.0000000000000000    0.0000000000000000    4.3525760000000000
 Li  Ga  Au 
   2   1   1
Cartesian
  1.2564810000000000  0.8884657500000001  2.1762880000000000
  2.5129619999999999  1.7769315000000001  4.3525760000000000
  0.0000000000000000  0.0000000000000000  0.0000000000000000
  3.7694429999999999  2.6653972500000003  6.5288640000000004
