Cu S  O 
 1.0000000000000000
     4.8515560000000004    0.0000050000000000    0.0000000000000000
     0.0000070000000000    6.6167109999999996    0.0000000000000000
     0.0000000000000000    0.0000000000000000    8.3848280000000006
 Cu  S   O  
   4   4  16
Cartesian
  2.4257815000000003  3.3083579999999997  4.1924140000000003
  0.0000035000000000  3.3083554999999998  0.0000000000000000
  2.4257780000000002  0.0000025000000000  4.1924140000000003
  0.0000000000000000  0.0000000000000000  0.0000000000000000
  4.6136506468579999  4.9625247713879999  2.6605730030240000
  2.1878691468580000  1.6541667713879999  1.5318409969760001
  0.2379123531420000  1.6541912286120000  5.7242549969759997
  2.6636938531420005  4.9625492286119997  6.8529870030240012
  0.9141041190460001  2.8800302721959996  5.2880930140720004
  3.3398781737380006  3.7366586450949995  7.2891489859280005
  3.9374663262619998  6.1884153549049996  3.0967349859280002
  1.5116773809540001  0.4283277278040000  1.0956790140720001
  3.9374588809540008  3.7366857278039993  3.0967349859280002
  1.5116848262620002  2.8800573549049999  1.0956790140720001
  0.9140966737380001  0.4283006450949999  5.2880930140720004
  3.3398856190460000  6.1883882721959997  7.2891489859280005
  1.2775266790320001  4.9625345666099996  7.2773850722440008
  3.7033011790320001  1.6541815666099999  5.2998569277560001
  3.5740363209680006  1.6541814333899998  1.1074429277560001
  1.1482618209680002  4.9625344333900001  3.0849710722440000
  2.7546265672220005  4.9625228554829999  5.3309227154960004
  0.3288450672220000  1.6541648554830000  7.2463192845040005
  2.0969364327780000  1.6541931445169999  3.0539052845040002
  4.5227179327780007  4.9625511445169996  1.1385087154960003
