Zr I 
 1.0000000000000000
     3.7743730000000002    0.0000000000000000    0.0000000000000000
     0.0000000000000000    6.9182470000000000    0.0000000000000000
     0.0000000000000000    0.0000000000000000   15.6107800000000001
 Zr  I  
   4   8
Cartesian
  0.0000000000000000  3.3858938555050000  0.1051386033000000
  0.0000000000000000  6.1064114692910003  7.8145379170800000
  1.8871865000000001  0.8118355307090001  0.0091479170800000
  1.8871865000000001  3.5323531444949996  7.9105286033000004
  0.0000000000000000  6.1131775148570000  1.6943628396399999
  1.8871865000000001  5.3843125204189999  5.6601253908400002
  0.0000000000000000  1.5339344795809999 13.4655153908400003
  1.8871865000000001  5.0052963585240002 14.0371509328799995
  1.8871865000000001  0.8050694851430000  9.4997528396400011
  1.8871865000000001  2.6588276052870001  2.2583803210399997
  0.0000000000000000  1.9129506414759998  6.2317609328800003
  0.0000000000000000  4.2594193947129995 10.0637703210399998
