Cu Sn
 1.0000000000000000
     5.5996949999999996    0.0000000000000000    0.0000000000000000
    -2.7998470000000002    4.8494780000000004    0.0000000000000000
     0.0000000000000000    0.0000000000000000    4.3174560000000000
 Cu  Sn 
   6   2
Cartesian
 -1.4955745177820003  4.0964559056380008  3.2380920000000000
  1.3042726374969997  0.7530220943620001  1.0793640000000000
  2.7998478447209996  3.3434338112760003  1.0793640000000000
  0.0000001552789998  1.5060441887240001  3.2380920000000000
  1.4955753625029993  4.0964559056380008  3.2380920000000000
  4.2954225177819998  0.7530220943620001  1.0793640000000000
 -0.0000024665140002  3.2329869498260004  1.0793640000000000
  2.7998504665140000  1.6164910501740002  3.2380920000000000
