Ti Fe Ir
 1.0000000000000000
     0.0000000000000000    3.0557050000000001    3.0557050000000001
     3.0557050000000001    0.0000000000000000    3.0557050000000001
     3.0557050000000001    3.0557050000000001    0.0000000000000000
 Ti  Fe  Ir 
   2   1   1
Cartesian
  0.0000000000000000  0.0000000000000000  0.0000000000000000
  3.0557050000000001  3.0557050000000001  3.0557050000000001
  1.5278463885900000  1.5278463885900000  1.5278463885900000
  4.5835575000000004  4.5835575000000004  4.5835575000000004
