Ti Al Fe Co
 1.0000000000000000
     0.0000000000000000    2.9048500000000002    2.9048500000000002
     2.9048500000000002    0.0000000000000000    2.9048500000000002
     2.9048500000000002    2.9048500000000002    0.0000000000000000
 Ti  Al  Fe  Co 
   1   1   1   1
Cartesian
  2.9048500000000002  2.9048500000000002  2.9048500000000002
  0.0000000000000000  0.0000000000000000  0.0000000000000000
  1.4524250000000001  1.4524250000000001  1.4524250000000001
  4.3572750000000005  4.3572750000000005  4.3572750000000005
