Li
 1.0000000000000000
    -1.5393370000000000   -2.6662100000000000    0.0000000000000000
    -3.0786720000000001   -0.0000000000000000    0.0000000000000000
    -1.5393370000000000   -0.8887370000000000   -7.4564779999999997
 Li 
   3
Cartesian
 -4.6180079066070006 -2.6662093342350000 -4.9877499813700004
 -1.5393380933930001 -0.8887376657650000 -2.4687280186300002
  0.0000000000000000  0.0000000000000000  0.0000000000000000
