Ca Ir
 1.0000000000000000
     7.5898420000000000    0.0000000000000000    0.0000000000000000
     0.0000000000000000    7.5898420000000000    0.0000000000000000
     0.0000000000000000    0.0000000000000000    7.5898420000000000
 Ca  Ir 
   8  16
Cartesian
  6.6411117500000003  6.6411117500000003  2.8461907499999999
  4.7436512500000001  0.9487302500000000  0.9487302500000000
  6.6411117500000003  2.8461907499999999  6.6411117500000003
  4.7436512500000001  4.7436512500000001  4.7436512500000001
  2.8461907499999999  6.6411117500000003  6.6411117500000003
  0.9487302500000000  0.9487302500000000  4.7436512500000001
  2.8461907499999999  2.8461907499999999  2.8461907499999999
  0.9487302500000000  4.7436512500000001  0.9487302500000000
  5.6923814999999998  5.6923814999999998  0.0000000000000000
  0.0000000000000000  5.6923814999999998  5.6923814999999998
  5.6923814999999998  0.0000000000000000  5.6923814999999998
  0.0000000000000000  0.0000000000000000  0.0000000000000000
  5.6923814999999998  1.8974605000000000  3.7949210000000000
  0.0000000000000000  1.8974605000000000  1.8974605000000000
  5.6923814999999998  3.7949210000000000  1.8974605000000000
  0.0000000000000000  3.7949210000000000  3.7949210000000000
  1.8974605000000000  5.6923814999999998  3.7949210000000000
  3.7949210000000000  5.6923814999999998  1.8974605000000000
  1.8974605000000000  0.0000000000000000  1.8974605000000000
  3.7949210000000000  0.0000000000000000  3.7949210000000000
  1.8974605000000000  1.8974605000000000  0.0000000000000000
  3.7949210000000000  1.8974605000000000  5.6923814999999998
  1.8974605000000000  3.7949210000000000  5.6923814999999998
  3.7949210000000000  3.7949210000000000  0.0000000000000000
