Ti Si
 1.0000000000000000
     6.7108860000000004    0.0000000000000000    0.0000000000000000
     0.0000000000000000    6.7108860000000004    0.0000000000000000
     0.0000000000000000    0.0000000000000000   12.1991849999999999
 Ti  Si 
  20  16
Cartesian
  6.6826935679140007  1.0017607967640001  7.5860021963249995
  2.3536822032360001  3.3272505679140001 10.6357984463249995
  4.3572037967640007  3.3836354320860003  4.5362059463249995
  3.3272505679140001  2.3536822032360001  1.5633865536749998
  3.3836354320860003  4.3572037967640007  7.6629790536750004
  0.0281924320860000  5.7091252032359998  1.4864096963250000
  1.0017607967640001  6.6826935679140007  4.6131828036750004
  5.7091252032359998  0.0281924320860000 10.7127753036750004
  0.0183207187800000  2.3148999930420002  2.6629478944650002
  1.0405430069579999  3.3737637187800003  5.7127441444649998
  5.6703429930420004  3.3371222812200001 11.8123366444649989
  3.3737637187800003  1.0405430069579999  6.4864408555350002
  3.3371222812200001  5.6703429930420004  0.3868483555350000
  6.6925652812200003  4.3959860069580001  8.7625403944649989
  2.3148999930420002  0.0183207187800000  9.5362371055350010
  4.3959860069580001  6.6925652812200003  3.4366446055349997
  1.1464944751260000  1.1464944751260000  0.0000000000000000
  2.2089485248740002  4.5019374751260006  3.0497962500000000
  4.5019374751260006  2.2089485248740002  9.1493887500000000
  5.5643915248739999  5.5643915248739999  6.0995925000000000
  0.2965070761380000  2.0230234282440001  9.9229390708499992
  1.3324195717560001  3.6519500761380002  0.7735503208500000
  5.3784664282440007  3.0589359238620002  6.8731428208499992
  3.6519500761380002  1.3324195717560001 11.4256346791500007
  3.0589359238620002  5.3784664282440007  5.3260421791499999
  6.4143789238620004  4.6878625717559999  3.8233465708500001
  2.0230234282440001  0.2965070761380000  2.2762459291499999
  4.6878625717559999  6.4143789238620004  8.3758384291500008
  1.9755908859960001  2.3994101804400003  8.2039031157599993
  0.9560328195600001  5.3310338859960007 11.2536993657599993
  5.7548531804400005  1.3798521140040001  5.1541068657599993
  5.3310338859960007  0.9560328195600001  0.9454856342400000
  1.3798521140040001  5.7548531804400005  7.0450781342400006
  4.7352951140039998  4.3114758195600000  2.1043106157600002
  2.3994101804400003  1.9755908859960001  3.9952818842400002
  4.3114758195600000  4.7352951140039998 10.0948743842400006
