Ce Mg
 1.0000000000000000
     4.5161350000000002    0.0000000000000000    2.6073919999999999
     1.5053790000000000    4.2578529999999999    2.6073919999999999
     0.0000000000000000    0.0000000000000000    5.2147829999999997
 Ce  Mg 
   1   3
Cartesian
  0.0000000000000000  0.0000000000000000  0.0000000000000000
  4.5161354999999999  3.1933897499999997  7.8221752499999999
  3.0107569999999999  2.1289264999999999  5.2147834999999993
  1.5053785000000000  1.0644632500000000  2.6073917499999997
