Nb As C 
 1.0000000000000000
     3.3572419999999998    0.0000000000000000    0.0000000000000000
    -1.6786200000000000    2.9074570000000000    0.0000000000000000
     0.0000000000000000    0.0000000000000000   11.9319559999999996
 Nb  As  C  
   4   2   2
Cartesian
 -0.0000010119540002  1.9383056358190001  4.8364274533040001
  1.6786230119540000  0.9691513641810000 10.8024054533039990
  1.6786230119540000  0.9691513641810000  7.0955285466960003
 -0.0000010119540002  1.9383056358190001  1.1295505466959999
  1.6786230119540000  0.9691513641810000  2.9829889999999999
 -0.0000010119540002  1.9383056358190001  8.9489669999999997
  0.0000000000000000  0.0000000000000000  5.9659779999999998
  0.0000000000000000  0.0000000000000000  0.0000000000000000
