Hf In Cu
 1.0000000000000000
     3.8844289999999999   -0.0000000000000000    2.2426770000000000
     1.2948080000000000    3.6622759999999999    2.2426770000000000
     0.0000000000000000    0.0000000000000000    4.4853529999999999
 Hf  In  Cu 
   1   1   2
Cartesian
  2.5896184999999998  1.8311379999999999  4.4853535000000004
  0.0000000000000000  0.0000000000000000  0.0000000000000000
  3.8844277499999995  2.7467069999999998  6.7280302499999998
  1.2948092499999999  0.9155690000000000  2.2426767500000002
