Nd Cd In
 1.0000000000000000
     0.0000000000000000    3.8648760000000002    3.8648760000000002
     3.8648760000000002    0.0000000000000000    3.8648760000000002
     3.8648760000000002    3.8648760000000002    0.0000000000000000
 Nd  Cd  In 
   2   1   1
Cartesian
  1.9324380000000001  1.9324380000000001  1.9324380000000001
  5.7973140000000001  5.7973140000000001  5.7973140000000001
  3.8648760000000002  3.8648760000000002  3.8648760000000002
  0.0000000000000000  0.0000000000000000  0.0000000000000000
