Ac Cl O 
 1.0000000000000000
     4.2592249999999998    0.0000000000000000    0.0000000000000000
     0.0000000000000000    4.2592249999999998    0.0000000000000000
     0.0000000000000000    0.0000000000000000    7.1227159999999996
 Ac  Cl  O  
   2   2   2
Cartesian
  3.1944187499999996  3.1944187499999996  5.8583840509879996
  1.0648062500000000  1.0648062500000000  1.2643319490120000
  1.0648062500000000  1.0648062500000000  4.4994624334959994
  3.1944187499999996  3.1944187499999996  2.6232535665039998
  3.1944187499999996  1.0648062500000000  0.0000000000000000
  1.0648062500000000  3.1944187499999996  0.0000000000000000
