Li Nb Ir
 1.0000000000000000
    -0.0000030000000000    3.0729180000000000    3.0729229999999998
     3.0729199999999999   -0.0000020000000000    3.0729229999999998
     3.0729190000000002    3.0729160000000002   -0.0000000000000000
 Li  Nb  Ir 
   1   1   2
Cartesian
  1.5364590000000000  1.5364580000000001  1.5364614999999999
  4.6093831458390007  4.6093770729140005  4.6093875729229996
  0.0000000000000000  0.0000000000000000  0.0000000000000000
  3.0729118541640004  3.0729098541680004  3.0729168541540002
