Cs Cr Cl
 1.0000000000000000
     4.8896059999999997   -0.0000000000000000   -1.4768170000000000
    -0.4460470000000000    4.8692180000000000   -1.4768170000000000
     0.0963190000000000    0.1055470000000000    9.1518259999999998
 Cs  Cr  Cl 
   2   1   4
Cartesian
  1.6570371746799997  1.8157696584029999  5.4863051352599994
  2.8828408253200002  3.1589953415970000  0.7118868647399998
  0.0000000000000000  0.0000000000000000  0.0000000000000000
  2.4448029999999998  0.0000000000000000 -0.7384085000000000
 -0.2230235000000000  2.4346090000000000 -0.7384085000000000
  3.8641985529010001  4.2343602235730007  3.9610712248539999
  0.6756794470990000  0.7404047764270001  2.2371207751459998
