Li Si
 1.0000000000000000
    10.6080559999999995    0.0000000000000000   -0.0000010000000000
     0.0000000000000000   10.6080559999999995    0.0000000000000000
     0.0000000000000000    0.0000000000000000   10.6080559999999995
 Li  Si 
  60  16
Cartesian
  2.2621997661680000  6.3246608919279996  1.3512433519709999
  0.0000000000000000  7.9560420000000001  1.3260069999999999
  1.3512435652239998  2.2621997661680000  6.3246607645489998
  9.5874231080720005  9.2568124347760001  7.5662268623809998
  1.3512435652239998  8.3458562338319986  9.5874229806929989
  1.3007704347759999  1.6313811080720000 10.2182416435469996
  8.3458562338319986  9.5874231080720005  1.3512427784769998
  1.6313811080720000 10.2182417661679992  1.3007808890449999
  5.6938422338319992  9.3072855652239994  6.9354085713249995
  9.2568124347760001  7.5662277661679997  9.5874222354509993
  9.5874231080720005  1.3512435652239998  8.3458553300449996
  6.9354091080720002  5.6938422338319992  9.3072849114369998
  9.2820489999999989  5.3040279999999997  7.9560411249999996
  3.9527844347759995  8.3458562338319986  1.0206325193070001
  1.3260069999999999  0.0000000000000000  7.9560418749999995
  3.6726468919279998  0.3898142338320000  6.6047980885629993
  9.3072855652239994  6.9354091080720002  5.6938413564529995
 10.2182417661679992  1.3007704347759999  1.6313801448190000
 10.2182417661679992  9.3072855652239994  3.6726459286749997
  7.9560420000000001  1.3260069999999999 -0.0000007500000000
  1.0206328919280001  3.9527844347759995  8.3458561376190001
  7.5662277661679997  9.5874231080720005  9.2568223295790002
  0.3898142338320000  6.6047984347759998  3.6726468551809996
  6.3246608919279996  1.3512435652239998  2.2621991699549997
  6.6047984347759998  3.6726468919279998  0.3898136112110000
  8.3458562338319986  1.0206328919280001  3.9527836480289995
  3.6726468919279998 10.2182417661679992  9.3072852190109998
  5.3040279999999997  7.9560420000000001  9.2820485000000001
  9.3072855652239994  3.6726468919279998 10.2182408887889995
  7.9560420000000001  9.2820489999999989  5.3040272499999999
  7.5662277661679997  1.0206328919280001  6.6552708519710002
  5.3040279999999997  2.6520139999999999  6.6300344999999998
  6.6552715652240000  7.5662277661679997  1.0206322645490000
  4.2833951080719999  3.9527844347759995  2.2621993623809997
  6.6552715652240000  3.0418282338319997  4.2833944806929996
  6.6047984347759998  6.9354091080720002  4.9142131435470002
  3.0418282338319997  4.2833951080719999  6.6552712784769996
  6.9354091080720002  4.9142137661680003  6.6048083890450000
  0.3898142338320000  4.0032575652239997  1.6313810713250001
  3.9527844347759995  2.2621997661680000  4.2833947354510000
  4.2833951080719999  6.6552715652240000  3.0418278300449995
  1.6313811080720000  0.3898142338320000  4.0032574114369996
  3.9780210000000000  0.0000000000000000  2.6520136249999999
  9.2568124347760001  3.0418282338319997  6.3246600193069993
  6.6300349999999995  5.3040279999999997  2.6520133749999997
  8.9766748919279991  5.6938422338319992  1.3007695885630000
  4.0032575652239997  1.6313811080720000  0.3898138564530000
  4.9142137661680003  6.6047984347759998  6.9354086448189998
  4.9142137661680003  4.0032575652239997  8.9766744286749987
  2.6520139999999999  6.6300349999999995  5.3040277499999995
  6.3246608919279996  9.2568124347760001  3.0418276376189994
  2.2621997661680000  4.2833951080719999  3.9527948295790001
  5.6938422338319992  1.3007704347759999  8.9766743551810002
  1.0206328919280001  6.6552715652240000  7.5662276699549995
  1.3007704347759999  8.9766748919279991  5.6938421112109996
  3.0418282338319997  6.3246608919279996  9.2568121480289989
  8.9766748919279991  4.9142137661680003  4.0032567190110004
  0.0000000000000000  2.6520139999999999  3.9780210000000000
  4.0032575652239997  8.9766748919279991  4.9142133887890003
  2.6520139999999999  3.9780210000000000 -0.0000002500000000
 10.1587411800640002  0.4493148199360000  5.7533418622919994
  5.7533428199359991 10.1587411800640002  0.4493142775800000
  7.5067271800639999  3.1013288199360001  8.4053561122919991
  3.1013288199360001  8.4053568199359994  7.5067268877080000
  0.4493148199360000  5.7533428199359991 10.1587411377080006
  8.4053568199359994  7.5067271800639999  3.1013280275799997
  2.2026991800639997  2.2026991800639997  2.2026989724199999
 10.1587411800640002 10.1587411800640002 10.1587402224200005
  4.8547131800639995  5.7533428199359991  0.4493143622919999
  0.4493148199360000  4.8547131800639995  5.7533427775799995
  2.2026991800639997  8.4053568199359994  3.1013286122919999
  8.4053568199359994  3.1013288199360001  2.2026983877079997
  5.7533428199359991  0.4493148199360000  4.8547126377079994
  3.1013288199360001  2.2026991800639997  8.4053565275799986
  7.5067271800639999  7.5067271800639999  7.5067264724200005
  4.8547131800639995  4.8547131800639995  4.8547127224199995
