Te O 
 1.0000000000000000
     4.4072810000000002    0.0000000000000000    0.0000000000000000
     0.0000000000000000    4.8709579999999999    0.0000000000000000
     0.0000000000000000    0.0000000000000000    8.7285120000000003
 Te  O  
   4   8
Cartesian
  1.6605444842130002  0.1454273220480000  5.2569383792640005
  3.8641849842130003  2.2900516779519999  3.4715736207360002
  2.7467365157870001  2.5809063220480000  7.8358296207359999
  0.5430960157870001  4.7255306779520003  0.8926823792640001
  3.4007637943439999  0.6939118057220000  4.7055059051520001
  1.1971232943440000  1.7415671942780000  4.0230060948480002
  1.0065172056560001  3.1293908057220001  8.3872620948479994
  3.2101577056560004  4.1770461942779997  0.3412499051520000
  0.7578187461070000  3.6891710409979996  2.4209488168320004
  2.9614592461070002  3.6172659590020002  6.3075631831680008
  3.6494622538930002  1.2536920409980001  1.9433071831680000
  1.4458217538930001  1.1817869590020000  6.7852048168319996
