Cu Au
 1.0000000000000000
     2.8868930000000002    0.0000000000000000    0.0000000000000000
     0.0000000000000000    2.8868930000000002    0.0000000000000000
     0.0000000000000000    0.0000000000000000    3.6295700000000002
 Cu  Au 
   1   1
Cartesian
  1.4434465000000001  1.4434465000000001  1.8147850000000001
  0.0000000000000000  0.0000000000000000  0.0000000000000000
