Mg P  Se
 1.0000000000000000
     5.9333960000000001    0.0621540000000000    5.2314020000000001
     2.3996919999999999    5.4268799999999997    5.2313549999999998
     0.0943980000000000    0.0622480000000000    7.9097309999999998
 Mg  P   Se 
   2   2   6
Cartesian
  1.4036567857020001  0.9246048760740000  3.0600664838160001
  7.0238292142979999  4.6266771239260001 15.3124215161840009
  3.7679879830020000  2.4820170411739997  8.2144679922159991
  4.6594980169979996  3.0692649588259999 10.1580200077839997
  4.2798376988439992  4.0831365183040003  6.8060492119469993
  1.6090592870539999  2.3201722099119997  8.5638225187790002
  4.6857860346119997  0.5623566561540000  7.6836506243539997
  4.1476483011560008  1.4681454816960000 11.5664387880530004
  6.8184267129459997  3.2311097900879999  9.8086654812210003
  3.7416999653879999  4.9889253438459997 10.6888373756459991
