Ca P  Pd
 1.0000000000000000
     3.8657180000000002    0.0000000000000000   -1.5244679999999999
    -0.6011820000000000    3.8186840000000002   -1.5244679999999999
    -0.0021360000000000   -0.0024980000000000    5.6581279999999996
 Ca  P   Pd 
   1   2   2
Cartesian
  0.0000000000000000  0.0000000000000000  0.0000000000000000
  1.9970850189360005  2.3360860573260007 -0.5993657685120002
  1.2653149810640003  1.4800999426740000  3.2085577685119997
  0.5144750000000001  2.8627639999999999  1.3045959999999999
  2.7479250000000000  0.9534220000000001  1.3045959999999999
