Ba Ag Ge
 1.0000000000000000
     4.3205600000000004    0.0000000000000000   -1.7015039999999999
    -0.6700790000000000    4.2682830000000003   -1.7015039999999999
    -0.0242040000000000   -0.0283000000000000    6.2748049999999997
 Ba  Ag  Ge 
   1   2   2
Cartesian
  0.0000000000000000  0.0000000000000000  0.0000000000000000
  3.0607982500000004  1.0529207500000000  1.4358985000000000
  0.5654787500000001  3.1870622500000003  1.4358985000000000
  2.2476231820529997  2.6280076602630000 -0.6289643028779999
  1.3786538179470003  1.6119753397370000  3.5007613028779998
