Tl Pt O 
 1.0000000000000000
     0.0000000000000000    5.1026460000000000    5.1026460000000000
     5.1026460000000000    0.0000000000000000    5.1026460000000000
     5.1026460000000000    5.1026460000000000    0.0000000000000000
 Tl  Pt  O  
   4   4  14
Cartesian
  6.3783075000000000  6.3783075000000000  6.3783075000000000
  6.3783075000000000  3.8269845000000000  3.8269845000000000
  3.8269845000000000  3.8269845000000000  6.3783075000000000
  3.8269845000000000  6.3783075000000000  3.8269845000000000
  1.2756615000000000  1.2756615000000000  1.2756615000000000
  1.2756615000000000  3.8269845000000000  3.8269845000000000
  3.8269845000000000  3.8269845000000000  1.2756615000000000
  3.8269845000000000  1.2756615000000000  3.8269845000000000
  2.5513230000000000  2.5513230000000000  4.6947915052200004
  5.1026460000000000  5.1026460000000000  2.1434685052200000
  2.5513230000000000  0.4078544947800000  2.5513230000000000
  4.6947915052200004  2.5513230000000000  2.5513230000000000
  0.4078544947800000  2.5513230000000000  2.5513230000000000
  2.5513230000000000  4.6947915052200004  2.5513230000000000
  5.1026460000000000  2.1434685052200000  5.1026460000000000
  5.1026460000000000  8.0618234947800005  5.1026460000000000
  7.6539690000000000  7.6539690000000000  7.6539690000000000
  5.1026460000000000  5.1026460000000000  5.1026460000000000
  2.5513230000000000  2.5513230000000000  0.4078544947800000
  2.1434685052200000  5.1026460000000000  5.1026460000000000
  8.0618234947800005  5.1026460000000000  5.1026460000000000
  5.1026460000000000  5.1026460000000000  8.0618234947800005
