Ba Ti O 
 1.0000000000000000
     4.0339739999999997    0.0000000000000000    0.0000000000000000
     0.0000000000000000    4.0339739999999997    0.0000000000000000
     0.0000000000000000    0.0000000000000000    4.0339739999999997
 Ba  Ti  O  
   1   1   3
Cartesian
  0.0000000000000000  0.0000000000000000  0.0000000000000000
  2.0169869999999999  2.0169869999999999  2.0169869999999999
  0.0000000000000000  2.0169869999999999  2.0169869999999999
  2.0169869999999999  0.0000000000000000  2.0169869999999999
  2.0169869999999999  2.0169869999999999  0.0000000000000000
