Nb Al Fe
 1.0000000000000000
     0.0000000000000000    2.9448059999999998    2.9448059999999998
     2.9448059999999998    0.0000000000000000    2.9448059999999998
     2.9448059999999998    2.9448059999999998    0.0000000000000000
 Nb  Al  Fe 
   1   1   2
Cartesian
  4.4172089999999997  4.4172089999999997  4.4172089999999997
  1.4723971103879998  1.4723971103879998  1.4723971103879998
  0.0000000000000000  0.0000000000000000  0.0000000000000000
  2.9448118896120001  2.9448118896120001  2.9448118896120001
