Mg Zn Au
 1.0000000000000000
     0.0000000000000000    3.2039860000000000    3.2039860000000000
     3.2039860000000000    0.0000000000000000    3.2039860000000000
     3.2039860000000000    3.2039860000000000    0.0000000000000000
 Mg  Zn  Au 
   1   1   2
Cartesian
  1.6019930000000000  1.6019930000000000  1.6019930000000000
  4.8059789999999998  4.8059789999999998  4.8059789999999998
  3.2039924079720001  3.2039924079720001  3.2039924079720001
  0.0000000000000000  0.0000000000000000  0.0000000000000000
