Ca C  N 
 1.0000000000000000
     3.5636209999999999    0.0000000000000000    0.0000000000000000
     0.0000000000000000   11.4210659999999997    0.0000000000000000
     0.0000000000000000    0.0000000000000000   13.9205799999999993
 Ca  C   N  
  16   4  16
Cartesian
  0.8909052500000000  7.2932414841480000  3.6256289815799998
  2.6727157500000001  4.1278245158519997 10.2949510184199990
  0.8909052500000000  1.5827084841480001  3.3346610184199998
  2.6727157500000001  9.8383575158519996 10.5859189815799990
  0.8909052500000000 10.0084171885920004  5.3298559880799994
  2.6727157500000001  1.4126488114080000  8.5907240119199990
  0.8909052500000000  4.2978841885919996  1.6304340119200000
  2.6727157500000001  7.1231818114080001 12.2901459880799990
  0.8909052500000000  4.3362703914180001  7.5242405369599998
  2.6727157500000001  7.0847956085819996  6.3963394630399995
  0.8909052500000000 10.0468033914180008 13.3566294630399991
  2.6727157500000001  1.3742626085820000  0.5639505369600000
  0.8909052500000000  7.0297232283299991  9.3308812505199992
  2.6727157500000001  4.3913427716699998  4.5896987494800001
  0.8909052500000000  1.3191902283299999 11.5499887494800006
  2.6727157500000001 10.1018757716700005  2.3705912505200000
  0.8909052500000000  9.8357420917380001  8.1629306679399996
  2.6727157500000001  1.5853239082620001  5.7576493320599997
  0.8909052500000000  4.1252090917379993 12.7179393320599985
  2.6727157500000001  7.2958569082620004  1.2026406679399999
  0.8909052500000000 10.8997628634959991  8.7978344011599994
  2.6727157500000001  0.5213031365040000  5.1227455988399999
  0.8909052500000000  5.1892298634959992 12.0830355988400004
  2.6727157500000001  6.2318361365040005  1.8375444011600000
  0.8909052500000000  8.7788138019659989  7.5233356992599996
  2.6727157500000001  2.6422521980339999  6.3972443007399997
  0.8909052500000000  3.0682808019659995 13.3575343007399994
  2.6727157500000001  8.3527851980340007  0.5630456992599999
  0.8909052500000000  5.6986779334920001  5.3433171889399995
  2.6727157500000001  5.7223880665079996  8.5772628110599989
  0.8909052500000000 11.4092109334920000  1.6169728110599999
  2.6727157500000001  0.0118550665080000 12.3036071889399992
  2.6727157500000001  3.0365302384860002  2.5844531210599997
  0.8909052500000000  8.3845357615139999 11.3361268789400000
  2.6727157500000001  8.7470632384859996  4.3758368789399995
  0.8909052500000000  2.6740027615140001  9.5447431210599998
