Ba Nd Nb O 
 1.0000000000000000
     3.0641340000000001    5.2952519999999996    0.0000000000000000
    -3.0641340000000001    5.2952519999999996    0.0000000000000000
     0.0000000000000000    3.5644700000000000    5.0466819999999997
 Ba  Nd  Nb  O  
   2   1   1   6
Cartesian
 -0.0000000000000000  3.5483337030059996  1.2988796863859999
  0.0000000000000000 10.6066402969939997  3.7478023136139997
  0.0000000000000000  0.0000000000000000  0.0000000000000000
  0.0000000000000000  7.0774869999999996  2.5233409999999998
 -1.4315235710579999  8.1410553778179988  3.5051275629619996
 -1.4315235710580003  6.0139186221819996  1.5415544370379999
  1.4315235710580001  6.0139186221819996  1.5415544370379999
  1.4315235710579999  8.1410553778179988  3.5051275629619996
  0.0000000000000001  8.4664398814280002  1.0355084928520000
 -0.0000000000000000  5.6885341185720000  4.0111735071479995
