Zn B  Ir
 1.0000000000000000
     2.9000800000000000    0.0000000000000000   -0.6628550000000000
    -0.1515040000000000    2.8961209999999999   -0.6628550000000000
    -0.0068990000000000   -0.0072680000000000    6.6453730000000002
 Zn  B   Ir 
   1   2   2
Cartesian
  0.0000000000000000  0.0000000000000000  0.0000000000000000
  2.1337345000000005  0.7203962500000000  2.6598315000000001
  0.6079425000000001  2.1684567499999998  2.6598315000000001
  1.0206902400300000  1.0754824286740001  4.4656758168819994
  1.7209867599700002  1.8133705713260002  0.8539871831180000
