Ce B 
 1.0000000000000000
     4.1241719999999997    0.0000000000000000    0.0000000000000000
     0.0000000000000000    4.1303859999999997    0.0000000000000000
     0.0000000000000000    0.0000000000000000    4.1303869999999998
 Ce  B  
   1   6
Cartesian
  2.0620859999999999  2.0651929999999998  2.0651934999999999
  0.0000000000000000  0.0000000000000000  2.8883589771649998
  0.0000000000000000  0.0000000000000000  1.2420280228350000
  0.0000000000000000  2.8883582778699997  0.0000000000000000
  0.0000000000000000  1.2420277221300000  0.0000000000000000
  1.2408932438759999  0.0000000000000000  0.0000000000000000
  2.8832787561239996  0.0000000000000000  0.0000000000000000
