Li Pt
 1.0000000000000000
     4.2039669999999996    0.0000000000000000    0.0000000000000000
    -2.1019839999999999    3.6407419999999999    0.0000000000000000
     0.0000000000000000    0.0000000000000000    2.6881460000000001
 Li  Pt 
   2   1
Cartesian
 -0.0000024353170001  2.4271625469139999  1.3440730000000001
  2.1019854353170002  1.2135794530860000  1.3440730000000001
  0.0000000000000000  0.0000000000000000  0.0000000000000000
