Pm Zn
 1.0000000000000000
     6.4366360000000000   -0.0000090000000000    0.0000000000000000
    -3.2183259999999998    5.5742849999999997    0.0000000000000000
     0.0000000000000000    0.0000000000000000    4.3368270000000004
 Pm  Zn 
   2   6
Cartesian
  0.0000011033080002  3.7161832838039999  3.2526159131730004
  3.2183153333279999  1.8580927161870000  1.0842067500000001
 -0.0000022712319999  1.5825605310719999  1.0842067500000001
  1.8477807603540009  4.7830032250829992  1.0842067500000001
 -1.8477912708279998  4.7830139666819997  1.0842067500000001
  3.2183219261780001  3.9917210431949997  3.2526159131730004
  1.3705356762820002  0.7912727749080000  3.2526159131730004
  5.0661109257739998  0.7912676075849999  3.2526159131730004
