Ti Si
 1.0000000000000000
     3.6443590000000001    0.0000000000000000    0.0000000000000000
     0.0000000000000000    5.0104259999999998    0.0000000000000000
     0.0000000000000000    0.0000000000000000    6.5406730000000000
 Ti  Si 
   4   4
Cartesian
  0.9110897500000000  1.8617540513760000  4.4207820146429997
  2.7332692500000002  3.1486719486240000  2.1198909853569998
  2.7332692500000002  4.3669670513760002  5.3902274853570002
  0.9110897500000000  0.6434589486240000  1.1504455146429999
  0.9110897500000000  4.2796253053440001  3.5602256680330004
  2.7332692500000002  0.7308006946560001  2.9804473319670000
  2.7332692500000002  1.7744123053440000  6.2507838319669995
  0.9110897500000000  3.2360136946559996  0.2898891680330000
