Tc Ni
 1.0000000000000000
     5.3262330000000002    0.0000000000000000    0.0000000000000000
    -2.6631160000000000    4.6126529999999999    0.0000000000000000
     0.0000000000000000    0.0000000000000000    4.2989199999999999
 Tc  Ni 
   6   2
Cartesian
  2.6631141709560007  3.0819210386850000  3.2241942989200001
 -1.3374726147099998  3.8472893256689997  1.0747257010800000
  1.3374681225500005  3.8472893256689997  1.0747257010800000
 -0.0000024971900000  1.5307227360090001  1.0747257010800000
  4.0005842884770004  0.7653636743309999  3.2241942989200001
  1.3256435512170002  0.7653636743309999  3.2241942989200001
  2.6631113404329998  1.5375448497960000  1.0747257010800000
  0.0000003333330001  3.0750989248979996  3.2241942989200001
