Pr Cu Si
 1.0000000000000000
     3.8295080000000001   -0.0000000000000000   -1.4517940000000000
    -0.5503860000000000    3.7897500000000002   -1.4517940000000000
    -0.0204590000000000   -0.0236460000000000    5.7226210000000002
 Pr  Cu  Si 
   1   2   2
Cartesian
  0.0000000000000000  0.0000000000000000  0.0000000000000000
  0.5343580000000000  2.8304895000000001  1.4095165000000001
  2.7243050000000002  0.9356145000000000  1.4095165000000001
  2.0360920121570003  2.3531539282860003 -0.4058285784630000
  1.2225709878430000  1.4129500717140000  3.2248615784629999
