Sr
 1.0000000000000000
     6.0125430000000000    0.0000000000000000    0.0000000000000000
     0.0000000000000000    6.0125430000000000    0.0000000000000000
     0.0000000000000000    0.0000000000000000    6.0125430000000000
 Sr 
   4
Cartesian
  0.0000000000000000  0.0000000000000000  0.0000000000000000
  0.0000000000000000  3.0062715000000000  3.0062715000000000
  3.0062715000000000  0.0000000000000000  3.0062715000000000
  3.0062715000000000  3.0062715000000000  0.0000000000000000
