Ho In Cu
 1.0000000000000000
     4.0131940000000004    0.0000000000000000    2.3170190000000002
     1.3377319999999999    3.7836759999999998    2.3170190000000002
     0.0000000000000000    0.0000000000000000    4.6340360000000000
 Ho  In  Cu 
   1   1   2
Cartesian
  2.6754630000000001  1.8918379999999999  4.6340370000000002
  0.0000000000000000  0.0000000000000000  0.0000000000000000
  1.3377315000000001  0.9459190000000000  2.3170185000000001
  4.0131945000000000  2.8377569999999999  6.9510555000000007
