Ta
 1.0000000000000000
     3.3225280000000001    0.0000000000000000    0.0000000000000000
     0.0000000000000000    3.3225280000000001    0.0000000000000000
     0.0000000000000000    0.0000000000000000    3.3225280000000001
 Ta 
   2
Cartesian
  0.0000000000000000  0.0000000000000000  0.0000000000000000
  1.6612640000000001  1.6612640000000001  1.6612640000000001
