Li Bi F 
 1.0000000000000000
     4.8314880000000002   -0.0013250000000000   -2.0505670000000000
    -0.8692130000000000    4.7529269999999997   -2.0478120000000000
    -0.0092940000000000   -0.0072880000000000    6.7031900000000002
 Li  Bi  F  
   2   2   8
Cartesian
  1.6900871899300003  0.5896478187080000  4.0035459949340000
  2.2628938100700005  4.1546661812919989 -1.3987349949339998
  3.6768890476580007  2.9647429487740000  1.9531542232680004
  0.2760919523420001  1.7795710512259999  0.6516567767320002
  0.4819330998380002  4.5279505951649996 -1.9016735807270002
 -0.0106022094100000  3.6601177976880002  2.0952484735860000
  1.9042298750260003  1.5124214857739999  2.3757803113840001
  3.4039999708680004  3.0287602989319993 -2.3805746149520002
  3.4710479001620000  0.2163634048350000  4.5064845807270002
  3.9635832094099999  1.0841962023119998  0.5095625264139999
  2.0487511249740002  3.2318925142260002  0.2290306886160002
  0.5489810291320001  1.7155537010679998  4.9853856149520004
