Dy B  C 
 1.0000000000000000
     3.5720380000000000    0.0000000000000000    0.0000000000000000
     0.0000000000000000    5.3301410000000002    0.0000000000000000
     0.0000000000000000    0.0000000000000000    5.3301410000000002
 Dy  B   C  
   2   4   4
Cartesian
  0.0000000000000000  2.6650705000000001  2.6650705000000001
  0.0000000000000000  0.0000000000000000  0.0000000000000000
  1.7860190000000000  3.3918885267600003  0.7268180267600001
  1.7860190000000000  4.6033229732400001  3.3918885267600003
  1.7860190000000000  1.9382524732400002  4.6033229732400001
  1.7860190000000000  0.7268180267600001  1.9382524732400002
  1.7860190000000000  3.5301523843000000  4.4650591156999999
  1.7860190000000000  4.4650591156999999  1.7999886157000000
  1.7860190000000000  0.8650818843000000  3.5301523843000000
  1.7860190000000000  1.7999886157000000  0.8650818843000000
