Ho Sb Pt
 1.0000000000000000
     4.0108430000000004    0.0000000000000000    2.3156610000000000
     1.3369480000000000    3.7814600000000000    2.3156610000000000
     0.0000000000000000    0.0000000000000000    4.6313230000000001
 Ho  Sb  Pt 
   1   1   1
Cartesian
  2.6738955000000004  1.8907300000000000  4.6313224999999996
  0.0000000000000000  0.0000000000000000  0.0000000000000000
  1.3369477500000002  0.9453650000000000  2.3156612499999998
