Zr Ga
 1.0000000000000000
     4.7481299999999997    0.0000070000000000    2.7212930000000002
     2.3740739999999998    4.7205919999999999    1.3606450000000001
     0.0267600000000000   -0.0000020000000000    5.4562679999999997
 Zr  Ga 
   4   2
Cartesian
  3.5744870899620000  3.8128849491080001  4.7690929865409997
  1.9227156375479997  2.3603061336019997  2.1481818820140002
  3.5744769100379998  0.9077120508920000  4.7691130134589992
  5.2262483624520000  2.3602908663980000  7.3900241179860000
  1.1870324999999999  0.0000017500000000  0.6803232500000000
  3.5610974999999998  0.0000052500000000  2.0409697500000004
