Li Se
 1.0000000000000000
     3.6448950000000000    0.0000000000000000    2.1043810000000001
     1.2149650000000001    3.4364400000000002    2.1043810000000001
     0.0000000000000000    0.0000000000000000    4.2087620000000001
 Li  Se 
   2   1
Cartesian
  1.2149650000000001  0.8591100000000000  2.1043810000000001
  3.6448950000000000  2.5773299999999999  6.3131430000000002
  0.0000000000000000  0.0000000000000000  0.0000000000000000
