Ac Tl Hg
 1.0000000000000000
     0.0000000000000000    3.8519790000000000    3.8519790000000000
     3.8519790000000000    0.0000000000000000    3.8519790000000000
     3.8519790000000000    3.8519790000000000    0.0000000000000000
 Ac  Tl  Hg 
   1   1   2
Cartesian
  1.9259895000000000  1.9259895000000000  1.9259895000000000
  5.7779685000000001  5.7779685000000001  5.7779685000000001
  0.0000000000000000  0.0000000000000000  0.0000000000000000
  3.8519790000000000  3.8519790000000000  3.8519790000000000
