Pm Cd Hg
 1.0000000000000000
     0.0000000000000000    3.6264110000000001    3.6264110000000001
     3.6264110000000001    0.0000000000000000    3.6264110000000001
     3.6264110000000001    3.6264110000000001    0.0000000000000000
 Pm  Cd  Hg 
   1   1   2
Cartesian
  5.4396092471779998  5.4396092471779998  5.4396092471779998
  1.8131982471779999  1.8131982471779999  1.8131982471779999
  0.0000000000000000  0.0000000000000000  0.0000000000000000
  3.6264110000000001  3.6264110000000001  3.6264110000000001
