Ca Pm Pt
 1.0000000000000000
     0.0000000000000000    3.5183789999999999    3.5183789999999999
     3.5183789999999999    0.0000000000000000    3.5183789999999999
     3.5183789999999999    3.5183789999999999    0.0000000000000000
 Ca  Pm  Pt 
   1   1   2
Cartesian
  1.7591895000000000  1.7591895000000000  1.7591895000000000
  5.2775614632419998  5.2775614632419998  5.2775614632419998
  3.5183789999999999  3.5183789999999999  3.5183789999999999
  0.0000000000000000  0.0000000000000000  0.0000000000000000
