Gd Ta O 
 1.0000000000000000
     5.1714240000000000    0.0002230000000000    0.0000000000000000
    -0.6202200000000000    5.3266700000000000    0.0000000000000000
     0.0000000000000000    0.0000000000000000    5.5113669999999999
 Gd  Ta  O  
   2   2   8
Cartesian
 -0.4651650000000000  3.9950025000000000  4.2191443363449999
 -0.1550550000000000  1.3316675000000000  1.2922226636550000
  2.4306570000000001  1.3317790000000000  3.8136399979530000
  2.1205470000000002  3.9951140000000001  1.6977270020470001
  3.7661624558519997  0.0458601342690000  3.0990196186320000
  1.0951515441479998  2.6176978657309999  3.0990196186320000
  0.7850415441479999  5.2810328657310004  2.4123473813679999
  3.4560524558519998  2.7091951342690002  2.4123473813679999
  0.9369172355999998  3.2126564353350000  0.4747932443160000
  3.3041767644000002  4.7775715646650001  0.4747932443160000
  3.6142867644000001  2.1142365646650001  5.0365737556839996
  1.2470272355999998  0.5493214353350000  5.0365737556839996
