Sc Fe Ge
 1.0000000000000000
     6.5851369999999996    0.0000600000000000    0.0000000000000000
    -3.2925190000000000    5.7030719999999997    0.0000000000000000
     0.0000000000000000    0.0000000000000000    3.9516740000000001
 Sc  Fe  Ge 
   3   3   3
Cartesian
  0.5530001607770002  5.7030443040479994  1.9758370000000001
  1.3699101790199997  2.3724743981400001  1.9758370000000001
 -1.9228212165619998  3.3307936566599996  1.9758370000000001
 -1.7812893250300004  5.7030515508480004  0.0000000000000000
  2.5369918025620000  4.3943145341880001  0.0000000000000000
  5.8295532766909997  1.3087610406960000  0.0000000000000000
  6.5850909040409995  0.0000599995800000  1.9758370000000001
  0.0000527553780002  3.8020641981119998  0.0000000000000000
  3.2926080482599995  1.9010963177879998  0.0000000000000000
