Zr Ni Sn
 1.0000000000000000
     3.7447979999999998    0.0000000000000000    2.1620599999999999
     1.2482660000000001    3.5306310000000001    2.1620599999999999
     0.0000000000000000    0.0000000000000000    4.3241209999999999
 Zr  Ni  Sn 
   1   1   1
Cartesian
  0.0000000000000000  0.0000000000000000  0.0000000000000000
  1.2482660000000001  0.8826577500000000  2.1620602499999997
  2.4965320000000002  1.7653155000000000  4.3241204999999994
