Zr Cd
 1.0000000000000000
     3.1028460000000000    0.0000000000000000    0.0000000000000000
     0.0000000000000000    3.1028460000000000    0.0000000000000000
     0.0000000000000000    0.0000000000000000    9.0733160000000002
 Zr  Cd 
   2   2
Cartesian
  2.3271345000000001  2.3271345000000001  7.9259407519040002
  0.7757115000000000  0.7757115000000000  1.1473752480960002
  2.3271345000000001  2.3271345000000001  3.4584395664560001
  0.7757115000000000  0.7757115000000000  5.6148764335440005
