Mn Pt Rh
 1.0000000000000000
    -0.0000030000000000    3.0707450000000001    3.0707420000000001
     3.0707450000000001   -0.0000020000000000    3.0707409999999999
     3.0707490000000002    3.0707469999999999   -0.0000050000000000
 Mn  Pt  Rh 
   2   1   1
Cartesian
  0.0000000707520000  3.0707450000019998  3.0707389292529998
  3.0707424292480003  3.0707449999980003  3.0707420707469999
  1.5353727500000001  1.5353725000000000  1.5353695000000001
  4.6061182499999997  4.6061174999999999  4.6061085000000004
