Y  Sn Ru
 1.0000000000000000
     5.9631600000000002    0.0000000000000000   -3.4162279999999998
    -1.9571190000000001    5.6328459999999998   -3.4162279999999998
    -0.0028970000000000   -0.0040730000000000    6.9075220000000002
 Y   Sn  Ru 
   1   6   4
Cartesian
  0.0000000000000000  0.0000000000000000  0.0000000000000000
  1.4466564283990002  4.9594823062429993 -1.9756467784259997
  4.2099704889880005  2.9942330324570001 -1.9756467784259997
  0.4759947160410000  0.6692906937570000  3.2426039815739998
  2.9815800000000001  0.0000000000000000 -1.7081139999999999
  1.8736663665720004  2.6345399675430001  0.8588215752780001
 -0.9785595000000000  2.8164229999999999 -1.7081139999999999
  3.0690181388400002  1.3968377251440001  2.9510440337200001
  1.6153402714900000  2.2713105676359997 -1.6868915537599998
  0.3122066273100001  3.3574624323640001  2.9510440337200001
  3.0097229623600001  4.2319352748560002 -4.0650645136799994
