Hf Ga
 1.0000000000000000
     5.3135360000000000    0.0004510000000000   -1.0139030000000000
    -2.9132129999999998    4.4437449999999998   -1.0139030000000000
     0.0038830000000000    0.0071860000000000    7.3248970000000000
 Hf  Ga 
   4   6
Cartesian
 -1.5337861158930000  3.4313010166100000  5.6411651606059996
  3.9588234934300002  1.0586699363559999 -0.3616795722979999
 -2.4615165878589997  3.9277296636060002  1.9787166606059998
  0.7731906053580002  2.7838794023209998  3.3007699416050000
  1.4945467140120001  2.7671519742239998 -1.2626012390640000
  3.5531754640120004  1.6599214742239998  2.3998472609360002
  2.3503682818520000  0.8016923036310000  4.6218854671680001
  0.0266646872450002  3.5993591775710003  0.6981684079760001
  1.4363847074650002  1.2906962063530001  0.9594369671679999
 -0.2595296918660000  0.8882661614370000  5.3745199079759995
