Ce Ga Pd
 1.0000000000000000
     2.6899750000000000   -4.6591730000000000    0.0000000000000000
     2.6899750000000000    4.6591730000000000    0.0000000000000000
     0.0000000000000000    0.0000000000000000    4.2710220000000003
 Ce  Ga  Pd 
   1   3   2
Cartesian
  0.0000000000000000  0.0000000000000000  0.0000000000000000
  1.3449875000000000  2.3295865000000000  2.1355110000000002
  1.3449875000000000 -2.3295865000000000  2.1355110000000002
  2.6899750000000000  0.0000000000000000  2.1355110000000002
  2.6899750000000000 -1.5530607727820003  0.0000000000000000
  2.6899750000000000  1.5530607727820001  0.0000000000000000
