Mg Sc Al
 1.0000000000000000
     0.0000000000000000    3.4645359999999998    3.4645359999999998
     3.4645359999999998    0.0000000000000000    3.4645359999999998
     3.4645359999999998    3.4645359999999998    0.0000000000000000
 Mg  Sc  Al 
   1   2   1
Cartesian
  5.1968040000000002  5.1968040000000002  5.1968040000000002
  0.0000000000000000  0.0000000000000000  0.0000000000000000
  3.4645429290720000  3.4645429290720000  3.4645429290720000
  1.7322679999999999  1.7322679999999999  1.7322679999999999
