Ta Pd S 
 1.0000000000000000
     3.2415340000000001    0.0000000000000000    0.5813130000000000
     1.4418450000000000    6.1012449999999996    1.2883670000000000
     0.0014010000000000   -0.0031160000000000    9.3206159999999993
 Ta  Pd  S  
   2   1   6
Cartesian
  3.5546373791440002  5.6524733382459997  8.1638044405460004
  1.1301426208560001  0.4456556617540000  3.0264915594539996
  0.0000000000000000  0.0000000000000000  0.0000000000000000
  2.2273903256590000  4.8105428902520000  6.2364034725109994
  4.3331794893710001  4.8447420394479996  3.8224641648549995
  0.3516005106290001  1.2533869605519998  7.3678318351449992
  2.4573896743410000  1.2875861097479999  4.9538925274889998
  1.7069430592830002  4.3042749335229988  9.1385378468869991
  2.9778369407169998  1.7938540664769997  2.0517581531129996
