Cs Pd Se
 1.0000000000000000
     6.3300939999999999    0.0035080000000000   -1.3655299999999999
    -3.5188030000000001    5.2619249999999997   -1.3655180000000000
     0.0193040000000000    0.0361770000000000    7.9855929999999997
 Cs  Pd  Se 
   2   3   4
Cartesian
  1.8439583903650001  3.4536651904949998  0.6713230334000000
  0.9866366096349998  1.8479448095049997  4.5832219665999991
  0.0000000000000000  0.0000000000000000  0.0000000000000000
  3.1650469999999999  0.0017540000000000 -0.6827650000000000
 -1.7594015000000001  2.6309624999999999 -0.6827590000000000
 -2.1630297441399997  3.8237048894869998  5.1517098272390003
  4.9936247441399999  1.4779051105130001  0.1028351727609999
 -1.5501076470300001  4.9716709901669995  0.1028404146690001
  4.3807026470299997  0.3299390098330000  5.1517045853310002
