Rb C  O 
 1.0000000000000000
    10.0275499999999997    0.0000000000000000    0.0000000000000000
     0.0000000000000000    5.8570669999999998    0.1330110000000000
     0.0000000000000000    0.9194880000000000    7.3496079999999999
 Rb  C   O  
   8   4  12
Cartesian
  2.7615471597999997  2.4331271798510001  7.2000748999070003
  7.7753221598000000  4.8031718201490001  3.9573481000929998
  7.2660028401999996  4.3434278201490004  0.2825441000930000
  2.2522278401999998  1.9733831798510000  3.5252708999069999
  9.2032753624500003  2.1550555417810000  5.9948242870210002
  4.1895003624499996  5.0812434582190003  5.1625987129789994
  0.8242746375500000  4.6214994582190005  1.4877947129789999
  5.8380496375499993  1.6953115417809999  2.3200202870209998
  5.8380396100000000  2.1363310767349999  5.4658073077990004
  9.2032853899999996  1.6765870767350002  1.7910033077990000
  4.1895103899999997  4.6402239232650002  2.0168116922009998
  0.8242646100000000  5.0999679232649999  5.6916156922010002
  8.4899455381000006  0.6098441972240000  1.5854507609680000
  3.4761705381000003  5.7069668027759999  2.2223642390319998
  1.5376044619000000  6.1667108027760005  5.8971682390320002
  6.5513794618999999  1.0695881972240000  5.2602547609679995
  8.6912486043499992  2.7066924130229997  2.3866381274310000
  6.3500763956500004  3.1664364130229998  6.0614421274309995
  1.3363013956499998  4.0698625869769991  5.0959808725690001
  3.6774736043499998  3.6101185869769994  1.4211768725689999
  4.6069673240499993  2.1664897899110001  5.0491944872470000
  9.6207423240500010  5.0698092100889989  6.1082285127529996
  5.4205826759499995  4.6100652100889992  2.4334245127529996
  0.4068076759500000  1.7067457899109999  1.3743904872469999
