Be Cu
 1.0000000000000000
     6.0040889999999996    0.0000000000000000    0.0000000000000000
     0.0000000000000000    6.0040889999999996    0.0000000000000000
     0.0000000000000000    0.0000000000000000    6.0040889999999996
 Be  Cu 
  16   8
Cartesian
  1.5010222499999999  0.0000000000000000  4.5030667499999995
  4.5030667499999995  1.5010222499999999  0.0000000000000000
  0.0000000000000000  0.0000000000000000  3.0020444999999998
  3.0020444999999998  1.5010222499999999  1.5010222499999999
  1.5010222499999999  3.0020444999999998  1.5010222499999999
  4.5030667499999995  4.5030667499999995  3.0020444999999998
  0.0000000000000000  3.0020444999999998  0.0000000000000000
  3.0020444999999998  4.5030667499999995  4.5030667499999995
  4.5030667499999995  0.0000000000000000  1.5010222499999999
  1.5010222499999999  1.5010222499999999  3.0020444999999998
  3.0020444999999998  0.0000000000000000  0.0000000000000000
  0.0000000000000000  1.5010222499999999  4.5030667499999995
  4.5030667499999995  3.0020444999999998  4.5030667499999995
  1.5010222499999999  4.5030667499999995  0.0000000000000000
  3.0020444999999998  3.0020444999999998  3.0020444999999998
  0.0000000000000000  4.5030667499999995  1.5010222499999999
  5.2535778749999995  5.2535778749999995  5.2535778749999995
  3.7525556249999998  0.7505111249999999  3.7525556249999998
  5.2535778749999995  2.2515333749999997  2.2515333749999997
  3.7525556249999998  3.7525556249999998  0.7505111249999999
  2.2515333749999997  5.2535778749999995  2.2515333749999997
  0.7505111249999999  0.7505111249999999  0.7505111249999999
  2.2515333749999997  2.2515333749999997  5.2535778749999995
  0.7505111249999999  3.7525556249999998  3.7525556249999998
