Mg Se
 1.0000000000000000
     4.2215999999999996   -0.0000820000000000    0.0000000000000000
    -2.1108709999999999    3.6556649999999999    0.0000000000000000
     0.0000000000000000    0.0000010000000000    6.8167179999999998
 Mg  Se 
   2   2
Cartesian
  2.1108312139439995  1.2185105789100001  3.3968523800159995
 -0.0001001030730001  2.4370702620490001  6.8052113800159999
  2.1107699985429997  1.2186242828190001  5.9761348699840005
 -0.0000388878140000  2.4369636261399998  2.5677758699840001
