Ru
 1.0000000000000000
     2.7325750000000002    0.0000000000000000    0.0000000000000000
    -1.3662879999999999    2.3664790000000000    0.0000000000000000
     0.0000000000000000    0.0000000000000000    4.3112209999999997
 Ru 
   2
Cartesian
 -0.0000016996210000  1.5776534554930000  1.0778052499999999
  1.3662886996210002  0.7888255445069999  3.2334157499999998
