La Cd Hg
 1.0000000000000000
     0.0000000000000000    3.6958489999999999    3.6958489999999999
     3.6958489999999999    0.0000000000000000    3.6958489999999999
     3.6958489999999999    3.6958489999999999    0.0000000000000000
 La  Cd  Hg 
   1   1   2
Cartesian
  5.5437735000000004  5.5437735000000004  5.5437735000000004
  1.8479245000000000  1.8479245000000000  1.8479245000000000
  0.0000000000000000  0.0000000000000000  0.0000000000000000
  3.6958489999999999  3.6958489999999999  3.6958489999999999
