Mn Zn
 1.0000000000000000
     3.8216009999999998    0.0000000000000000    0.0000000000000000
     0.0000000000000000    3.8216009999999998    0.0000000000000000
     0.0000000000000000    0.0000000000000000    3.8216009999999998
 Mn  Zn 
   1   3
Cartesian
  0.0000000000000000  0.0000000000000000  0.0000000000000000
  0.0000000000000000  1.9108004999999999  1.9108004999999999
  1.9108004999999999  1.9108004999999999  0.0000000000000000
  1.9108004999999999  0.0000000000000000  1.9108004999999999
