Ba Ge Pt
 1.0000000000000000
     6.8050720000000000    0.0000000000000000    0.0000000000000000
     0.0000000000000000    6.8050720000000000    0.0000000000000000
     0.0000000000000000    0.0000000000000000    6.8050720000000000
 Ba  Ge  Pt 
   4   4   4
Cartesian
  0.9274768730239999  0.9274768730239999  0.9274768730239999
  4.3300128730239997  2.4750591269759998  5.8775951269759998
  2.4750591269759998  5.8775951269759998  4.3300128730239997
  5.8775951269759998  4.3300128730239997  2.4750591269759998
  2.3376919435839998  4.4673800564160002  1.0648440564160000
  1.0648440564160000  2.3376919435839998  4.4673800564160002
  4.4673800564160002  1.0648440564160000  2.3376919435839998
  5.7402279435840002  5.7402279435840002  5.7402279435840002
  2.7861938238880000  2.7861938238880000  2.7861938238880000
  0.6163421761120000  4.0188781761119996  6.1887298238880000
  6.1887298238880000  0.6163421761120000  4.0188781761119996
  4.0188781761119996  6.1887298238880000  0.6163421761120000
