Mo N 
 1.0000000000000000
     5.7430349999999999   -0.0000000000000000    0.0000000000000000
    -2.8715180000000000    4.9736149999999997    0.0000000000000000
     0.0000000000000000    0.0000000000000000    5.6435579999999996
 Mo  N  
   8   8
Cartesian
  1.5586450985449996  2.4158588820249998  2.7802367695619998
 -1.3128724157200000  2.5577561179749999  5.6020157695619996
 -0.0000004857350000  4.8317177640499995  5.6020157695619996
  2.8715174857349997  0.1418972359500000  2.7802367695619998
  4.1843894157200001  2.4158588820249998  2.7802367695619998
  1.3128719014549999  2.5577561179749999  5.6020157695619996
  0.0000000000000000  0.0000000000000000  2.7408278040479996
  0.0000000000000000  0.0000000000000000  5.5626068040479995
  4.3087894564770002  0.8280621349649999  4.2256987058700002
  1.4372716229679998  4.1455528650350004  1.4039197058699999
 -0.0000001664910000  1.6561242699299998  1.4039197058699999
  2.8715171664910004  3.3174907300699998  4.2256987058700002
  1.4342453770320001  0.8280621349649999  4.2256987058700002
 -1.4372724564770001  4.1455528650350004  1.4039197058699999
  2.8715202048510000  1.6578700087949998  1.2254365405620000
 -0.0000032048510001  3.3157449912049999  4.0472155405619992
