Mg Ni C 
 1.0000000000000000
     3.7835779999999999    0.0000000000000000    0.0000000000000000
     0.0000000000000000    3.7836050000000001    0.0000000000000000
     0.0000000000000000    0.0000000000000000    3.7835920000000001
 Mg  Ni  C  
   1   3   1
Cartesian
  0.0000000000000000  0.0000000000000000  0.0000000000000000
  0.0000000000000000  1.8918025000000001  1.8917960000000000
  1.8917889999999999  0.0000000000000000  1.8917960000000000
  1.8917889999999999  1.8918025000000001  0.0000000000000000
  1.8917889999999999  1.8918025000000001  1.8917960000000000
