Li Mg Au
 1.0000000000000000
     0.0000000000000000    3.1855730000000002    3.1855730000000002
     3.1855730000000002    0.0000000000000000    3.1855730000000002
     3.1855730000000002    3.1855730000000002    0.0000000000000000
 Li  Mg  Au 
   1   1   2
Cartesian
  1.5927865000000001  1.5927865000000001  1.5927865000000001
  4.7783531288540004  4.7783531288540004  4.7783531288540004
  3.1855793711460003  3.1855793711460003  3.1855793711460003
  0.0000000000000000  0.0000000000000000  0.0000000000000000
