Rb Dy O 
 1.0000000000000000
     6.5867459999999998   -1.7386150000000000    0.0019550000000000
     6.5867459999999998    1.7386150000000000    0.0019550000000000
     6.1269450000000001    0.0000000000000000    2.9780129999999998
 Rb  Dy  O  
   1   1   2
Cartesian
  0.0000000000000000  0.0000000000000000  0.0000000000000000
  9.6502184999999994  0.0000000000000000  1.4909614999999998
 14.9526468574470002 -0.0000000000000000  2.3101881877129995
  4.3477901425530003 -0.0000000000000000  0.6717348122869999
