Zr Zn Ni
 1.0000000000000000
     4.1086150000000004    0.0000000000000000    2.3721100000000002
     1.3695390000000001    3.8736389999999998    2.3721100000000002
     0.0000000000000000    0.0000000000000000    4.7442200000000003
 Zr  Zn  Ni 
   1   1   4
Cartesian
  0.0000000000000000  0.0000000000000000  0.0000000000000000
  1.3695385000000000  0.9684097500000000  2.3721100000000002
  3.4188173046280004  2.4174683743980001  5.9215646120800010
  3.4188173046280004  2.4174683743980001  3.5668706437000006
  1.3795925302930001  2.4174683743980001  4.7442176278900003
  2.7390753822970004  0.4948690031670000  4.7442176278900003
