Tl Sb S 
 1.0000000000000000
     6.1735689999999996   -0.0742600000000000   -0.8346420000000000
    -1.7582510000000000    6.1201210000000001   -1.2829980000000001
     0.1141140000000000   -0.0540820000000000   11.8494530000000005
 Tl  Sb  S  
   4   4   8
Cartesian
  4.2856780578509994  4.3144648038959996 -0.6930023687300000
  0.2437539421489999  1.6773141961040001 10.4248153687300000
  1.4983927845309999  4.1808053175110000  2.7086435436420002
  3.0310392154689993  1.8109736824890001  7.0231694563579996
  3.3742256075419994  1.2296902902910001  1.1080668574049999
 -0.1042243732930000  1.2452264222990002  4.5319989923790001
  1.1552063924579998  4.7620887097090003  8.6237461425949995
  4.6336563732929994  4.7465525777010003  5.1998140076210007
 -0.1550739683230000  1.1060149596820001  7.3009404001610001
  4.6845059683229993  4.8857640403179996  2.4308725998390002
  0.9226093814220002  4.7826316123949990  6.0074509149709998
  3.6068226185779992  1.2091473876050001  3.7243620850290000
  4.8683256793209990  4.7209734872060007  7.9359159478840011
  1.1299165644510001  4.9834486596929990 -0.2824809142270000
  3.3995154355490000  1.0083303403070001 10.0142939142270002
 -0.3388936793210000  1.2708055127940001  1.7958970521160000
