Pm Pb
 1.0000000000000000
     4.9440200000000001   -0.0000010000000000    0.0000100000000000
    -0.0000010000000000    4.9440830000000000    0.0000040000000000
     0.0000100000000000    0.0000040000000000    4.9440759999999999
 Pm  Pb 
   3   1
Cartesian
  0.0000045000000000  2.4720434999999998  2.4720399999999998
  2.4720095000000000  2.4720409999999999  0.0000070000000000
  2.4720149999999999  0.0000015000000000  2.4720429999999998
  0.0000000000000000  0.0000000000000000  0.0000000000000000
