Ba Al Si
 1.0000000000000000
     4.3076140000000001    0.0000000000000000    0.0000000000000000
    -2.1538070000000000    3.7305039999999998    0.0000000000000000
     0.0000000000000000    0.0000000000000000    5.2258550000000001
 Ba  Al  Si 
   1   1   1
Cartesian
  0.0000000000000000  0.0000000000000000  0.0000000000000000
  2.1538091538069999  1.2435000898319999  2.6129275000000001
 -0.0000021538070001  2.4870039101679997  2.6129275000000001
