Na Hf O 
 1.0000000000000000
     7.9483470000000001    0.0000000000000000    0.0000000000000000
     0.0000000000000000    3.9498620000000000    0.0000000000000000
     0.0000000000000000    0.0000000000000000    3.9498620000000000
 Na  Hf  O  
   2   2   5
Cartesian
  0.0000000000000000  0.0000000000000000  0.0000000000000000
  3.9741735000000000  0.0000000000000000  0.0000000000000000
  2.0000981940389999  1.9749310000000000  1.9749310000000000
  5.9482567543079998  1.9749310000000000  1.9749310000000000
  1.5855601046009999  1.9749310000000000  0.0000000000000000
  6.3627789470520000  1.9749310000000000  0.0000000000000000
  3.9741735000000000  1.9749310000000000  1.9749310000000000
  1.5855601046009999  0.0000000000000000  1.9749310000000000
  6.3627789470520000  0.0000000000000000  1.9749310000000000
