Si Ir
 1.0000000000000000
     3.2560790000000002    0.0000000000000000    0.0000000000000000
     0.0000000000000000    5.5867469999999999    0.0000000000000000
     0.0000000000000000    0.0000000000000000    6.3432199999999996
 Si  Ir 
   4   4
Cartesian
  0.8140197500000000  3.8131559503920003  5.9502131184599998
  2.4420592500000002  1.7735910496080001  0.3930068815400000
  0.8140197500000000  1.0197824503920001  3.5646168815400001
  2.4420592500000002  4.5669645496079996  2.7786031184600000
  0.8140197500000000  2.8037816096609998  1.8688902221599999
  2.4420592500000002  2.7829653903390001  4.4743297778399995
  0.8140197500000000  0.0104081096610000  1.3027197778399999
  2.4420592500000002  5.5763388903390005  5.0405002221599995
