Ba Cu Se F 
 1.0000000000000000
     4.2635329999999998    0.0000000000000000    0.0000000000000000
     0.0000000000000000    4.2635329999999998    0.0000000000000000
     0.0000000000000000    0.0000000000000000    9.2465469999999996
 Ba  Cu  Se  F  
   2   2   2   2
Cartesian
  0.0000000000000000  2.1317664999999999  6.2175908733809999
  2.1317664999999999  0.0000000000000000  3.0289561266190002
  2.1317664999999999  2.1317664999999999  0.0000000000000000
  0.0000000000000000  0.0000000000000000  0.0000000000000000
  0.0000000000000000  2.1317664999999999  1.3976618117850002
  2.1317664999999999  0.0000000000000000  7.8488851882149993
  0.0000000000000000  0.0000000000000000  4.6232734999999998
  2.1317664999999999  2.1317664999999999  4.6232734999999998
