Ca Ag
 1.0000000000000000
     3.8128799999999998    0.0000000000000000   -1.3504989999999999
     0.0000000000000000    4.6120500000000000    0.0000000000000000
     0.0141670000000000    0.0000000000000000    6.0977209999999999
 Ca  Ag 
   2   2
Cartesian
  3.2814832309609998  1.1530125000000000  3.2069316883740000
  0.5455637690389999  3.4590375000000000  1.5402903116260001
  2.1908088994669996  1.1530125000000000  0.1276063775120001
  1.6362381005330000  3.4590375000000000  4.6196156224880003
