Li Sn Pd
 1.0000000000000000
     3.8579520000000000    0.0000000000000000    2.2273900000000002
     1.2859840000000000    3.6373129999999998    2.2273900000000002
    -0.0000000000000000   -0.0000000000000000    4.4547809999999997
 Li  Sn  Pd 
   1   1   2
Cartesian
  2.5719680000000000  1.8186564999999999  4.4547805000000000
  0.0000000000000000  0.0000000000000000  0.0000000000000000
  1.2859840000000000  0.9093282499999999  2.2273902500000000
  3.8579520000000000  2.7279847500000001  6.6821707500000000
