Tb Cd
 1.0000000000000000
     3.7414860000000001    0.0000000000000000    0.0000000000000000
     0.0000000000000000    3.7414860000000001    0.0000000000000000
     0.0000000000000000    0.0000000000000000    3.7414860000000001
 Tb  Cd 
   1   1
Cartesian
  1.8707430000000000  1.8707430000000000  1.8707430000000000
  0.0000000000000000  0.0000000000000000  0.0000000000000000
