Sn Rh
 1.0000000000000000
     5.2133770000000004    0.0000000000000000    0.0000000000000000
     0.0000000000000000    5.2133770000000004    0.0000000000000000
     0.0000000000000000    0.0000000000000000    5.2133770000000004
 Sn  Rh 
   4   4
Cartesian
  4.3789812245270001  4.3789812245270001  4.3789812245270001
  3.4410842754730004  0.8343957754730000  1.7722927245270002
  1.7722927245270002  3.4410842754730004  0.8343957754730000
  0.8343957754730000  1.7722927245270002  3.4410842754730004
  0.7484897492670001  0.7484897492670001  0.7484897492670001
  1.8581987507330000  4.4648872507330006  3.3551782492670004
  3.3551782492670004  1.8581987507330000  4.4648872507330006
  4.4648872507330006  3.3551782492670004  1.8581987507330000
