Ba Mg Nb O 
 1.0000000000000000
     2.9311989999999999   -5.0769859999999998    0.0000000000000000
     2.9311989999999999    5.0769859999999998    0.0000000000000000
     0.0000000000000000    0.0000000000000000    7.1945020000000000
 Ba  Mg  Nb  O  
   3   1   2   9
Cartesian
  0.0000000000000000  0.0000000000000000  0.0000000000000000
  2.9311989999999999  1.6923320513240001  4.8059633085100000
  2.9311989999999999 -1.6923320513239999  2.3885386914900000
  0.0000000000000000  0.0000000000000000  3.5972510000000000
  2.9311989999999999  1.6923320513240001  1.2899670140980000
  2.9311989999999999 -1.6923320513239999  5.9045349859020000
  2.9311989999999994 -3.3377121361199991  4.8476050860859994
  4.3561427698699999 -0.8696369319399994  4.8476050860859994
  1.5062552301300001 -0.8696369319399999  4.8476050860859994
  4.3561427698699999  0.8696369319399996  2.3468969139140001
  1.5062552301300001  0.8696369319400000  2.3468969139140001
  2.9311989999999999  3.3377121361199995  2.3468969139140001
  1.4655994999999999 -2.5384929999999999  0.0000000000000000
  1.4655994999999999  2.5384929999999999  0.0000000000000000
  2.9311989999999999  0.0000000000000000  0.0000000000000000
