Zn As Pt
 1.0000000000000000
     3.9256590000000000    0.0000000000000000    0.0000000000000000
     0.0000000000000000    3.9256590000000000    0.0000000000000000
     0.0000000000000000    0.0000000000000000    7.1371339999999996
 Zn  As  Pt 
   1   1   5
Cartesian
  1.9628295000000000  1.9628295000000000  0.0000000000000000
  0.0000000000000000  0.0000000000000000  3.5685669999999998
  0.0000000000000000  1.9628295000000000  1.9636396774199998
  0.0000000000000000  1.9628295000000000  5.1734943225799999
  1.9628295000000000  0.0000000000000000  1.9636396774199998
  1.9628295000000000  0.0000000000000000  5.1734943225799999
  0.0000000000000000  0.0000000000000000  0.0000000000000000
