Ce Hg
 1.0000000000000000
     5.0606600000000004   -0.0000000000000000    0.0000000000000000
    -2.5303309999999999    4.3826619999999998    0.0000000000000000
     0.0000000000000000    0.0000000000000000    3.3968739999999999
 Ce  Hg 
   1   2
Cartesian
  0.0000000000000000  0.0000000000000000  0.0000000000000000
 -0.0000031969969999  2.9217761275539997  1.6984370000000000
  2.5303321969970001  1.4608858724459999  1.6984370000000000
