Ni I 
 1.0000000000000000
     3.8960780000000002    0.0616600000000000    6.2565099999999996
     1.8352640000000000    3.4373019999999999    6.2565099999999996
     0.1010010000000000    0.0616600000000000    7.3697460000000001
 Ni  I  
   1   2
Cartesian
  0.0000000000000000  0.0000000000000000  0.0000000000000000
  1.5191037224660002  0.9274067273640001  5.1787049978919999
  4.3132392775340005  2.6332152726360003 14.7040610021080003
