La Pd
 1.0000000000000000
     5.3411549999999997    0.0000000000000000    0.0000000000000000
    -2.6705779999999999    4.6255769999999998    0.0000000000000000
     0.0000000000000000    0.0000000000000000    4.4877029999999998
 La  Pd 
   1   5
Cartesian
  0.0000000000000000  0.0000000000000000  0.0000000000000000
 -1.3352889999999999  2.3127884999999999  2.2438514999999999
 -0.0000030039110002  3.0837195418589998  0.0000000000000000
  2.6705800039109997  1.5418574581409998  0.0000000000000000
  2.6705774999999998  0.0000000000000000  2.2438514999999999
  1.3352884999999999  2.3127884999999999  2.2438514999999999
