Rb Au O 
 1.0000000000000000
     5.5093280000000000    0.0000000000000000    0.0000000000000000
     0.0000000000000000    5.5093280000000000    0.0000000000000000
     0.0000000000000000    0.0000000000000000    5.5093280000000000
 Rb  Au  O  
   3   1   1
Cartesian
  0.0000000000000000  2.7546640000000000  2.7546640000000000
  2.7546640000000000  2.7546640000000000  0.0000000000000000
  2.7546640000000000  0.0000000000000000  2.7546640000000000
  0.0000000000000000  0.0000000000000000  0.0000000000000000
  2.7546640000000000  2.7546640000000000  2.7546640000000000
