Hf Tc
 1.0000000000000000
     3.2666700000000000    0.0000000000000000    0.0000000000000000
     0.0000000000000000    3.2666700000000000    0.0000000000000000
     0.0000000000000000    0.0000000000000000    3.2666700000000000
 Hf  Tc 
   1   1
Cartesian
  0.0000000000000000  0.0000000000000000  0.0000000000000000
  1.6333350000000000  1.6333350000000000  1.6333350000000000
