Ca Al
 1.0000000000000000
     8.0172089999999994    0.0000000000000000    0.0000000000000000
     0.0000000000000000    8.0172089999999994    0.0000000000000000
     0.0000000000000000    0.0000000000000000    8.0172089999999994
 Ca  Al 
   8  16
Cartesian
  3.0064533749999995  7.0150578749999992  7.0150578749999992
  5.0107556249999998  1.0021511249999999  1.0021511249999999
  3.0064533749999995  3.0064533749999995  3.0064533749999995
  5.0107556249999998  5.0107556249999998  5.0107556249999998
  7.0150578749999992  7.0150578749999992  3.0064533749999995
  1.0021511249999999  1.0021511249999999  5.0107556249999998
  7.0150578749999992  3.0064533749999995  7.0150578749999992
  1.0021511249999999  5.0107556249999998  1.0021511249999999
  0.0000000000000000  0.0000000000000000  0.0000000000000000
  6.0129067499999991  6.0129067499999991  0.0000000000000000
  0.0000000000000000  6.0129067499999991  6.0129067499999991
  6.0129067499999991  0.0000000000000000  6.0129067499999991
  0.0000000000000000  4.0086044999999997  4.0086044999999997
  6.0129067499999991  2.0043022499999998  4.0086044999999997
  0.0000000000000000  2.0043022499999998  2.0043022499999998
  6.0129067499999991  4.0086044999999997  2.0043022499999998
  4.0086044999999997  0.0000000000000000  4.0086044999999997
  2.0043022499999998  6.0129067499999991  4.0086044999999997
  4.0086044999999997  6.0129067499999991  2.0043022499999998
  2.0043022499999998  0.0000000000000000  2.0043022499999998
  4.0086044999999997  4.0086044999999997  0.0000000000000000
  2.0043022499999998  2.0043022499999998  0.0000000000000000
  4.0086044999999997  2.0043022499999998  6.0129067499999991
  2.0043022499999998  4.0086044999999997  6.0129067499999991
