Be Nb
 1.0000000000000000
     3.6901169999999999   -2.1304900000000000    3.5818539999999999
     0.0000000000000000    4.2609800000000000    3.5818539999999999
    -3.6901169999999999   -2.1304900000000000    3.5818539999999999
 Be  Nb 
  17   2
Cartesian
  0.0000000000000001  0.0000000000000001  4.3133545512959994
  0.0000000000000002  0.0000000000000000  6.4322074487039993
  1.8450584999999999  1.0652450000000000  3.5818539999999999
 -1.8450584999999999  1.0652450000000000  3.5818539999999999
  0.0000000000000000 -2.1304900000000000  3.5818539999999999
  2.1695304878100004 -0.0000000000000000  5.3727809999999998
 -1.0847652439050000  1.8788684785500003  5.3727809999999998
 -1.0847652439050002 -1.8788684785500001  5.3727809999999998
 -2.1695304878099999 -0.0000000000000000  5.3727809999999998
  1.0847652439050002 -1.8788684785500001  5.3727809999999998
  1.0847652439050000  1.8788684785500001  5.3727810000000007
 -0.0000000000000000  2.1627115307599998  3.4641363682899997
 -1.8729631647540002 -1.0813557653800001  3.4641363682900002
  1.8729631647540002 -1.0813557653800001  3.4641363682899997
 -1.8729631647539999  1.0813557653799999  7.2814256317100003
 -0.0000000000000002 -2.1627115307600002  7.2814256317100003
  1.8729631647539997  1.0813557653799999  7.2814256317100003
  0.0000000000000000 -0.0000000000000000  1.7210951744159999
  0.0000000000000001  0.0000000000000001  9.0244668255839997
