Tm Al Cu
 1.0000000000000000
     6.9024400000000004    0.0000000000000000    0.0000000000000000
    -3.4512200000000002    5.9780550000000003    0.0000000000000000
     0.0000000000000000    0.0000000000000000    3.9664079999999999
 Tm  Al  Cu 
   3   3   3
Cartesian
  4.0404744003600008  0.0000000000000000  1.9832000335920001
  4.8820647510200006  3.4995354628349999  1.9832000335920001
  1.4308378485800000  2.4785075810550001  1.9832000335920001
  1.6246963272000001  0.0000000000000000  0.0000000000000000
 -0.8124171880000001  1.4072819714400002  0.0000000000000000
  2.6388028120000002  4.5707849846700004  0.0000000000000000
  6.9022605365600009  0.0000000000000000  1.9832000335920001
 -0.0000655731799999  3.9852285193650001  0.0000000000000000
  3.4511716829200001  1.9928205025800001  0.0000000000000000
