Nb Al C 
 1.0000000000000000
     3.1333120000000001    0.0000000000000000    0.0000000000000000
    -1.5666549999999999    2.7135270000000000    0.0000000000000000
     0.0000000000000000    0.0000000000000000   19.2015880000000010
 Nb  Al  C  
   6   2   4
Cartesian
  1.5666578999890000  0.9045080954910000  7.0308342604920009
 -0.0000008999890000  1.8090189045089999 16.6316282604920005
 -0.0000008999890000  1.8090189045089999 12.1707537395080010
  1.5666578999890000  0.9045080954910000  2.5699597395080001
  0.0000000000000000  0.0000000000000000  9.6007940000000005
  0.0000000000000000  0.0000000000000000  0.0000000000000000
  0.0000000000000000  0.0000000000000000 14.4011910000000007
  0.0000000000000000  0.0000000000000000  4.8003970000000002
 -0.0000008999890000  1.8090189045089999  8.2670708991080009
  1.5666578999890000  0.9045080954910000 17.8678648991079996
 -0.0000008999890000  1.8090189045089999  1.3337231008920003
  1.5666578999890000  0.9045080954910000 10.9345171008920019
