Mg Ag Rh
 1.0000000000000000
     0.0000030000000000    3.1791830000000001    3.1791890000000000
     3.1791879999999999    0.0000040000000000    3.1791879999999999
     3.1791830000000001    3.1791779999999998    0.0000080000000000
 Mg  Ag  Rh 
   2   1   1
Cartesian
  0.0000061791850000  3.1791798208210000  3.1791889999990000
  3.1791870000030000  3.1791856791830000  3.1791956791890001
  1.5895934999999999  1.5895912500000000  1.5895962500000000
  4.7687773208120001  4.7687737499959999  4.7687855708119997
