Eu Cd Hg
 1.0000000000000000
     0.0000000000000000    3.6857250000000001    3.6857250000000001
     3.6857250000000001    0.0000000000000000    3.6857250000000001
     3.6857250000000001    3.6857250000000001    0.0000000000000000
 Eu  Cd  Hg 
   1   1   2
Cartesian
  5.5285875000000004  5.5285875000000004  5.5285875000000004
  1.8428698714499998  1.8428698714499998  1.8428698714499998
  0.0000000000000000  0.0000000000000000  0.0000000000000000
  3.6857250000000001  3.6857250000000001  3.6857250000000001
