Mg Sn Ru
 1.0000000000000000
     6.0291790000000001    0.0000000000000000   -3.1150139999999999
    -1.6093910000000000    5.8104089999999999   -3.1150139999999999
     0.0106860000000000    0.0140470000000000    7.4129940000000003
 Mg  Sn  Ru 
   2   8   2
Cartesian
  2.2098940000000002  2.9052045000000000 -3.1150139999999999
  0.0000000000000000  0.0000000000000000  0.0000000000000000
  1.9769580582590001  4.1093810856889998  1.5389523840660007
 -0.7309475021720000  3.0021553570579997  3.6900533368920003
  3.9305678793199998  1.2041765856890001  2.5028654312400005
  0.4999061206800001  4.6202794143109998 -1.3198994312399999
  5.1614215021719998  2.8223006429419999 -2.5070873368919999
  2.4535159417410002  1.7150749143110000 -0.3559863840659998
  3.2078116811110000  5.7275051429420003 -3.4710003840659995
  1.2226623188890000  0.0969508570580000  4.6539663840660008
  3.3201840000000002  4.3648302499999998 -0.9660239999999995
  1.1102900000000002  1.4596257500000001  2.1489900000000004
