Be O 
 1.0000000000000000
     2.7093769999999999    0.0000000000000000    0.0000000000000000
    -1.3546879999999999    2.3463889999999998    0.0000000000000000
     0.0000000000000000    0.0000000000000000    4.4008919999999998
 Be  O  
   2   2
Cartesian
 -0.0000010213550000  1.5642601154629998  4.4003770956359993
  1.3546900213549999  0.7821288845369999  2.1999310956359999
 -0.0000010213550000  1.5642601154629998  1.6618516343639997
  1.3546900213549999  0.7821288845369999  3.8622976343639999
