Al Cr B 
 1.0000000000000000
     2.9209230000000002    0.0000000000000000    0.0000000000000000
     0.0000000000000000    2.9184120000000000    0.0000000000000000
     0.0000000000000000    0.0000000000000000    8.0582750000000001
 Al  Cr  B  
   1   3   4
Cartesian
  1.4604615000000001  1.4592060000000000  4.0291375000000000
  0.0000000000000000  0.0000000000000000  5.6569735161999999
  0.0000000000000000  0.0000000000000000  2.4013014837999997
  0.0000000000000000  1.4592060000000000  0.0000000000000000
  1.4604615000000001  0.0000000000000000  0.8703662244750000
  1.4604615000000001  1.4592060000000000  1.8033613622500000
  1.4604615000000001  0.0000000000000000  7.1879087755250000
  1.4604615000000001  1.4592060000000000  6.2549136377499996
