Li Sc Tc
 1.0000000000000000
     0.0000000000000000    3.2893870000000001    3.2893870000000001
     3.2893870000000001    0.0000000000000000    3.2893870000000001
     3.2893870000000001    3.2893870000000001    0.0000000000000000
 Li  Sc  Tc 
   1   2   1
Cartesian
  1.6447000787739998  1.6447000787739998  1.6447000787739998
  0.0000000000000000  0.0000000000000000  0.0000000000000000
  3.2893870000000001  3.2893870000000001  3.2893870000000001
  4.9340805000000003  4.9340805000000003  4.9340805000000003
