Sr Cd Pb
 1.0000000000000000
     0.0000000000000000    4.0712840000000003    4.0712840000000003
     4.0712840000000003    0.0000000000000000    4.0712840000000003
     4.0712840000000003    4.0712840000000003    0.0000000000000000
 Sr  Cd  Pb 
   2   1   1
Cartesian
  4.0712840000000003  4.0712840000000003  4.0712840000000003
  0.0000000000000000  0.0000000000000000  0.0000000000000000
  2.0356338574320003  2.0356338574320003  2.0356338574320003
  6.1069178574320002  6.1069178574320002  6.1069178574320002
