Er Cd Cu
 1.0000000000000000
     4.3551539999999997    0.0000020000000000    2.5144549999999999
     1.4517190000000000    4.1060800000000004    2.5144549999999999
     0.0000000000000000    0.0000000000000000    5.0289099999999998
 Er  Cd  Cu 
   1   1   4
Cartesian
  4.3551547499999996  3.0795615000000005  7.5433649999999997
  0.0000000000000000  0.0000000000000000  0.0000000000000000
  4.3650710598029994  1.5362710567240001  5.0289125144549995
  2.1726241123309999  1.5362782620540001  3.7630931217199999
  2.1726241123309999  1.5362782620540001  6.2947369360999996
  2.9034368775619996  3.6033405252520003  5.0289150289100002
