Li Zr N 
 1.0000000000000000
     3.2783069999999999    0.0000000000000000    0.0000000000000000
    -1.6391530000000001    2.8390960000000001    0.0000000000000000
     0.0000000000000000    0.0000000000000000    5.4338110000000004
 Li  Zr  N  
   2   1   2
Cartesian
  1.6391553058199999  0.9463643869680000  2.0842631867030001
 -0.0000013058200001  1.8927316130320000  3.3495478132969998
  0.0000000000000000  0.0000000000000000  0.0000000000000000
  1.6391553058199999  0.9463643869680000  4.2215005968449999
 -0.0000013058200001  1.8927316130320000  1.2123104031550000
