Sr Ga
 1.0000000000000000
     4.3078589999999997   -0.0000000000000000    0.0000000000000000
    -2.1539299999999999    3.7307150000000000    0.0000000000000000
     0.0000000000000000    0.0000000000000000    4.8005440000000004
 Sr  Ga 
   1   2
Cartesian
  0.0000000000000000  0.0000000000000000  0.0000000000000000
 -0.0000024872630002  2.4871445769050000  2.4002720000000002
  2.1539314872629998  1.2435704230950000  2.4002720000000002
