Na P 
 1.0000000000000000
     5.5824619999999996    0.0000000000000000    0.0000000000000000
     0.0000000000000000    6.0007590000000004    0.0000000000000000
     0.0000000000000000    0.0000000000000000   10.0537159999999997
 Na  P  
   8   8
Cartesian
  0.5344704943420000  3.5181489895560003  9.7094968715920000
  3.3257014943419994  2.4826100104440001  5.3710771284079994
  2.2567605056579998  0.5177694895560000  0.3442191284080000
  5.0479915056579996  5.4829895104439998  4.6826388715920002
  2.0468990116919996  5.1799691832210000  6.7122931113880000
  4.8381300116919999  0.8207898167790001  8.3682808886120004
  0.7443319883080000  2.1795896832210002  3.3414228886120001
  3.5355629883079995  3.8211693167790006  1.6854351113879997
  4.8198474486419993  4.1596361274150002  7.1982897428279999
  2.0286164486420000  1.8411168718260000  7.8822842571719995
  3.5538455513579996  1.1592626281740002  2.8554262571720002
  0.7626145513579999  4.8415023725850004  2.1714317428280001
  3.3321101607179999  3.4242191089290004  8.7124497484399992
  0.5408791607180000  2.5765398910710000  6.3681242515600003
  5.0415828392819995  0.4238396089290000  1.3412662515600000
  2.2503518392819997  5.5769193910710007  3.6855917484400003
