Cr S 
 1.0000000000000000
     1.6789000000000001   -2.9079739999999998    0.0000180000000000
     1.6788959999999999    2.9079709999999999   -0.0000250000000000
    -0.0000040000000000   -0.0000240000000000    5.4431649999999996
 Cr  S  
   1   2
Cartesian
 -0.0000023211000000 -0.0000210920050000  5.4431595568099995
  1.6788929920000000  0.9693070721640000  1.3383874026020000
  1.6788956502040000 -0.9693340721609998  4.1047705974049995
