Zn Si Rh
 1.0000000000000000
     0.0000210000000000    2.9496899999999999    2.9497730000000000
     2.9497800000000001    0.0000400000000000    2.9497540000000000
     2.9497599999999999    2.9496509999999998    0.0000620000000000
 Zn  Si  Rh 
   1   1   2
Cartesian
  4.4246678002199999  4.4245357499599995  4.4246888002459999
  1.4748931997810000  1.4748511493409997  1.4749001998349998
  2.9497721506780001  5.8993262516669995  2.9498291002680004
  2.9497922990390002  2.9496963993029999  2.9497945001670001
