Pa Rh
 1.0000000000000000
     4.0307230000000001    0.0000000000000000    0.0000000000000000
     0.0000000000000000    4.0307230000000001    0.0000000000000000
     0.0000000000000000    0.0000000000000000    4.0307230000000001
 Pa  Rh 
   1   3
Cartesian
  0.0000000000000000  0.0000000000000000  0.0000000000000000
  2.0153615000000000  0.0000000000000000  2.0153615000000000
  0.0000000000000000  2.0153615000000000  2.0153615000000000
  2.0153615000000000  2.0153615000000000  0.0000000000000000
