Zr Co P 
 1.0000000000000000
     3.6231200000000001    0.0000000000000000    0.0000000000000000
     0.0000000000000000    4.8976150000000001   -1.8810920000000000
     0.0000000000000000   -0.0102350000000000    7.4856140000000000
 Zr  Co  P  
   4   2   2
Cartesian
  0.9057800000000000  3.8538502371500001  2.7262421311119995
  2.7173400000000001  1.0335297628500000  2.8782798688879998
  0.9057800000000000  3.8473852016600003 -0.8691487320620002
  2.7173400000000001  1.0399947983400002  6.4736707320619997
  0.9057800000000000  1.7281403183449999  4.6475417962800005
  2.7173400000000001  3.1592396816549999  0.9569802037200001
  0.9057800000000000  1.7281057172150001  0.9173151768260001
  2.7173400000000001  3.1592742827849998  4.6872068231739998
