Li I 
 1.0000000000000000
     4.5440690000000004    0.0000000000000000    0.0000000000000000
    -2.2720330000000000    3.9352800000000001    0.0000000000000000
     0.0000000000000000    0.0000000000000000    7.2916980000000002
 Li  I  
   2   2
Cartesian
 -0.0000012720339999  2.6235213117600003  7.2686708177160000
  2.2720372720340003  1.3117586882400001  3.6228218177160003
 -0.0000012720339999  2.6235213117600003  2.7574139322839999
  2.2720372720340003  1.3117586882400001  6.4032629322840000
