Li Ti Rh
 1.0000000000000000
     0.0000000000000000    2.9904739999999999    2.9904739999999999
     2.9904739999999999    0.0000000000000000    2.9904739999999999
     2.9904739999999999    2.9904739999999999    0.0000000000000000
 Li  Ti  Rh 
   1   1   2
Cartesian
  1.4952369999999999  1.4952369999999999  1.4952369999999999
  4.4857169809480002  4.4857169809480002  4.4857169809480002
  0.0000000000000000  0.0000000000000000  0.0000000000000000
  2.9904680190519999  2.9904680190519999  2.9904680190519999
