Ta B 
 1.0000000000000000
     3.0943060000000000    0.0000000000000000    0.0000000000000000
    -1.5471520000000001    2.6797469999999999    0.0000000000000000
     0.0000000000000000    0.0000000000000000    3.3052109999999999
 Ta  B  
   1   2
Cartesian
  0.0000000000000000  0.0000000000000000  0.0000000000000000
  1.5471548804860000  0.8932481067510000  1.6526054999999999
 -0.0000008804860002  1.7864988932490000  1.6526054999999999
