In O 
 1.0000000000000000
     8.3092159999999993    0.0001420000000000   -2.9378860000000002
    -4.1543780000000003    7.1960300000000004   -2.9376000000000002
    -0.0001450000000000    0.0000950000000000    8.8132529999999996
 In  O  
  16  24
Cartesian
  5.0520410727409990  2.0438441437189998  1.6686194543689998
 -0.8981498915400006  5.1539412382240002  1.2702022288859995
 -0.0012232612310000  0.0020551918470000  4.4057422789430003
  0.0005373944869993  7.1959571106890001 -4.4040165408050003
  1.3211720224649994  5.3969813829949995 -1.2690143921270001
  2.8350623038779994  1.7991489363319999  4.2080739759379995
  2.9756640753349992  5.6403436325629999 -4.2079498598190002
  1.1798390495600000  1.5543618101700001  7.1447914369719996
  0.1411876449449997  3.8425613197330000  4.2069222889349991
 -2.8347672912890003  5.3969938214670004  4.6050745022389998
 -2.0756268633470003  3.5981733415830002 -1.4693875737430000
  2.0762371979889989  3.5962984510630003  1.4681519967309997
  6.9880145211049989  1.7993019169490001 -1.6687881049190003
  4.0140538026709995  3.3548282791149999 -1.2702481281910003
 -2.2183331882700004  6.9516496777520009 -1.2691650513120005
  6.3723904936759999  0.2434155632780000  4.2079631982959986
  2.2959268256219989  3.8630731549820001  3.6277745392320000
  1.2528209384679991  5.5563986211160001  0.9553361145279992
  5.8929454544860000  3.6553537811080004 -2.2477648088320006
 -1.0101124750440005  5.5595292405599999  3.3676307687199993
  2.9021711410630000  1.6382564578470000  1.9833562534729996
 -0.7599949429490002  1.9597523088490001 -0.8627030606310001
 -0.0002407847810002  3.2763640058590000  2.0748599180829999
  4.2751643294850004  6.8746781957090004  0.6899440719949992
 -0.7922639365990004  5.2921358970329999 -0.9542335667169999
 -2.0460879429660004  6.9314272919860000  0.9550472629939999
  3.2425652244199989  1.6932959341820000  6.3055322074439992
 -0.1213603753520000  0.3217182952600000  2.2458634640359998
  6.1991689716969995  0.2658183597970000  1.9835805355949998
  4.9154565206189993  5.2352121989849998  3.7999735531109997
  0.7601454033199997  1.9600201222960003  5.0126508563660002
  1.9225057255719997  7.1393538186360006  3.3677160256579990
  3.3956693755749985  5.2380459370390007 -2.0749984260050005
  4.9482614716660001  1.9049083282040000  3.8932931649799993
  5.1652832762039997  1.6385727978700000 -0.4288825463560006
 -1.7382025498300002  3.5419494476480002  5.1838925549879988
  2.2310364111220000  0.0556682343240000 -0.4289560615680002
  0.9138061727669988  5.5014311388630004 -3.3664902686490001
  4.1527318680009992  3.9201188273809997  0.8624253290329995
  1.8592605762099994  3.3321503946919999 -0.6917819609760001
