Ar
 1.0000000000000000
     3.2842519999999999    0.0000000000000000    1.8961640000000000
     1.0947519999999999    3.0964220000000000    1.8961640000000000
     0.0000000000000000    0.0000000000000000    3.7923260000000001
 Ar 
   1
Cartesian
  0.0000000000000000  0.0000000000000000  0.0000000000000000
