Th Pb
 1.0000000000000000
     4.8951219999999998    0.0000000000000000    0.0000000000000000
     0.0000000000000000    4.8951219999999998    0.0000000000000000
     0.0000000000000000    0.0000000000000000    4.8951219999999998
 Th  Pb 
   1   3
Cartesian
  0.0000000000000000  0.0000000000000000  0.0000000000000000
  0.0000000000000000  2.4475609999999999  2.4475609999999999
  2.4475609999999999  2.4475609999999999  0.0000000000000000
  2.4475609999999999  0.0000000000000000  2.4475609999999999
