Y  Fe B 
 1.0000000000000000
     3.3649749999999998   -0.0000000000000000   -1.1707689999999999
    -0.4073430000000000    3.3402300000000000   -1.1707689999999999
    -0.0008230000000000   -0.0009290000000000    5.4187560000000001
 Y   Fe  B  
   1   2   2
Cartesian
  0.0000000000000000  0.0000000000000000  0.0000000000000000
  0.5353249999999999  2.5047079999999999  1.5386090000000001
  2.4214840000000000  0.8345930000000000  1.5386090000000001
  1.9369287974849996  2.1874892148870000  0.1459254773280002
  1.0198802025150000  1.1518117851130001  2.9312925226719999
