Cs Al In H 
 1.0000000000000000
     0.0000000000000000    4.4220410000000001    4.4220410000000001
     4.4220410000000001    0.0000000000000000    4.4220410000000001
     4.4220410000000001    4.4220410000000001    0.0000000000000000
 Cs  Al  In  H  
   2   1   1   6
Cartesian
  2.2110205000000001  2.2110205000000001  2.2110205000000001
  6.6330615000000002  6.6330615000000002  6.6330615000000002
  4.4220410000000001  4.4220410000000001  4.4220410000000001
  0.0000000000000000  0.0000000000000000  0.0000000000000000
  6.2226164984620000  4.4220410000000001  4.4220410000000001
  4.4220410000000001  2.6214655015379997  4.4220410000000001
  4.4220410000000001  6.2226164984620000  4.4220410000000001
  4.4220410000000001  4.4220410000000001  6.2226164984620000
  4.4220410000000001  4.4220410000000001  2.6214655015379997
  2.6214655015379997  4.4220410000000001  4.4220410000000001
