Sm Tm Hg
 1.0000000000000000
     0.0000000000000000    3.7114090000000002    3.7114090000000002
     3.7114090000000002    0.0000000000000000    3.7114090000000002
     3.7114090000000002    3.7114090000000002    0.0000000000000000
 Sm  Tm  Hg 
   1   1   2
Cartesian
  1.8557045000000001  1.8557045000000001  1.8557045000000001
  5.5671209228180007  5.5671209228180007  5.5671209228180007
  0.0000000000000000  0.0000000000000000  0.0000000000000000
  3.7114015771820004  3.7114015771820004  3.7114015771820004
