Mg H  O 
 1.0000000000000000
     1.5682419999999999    2.7192129999999999   -0.1204800000000000
    -1.5682419999999999    2.7192129999999999   -0.1204800000000000
     0.0000000000000000    0.2175680000000000    4.6079520000000000
 Mg  H   O  
   1   2   2
Cartesian
 -1.3809625403599999  2.7192129999999999 -0.1204800000000000
  0.1996230924220000  3.7551061113249999  2.4454388595359999
  0.1996230924219999  1.9008878886749998  1.9215531404640001
  0.1887912449280000  3.7991648073639999  3.4079492942400003
  0.1887912449279999  1.8568291926360001  0.9590427057599999
