Ca Cu Ge
 1.0000000000000000
     3.8556550000000001    0.0000000000000000   -1.4458560000000000
    -0.5421899999999999    3.8173430000000002   -1.4458560000000000
    -0.0033010000000000   -0.0038030000000000    5.8550509999999996
 Ca  Cu  Ge 
   1   2   2
Cartesian
  0.0000000000000000  0.0000000000000000  0.0000000000000000
  2.7545432499999998  0.9524342500000000  1.4816694999999998
  0.5556207500000001  2.8611057500000001  1.4816694999999998
  1.2480233236520002  1.4378099827480002  3.3280956595599998
  2.0621406763480006  2.3757300172520002 -0.3647566595600003
