Na Lu S 
 1.0000000000000000
    -1.9377310000000001   -3.3562460000000001    0.0000000000000000
     1.9377310000000001   -3.3562460000000001    0.0000000000000000
     0.0000000000000000   -2.2374980000000000    6.5971089999999997
 Na  Lu  S  
   1   1   2
Cartesian
  0.0000000000000000  0.0000000000000000  0.0000000000000000
  0.0000000000000000 -4.4749949999999998  3.2985544999999998
 -0.0000000000000000 -2.2374997549300000  1.8217850532409998
 -0.0000000000000001 -6.7124902450699997  4.7753239467590003
