Ni Ge
 1.0000000000000000
     3.5303320000000000    0.0000000000000000    0.0000000000000000
     0.0000000000000000    3.5303350000000000    0.0000000000000000
     0.0000000000000000    0.0000000000000000    3.5303350000000000
 Ni  Ge 
   3   1
Cartesian
  1.7651660000000000  0.0000000000000000  1.7651675000000000
  0.0000000000000000  1.7651675000000000  1.7651675000000000
  1.7651660000000000  1.7651675000000000  0.0000000000000000
  0.0000000000000000  0.0000000000000000  0.0000000000000000
