Ba Pr Cu O 
 1.0000000000000000
     1.9645550000000001  -13.8156060000000007    0.0000000000000000
     1.9645550000000001   13.8156060000000007    0.0000000000000000
     0.0000000000000000    0.0000000000000000    3.9497080000000002
 Ba  Pr  Cu  O  
   2   1   4   8
Cartesian
  1.9645550000000001 -3.7860010370279995  1.9748540000000001
  1.9645550000000001  3.7860010370280004  1.9748540000000001
  1.9645550000000001  0.0000000000000000  1.9748540000000001
  1.9645550000000001 12.0178917160680001  0.0000000000000000
  1.9645550000000001 -12.0178917160680001  0.0000000000000000
  1.9645550000000001  7.9301025815760005  0.0000000000000000
  1.9645550000000001 -7.9301025815760005  0.0000000000000000
  1.9645550000000001 -6.0396026877480002  0.0000000000000000
  1.9645549999999998  6.0396026877480002  0.0000000000000000
  1.9645550000000001 -1.5414347926320000  0.0000000000000000
  1.9645550000000001  1.5414347926320000  0.0000000000000000
  1.9645550000000001 12.2587253598600014  1.9748540000000001
  1.9645550000000003 -12.2587253598599997  1.9748540000000001
  1.9645550000000001  9.7732702092480004  0.0000000000000000
  1.9645550000000001 -9.7732702092480004  0.0000000000000000
