Ti Os Ru
 1.0000000000000000
     0.0000000000000000    3.0775830000000002    3.0775830000000002
     3.0775830000000002    0.0000000000000000    3.0775830000000002
     3.0775830000000002    3.0775830000000002    0.0000000000000000
 Ti  Os  Ru 
   2   1   1
Cartesian
  0.0000000000000000  0.0000000000000000  0.0000000000000000
  3.0775830000000002  3.0775830000000002  3.0775830000000002
  1.5387915000000001  1.5387915000000001  1.5387915000000001
  4.6163806551660000  4.6163806551660000  4.6163806551660000
