Fe Se
 1.0000000000000000
     3.9332910000000001   -0.0000050000000000    0.0000040000000000
    -0.0000040000000000    3.9332889999999998    0.0000000000000000
    -0.0000020000000000    0.0000050000000000    5.8565909999999999
 Fe  Se 
   2   2
Cartesian
  0.9833197500000000  2.9499654999999998  0.0000010000000000
  2.9499672499999998  0.9833185000000000  0.0000030000000000
  0.9833173014170000  0.9833222882350000  1.5089282447819998
  2.9499676985829999  2.9499667117649997  4.3476667552179995
