Hf Co Bi
 1.0000000000000000
     7.8025589999999996    0.0000000000000000    0.0000000000000000
    -3.9012799999999999    6.7572150000000004    0.0000000000000000
     0.0000000000000000    0.0000000000000000    3.6141880000000000
 Hf  Co  Bi 
   6   1   2
Cartesian
  4.7708200826369991  0.0000000000000000  1.8070940000000000
  1.5158692644029996  2.6255631887550002  1.8070940000000000
 -2.3854103470399997  4.1316518112449998  1.8070940000000000
  1.8210314424509999  0.0000000000000000  0.0000000000000000
  2.9907633954689996  5.1801553483650009  0.0000000000000000
 -0.9105158379200000  1.5770596516350002  0.0000000000000000
  0.0000000000000000  0.0000000000000000  1.8070940000000000
 -0.0000042346130002  4.5048122524050003  0.0000000000000000
  3.9012832346129995  2.2524027475950001  0.0000000000000000
