Dy Au
 1.0000000000000000
    -3.7285520000000001   -0.0025290000000000    0.0000000000000000
     0.0000000000000000    0.0000000000000000   -4.6240209999999999
    -1.8679690000000000   -5.4530519999999996    0.0000000000000000
 Dy  Au 
   2   2
Cartesian
 -1.8668575797169999 -3.9416692473059998 -3.4680157500000002
 -3.7296596917309999 -1.5139117501649999 -1.1560052500000000
 -1.8646662988400000 -0.9627415664699999 -3.4680157500000002
 -3.7318584297120001 -4.4928394360589996 -1.1560052500000000
