Sc Ru
 1.0000000000000000
     5.1478960000000002    0.0000000000000000    0.0000000000000000
    -2.5739480000000001    4.4582090000000001    0.0000000000000000
     0.0000000000000000    0.0000000000000000    8.6489670000000007
 Sc  Ru 
   4   8
Cartesian
 -0.0000025739480001  2.9721408194030001  3.7383257084760002
  2.5739505739480002  1.4860681805970000  4.9106412915240005
  2.5739505739480002  1.4860681805970000  8.0628092084760006
 -0.0000025739480001  2.9721408194030001  0.5861577915240000
  0.0000025739479999  1.5307126855230000  6.4867252500000010
 -1.2483081531440001  3.6928504281340002  6.4867252500000010
  1.3256346989600001  0.7653585718660000  2.1622417500000002
  2.5739454260519996  2.9274963144770001  2.1622417500000002
  1.2483133010400003  3.6928504281340002  6.4867252500000010
  0.0000000000000000  0.0000000000000000  0.0000000000000000
  3.8222561531439996  0.7653585718660000  2.1622417500000002
  0.0000000000000000  0.0000000000000000  4.3244835000000004
