Lu Ir Ru
 1.0000000000000000
     0.0000000000000000    3.3132060000000001    3.3132060000000001
     3.3132060000000001    0.0000000000000000    3.3132060000000001
     3.3132060000000001    3.3132060000000001    0.0000000000000000
 Lu  Ir  Ru 
   2   1   1
Cartesian
  0.0000000000000000  0.0000000000000000  0.0000000000000000
  3.3131993735880001  3.3131993735880001  3.3131993735880001
  1.6566030000000000  1.6566030000000000  1.6566030000000000
  4.9698089999999997  4.9698089999999997  4.9698089999999997
