Li Hf Re
 1.0000000000000000
     0.0000000000000000    3.2691010000000000    3.2691010000000000
     3.2691010000000000    0.0000000000000000    3.2691010000000000
     3.2691010000000000    3.2691010000000000    0.0000000000000000
 Li  Hf  Re 
   1   2   1
Cartesian
  1.6345570382019998  1.6345570382019998  1.6345570382019998
  0.0000000000000000  0.0000000000000000  0.0000000000000000
  3.2691075382020003  3.2691075382020003  3.2691075382020003
  4.9036515000000005  4.9036515000000005  4.9036515000000005
