Co B 
 1.0000000000000000
     3.0472239999999999    0.0000000000000000    0.0000000000000000
     0.0000000000000000    3.8877830000000002    0.0000000000000000
     0.0000000000000000    0.0000000000000000    5.1088509999999996
 Co  B  
   4   4
Cartesian
  0.7618060000000000  1.4459014877470000  3.4578185134789998
  2.2854179999999999  2.4418815122530000  1.6510324865209998
  2.2854179999999999  3.3897929877470006  4.2054579865210000
  0.7618060000000000  0.4979900122530000  0.9033930134789998
  0.7618060000000000  3.4000567348670003  2.7182459161660000
  2.2854179999999999  0.4877262651330000  2.3906050838340001
  2.2854179999999999  1.4561652348670002  4.9450305838339990
  0.7618060000000000  2.4316177651330002  0.1638204161660000
