Cs Np O 
 1.0000000000000000
     4.3661110000000001    0.0000000000000000    0.0000000000000000
     0.0000000000000000    4.3661139999999996   -0.0003290000000000
    -2.1830550000000000   -2.1832039999999999    7.4559129999999998
 Cs  Np  O  
   2   1   4
Cartesian
  0.0000025272470000 -0.0002518232340001  5.1324105310259993
  2.1830534727530000  2.1831618232339993  2.3231734689739998
  0.0000000000000000  0.0000000000000000  0.0000000000000000
 -0.0000020551889999  0.0000999398400001  1.9066809207869999
  2.1830580551889995  2.1828100601600000  5.5489030792129999
  0.0000000000000000  2.1830569999999998 -0.0001645000000000
  2.1830555000000000  0.0000000000000000  0.0000000000000000
