Zr Nb B 
 1.0000000000000000
     1.5692219999999999   -2.7179720000000001    0.0000000000000000
     1.5692219999999999    2.7179720000000001    0.0000000000000000
     0.0000000000000000    0.0000000000000000    6.8857280000000003
 Zr  Nb  B  
   1   1   4
Cartesian
  0.0000000000000000  0.0000000000000000  3.4428640000000001
  0.0000000000000000  0.0000000000000000  0.0000000000000000
  1.5692219999999999 -0.9059924786480001  5.2151539870080006
  1.5692219999999999 -0.9059924786480001  1.6705740129920001
  1.5692219999999999  0.9059924786480000  5.2151539870080006
  1.5692219999999999  0.9059924786480000  1.6705740129920001
