Be Al Rh
 1.0000000000000000
     0.0000000000000000    2.8837310000000000    2.8837310000000000
     2.8837310000000000    0.0000000000000000    2.8837310000000000
     2.8837310000000000    2.8837310000000000    0.0000000000000000
 Be  Al  Rh 
   1   1   2
Cartesian
  4.3255964999999996  4.3255964999999996  4.3255964999999996
  1.4418655000000000  1.4418655000000000  1.4418655000000000
  0.0000000000000000  0.0000000000000000  0.0000000000000000
  2.8837310000000000  2.8837310000000000  2.8837310000000000
