Ac F 
 1.0000000000000000
    -1.9920050000000000    1.9920050000000000    3.3786600000000000
     1.9920050000000000   -1.9920050000000000    3.3786600000000000
     1.9920050000000000    1.9920050000000000   -3.3786600000000000
 Ac  F  
   1   3
Cartesian
  0.0000000000000000  0.0000000000000000  0.0000000000000000
 -0.0000000000000001  1.9920050000000002  1.6893300000000000
  1.9920050000000000  0.0000000000000000  1.6893300000000000
  0.0000000000000000  0.0000000000000000  3.3786600000000000
