Mg Sn N 
 1.0000000000000000
     5.9154720000000003    0.0000000000000000    0.0000000000000000
     0.0000000000000000    6.8837580000000003    0.0000000000000000
     0.0000000000000000    0.0000000000000000    5.4800079999999998
 Mg  Sn  N  
   4   4   8
Cartesian
  3.4501990440000005  6.0259729156200006  5.4405135823439998
  2.4652729560000002  0.8577850843800000  2.7005095823440000
  5.4230089560000003  2.5840939156200000  2.7005095823440000
  0.4924630440000001  4.2996640843799998  5.4405135823439998
  3.4520150939040000  2.5768384346880002  5.4570248464479993
  2.4634569060960003  4.3069195653120005  2.7170208464479999
  5.4211929060960005  6.0187174346879999  2.7170208464479999
  0.4942790939040000  0.8650405653120000  5.4570248464479993
  3.4238870245440003  2.6010210765420001  2.0563291619360000
  2.4915849754560004  4.2827369234580006  4.7963331619359995
  5.4493209754559997  6.0429000765419998  4.7963331619359995
  0.4661510245440000  0.8408579234580000  2.0563291619360000
  3.4603204165919998  6.0052252690080001  2.0668288572639999
  2.4551515834080000  0.8785327309919999  4.8068328572639993
  5.4128875834080006  2.5633462690080000  4.8068328572639993
  0.5025844165920000  4.3204117309920003  2.0668288572639999
