Ti Sn C 
 1.0000000000000000
     3.1498279999999999    0.0000000000000000    0.0000000000000000
    -1.5749139999999999    2.7278310000000001    0.0000000000000000
     0.0000000000000000    0.0000000000000000   18.7520750000000014
 Ti  Sn  C  
   6   2   4
Cartesian
  1.5749155749140000  0.9092760907230000 16.4274177664000014
 -0.0000015749140001  1.8185549092770001  2.3246572336000000
  0.0000000000000000  0.0000000000000000  0.0000000000000000
  0.0000000000000000  0.0000000000000000  9.3760375000000007
  1.5749155749140000  0.9092760907230000 11.7006947336000007
 -0.0000015749140001  1.8185549092770001  7.0513802663999998
  0.0000000000000000  0.0000000000000000 14.0640562500000001
  0.0000000000000000  0.0000000000000000  4.6880187500000003
 -0.0000015749140001  1.8185549092770001 10.6528850388250014
  1.5749155749140000  0.9092760907230000  1.2768475388250000
  1.5749155749140000  0.9092760907230000  8.0991899611750000
 -0.0000015749140001  1.8185549092770001 17.4752274611750025
