Hf Al
 1.0000000000000000
    -2.6634159999999998   -4.6131719999999996    0.0000000000000000
    -2.6634159999999998    4.6131719999999996    0.0000000000000000
     0.0000000000000000    0.0000000000000000   -5.4054349999999998
 Hf  Al 
   4   3
Cartesian
  0.0000000000000000  0.0000000000000000 -4.0017354228949999
  0.0000000000000000  0.0000000000000000 -1.4036995771049998
 -2.6634159999999998 -1.5377270754480001 -2.7027174999999999
 -2.6634159999999998  1.5377270754480001 -2.7027174999999999
 -2.6634159999999998  0.0000000000000000  0.0000000000000000
 -1.3317079999999999  2.3065859999999998  0.0000000000000000
 -1.3317079999999999 -2.3065859999999998  0.0000000000000000
