Ga P  Pd
 1.0000000000000000
     3.9026850000000000    0.0000000000000000    0.0000000000000000
     0.0000000000000000    3.9026850000000000    0.0000000000000000
     0.0000000000000000    0.0000000000000000    6.7968409999999997
 Ga  P   Pd 
   1   1   5
Cartesian
  1.9513425000000000  1.9513425000000000  0.0000000000000000
  0.0000000000000000  0.0000000000000000  3.3984204999999998
  0.0000000000000000  1.9513425000000000  1.9777991689080001
  0.0000000000000000  1.9513425000000000  4.8190418310920000
  1.9513425000000000  0.0000000000000000  1.9777991689080001
  1.9513425000000000  0.0000000000000000  4.8190418310920000
  0.0000000000000000  0.0000000000000000  0.0000000000000000
