Ca Sb O 
 1.0000000000000000
     5.2579159999999998    0.0000000000000000    0.0000000000000000
    -2.6289579999999999    4.5534879999999998    0.0000000000000000
     0.0000000000000000    0.0000000000000000    5.0214429999999997
 Ca  Sb  O  
   1   2   6
Cartesian
  0.0000000000000000  0.0000000000000000  0.0000000000000000
 -0.0000026289580001  3.0356601844959998  2.5107214999999998
  2.6289606289580001  1.5178278155039999  2.5107214999999998
  0.9679060958180000  1.6764622304480001  3.6009872470460000
  3.3221038083639995  0.0000000000000000  3.6009872470460000
 -1.6610519041819998  2.8770257695519996  3.6009872470460000
  1.9358121916360000  0.0000000000000000  1.4204557529540001
 -0.9679060958180000  1.6764622304480001  1.4204557529540001
  1.6610519041819998  2.8770257695519996  1.4204557529540001
