Si Ni
 1.0000000000000000
     3.6973270000000000    0.0000000000000000    0.0000000000000000
     0.0000000000000000    4.9287380000000001    0.0000000000000000
     0.0000000000000000    0.0000000000000000    7.0020689999999997
 Si  Ni 
   4   8
Cartesian
  0.9243317500000000  3.8976361529240000  0.7936425087360000
  2.7729952500000001  1.0311018470760001  6.2084264912639995
  0.9243317500000000  1.4332671529240000  2.7073919912639997
  2.7729952500000001  3.4954708470760001  4.2946770087359996
  0.9243317500000000  4.7211395554399997  5.5508901997499995
  2.7729952500000001  0.2075984445600000  1.4511788002499999
  0.9243317500000000  2.2567705554400002  4.9522133002500004
  2.7729952500000001  2.6719674445600003  2.0498556997500001
  0.9243317500000000  4.0851992775139996  3.0777454248120000
  2.7729952500000001  0.8435387224859999  3.9243235751879997
  0.9243317500000000  1.6208302775140000  0.4232890751880000
  2.7729952500000001  3.3079077224860001  6.5787799248120002
