Na Bi O 
 1.0000000000000000
    -0.0002920000000000    4.5131309999999996    0.0015240000000000
    -5.4191669999999998    2.2569070000000000   -0.0352470000000000
    -2.1160679999999998    0.0020790000000000    6.1420969999999997
 Na  Bi  O  
   5   1   5
Cartesian
 -5.3892639794029993  4.5282089365250000  5.3371578814359992
 -4.0716580660049999  4.5274349703840002  2.0887701611750003
 -3.6666656873990000  2.2747476584629998  4.2178983044810003
 -2.3524610648759996  2.2697734751929994  0.9664392647339999
 -1.1617227860699999  4.5328387809859993  3.1717507757950001
 -0.1029610964880000  4.5264419482509997  0.1000712156620000
 -5.7806917163250002  2.2720487364020001  5.2100860469989998
 -0.1025720051870000  2.2705871421049997  0.0989663264670000
 -4.5420005924980007  2.2711187178339998  1.9586129277590001
 -3.1986514246989999  4.5313634766230004  4.3458116389899999
 -1.9601094502040002  4.5248956942509997  1.0938246952110000
