Li Sc Ir
 1.0000000000000000
    -0.0000470000000000    3.2633690000000000    3.2633700000000001
     3.2633690000000000   -0.0000470000000000    3.2633700000000001
     3.2633690000000000    3.2633690000000000   -0.0000470000000000
 Li  Sc  Ir 
   1   2   1
Cartesian
  4.8950247766909998  4.8950247766909998  4.8950262766930006
  0.0000000000000000  0.0000000000000000  0.0000000000000000
  3.2633389733090001  3.2633389733090001  3.2633399733070001
  1.6316727499999999  1.6316727499999999  1.6316732500000000
