Ca Sb Pt
 1.0000000000000000
     4.6381779999999999    0.0000000000000000    0.0000000000000000
     0.0000000000000000    7.4068160000000001    0.0000000000000000
     0.0000000000000000    0.0000000000000000    7.9689459999999999
 Ca  Sb  Pt 
   4   4   4
Cartesian
  3.4786334999999999  7.3480429150399997  2.4080640712259997
  1.1595445000000000  0.0587730849600000  5.5608819287739992
  3.4786334999999999  3.6446349150399997  1.5764089287740000
  1.1595445000000000  3.7621810849600004  6.3925370712260001
  3.4786334999999999  2.3237181632319999  4.7060052776779999
  1.1595445000000000  1.3796898367679999  0.7215322776780000
  1.1595445000000000  5.0830978367680002  3.2629407223219999
  3.4786334999999999  6.0271261632319995  7.2474137223219994
  1.1595445000000000  5.9436217196480001  0.6760136581260000
  1.1595445000000000  2.2402137196480001  3.3084593418739998
  3.4786334999999999  5.1666022803520004  4.6604866581259996
  3.4786334999999999  1.4631942803519999  7.2929323418739997
