Mg Cd
 1.0000000000000000
     3.2373769999999999    0.0000000000000000    0.0000000000000000
     0.0000000000000000    5.0544000000000002    0.0000000000000000
     0.0000000000000000    0.0000000000000000    5.2896049999999999
 Mg  Cd 
   2   2
Cartesian
  1.6186885000000000  1.2636000000000001  3.6170160301849998
  1.6186885000000000  3.7907999999999999  1.6725889698150000
  0.0000000000000000  1.2636000000000001  0.9628297709149999
  0.0000000000000000  3.7907999999999999  4.3267752290849995
