Mo C 
 1.0000000000000000
     2.9239030000000001    0.0000000000000000    0.0000000000000000
    -1.4619519999999999    2.5321739999999999    0.0000000000000000
     0.0000000000000000    0.0000000000000000    2.8338450000000002
 Mo  C  
   1   1
Cartesian
  0.0000000000000000  0.0000000000000000  0.0000000000000000
 -0.0000017952849999  1.6881168440579999  1.4169225000000001
