Ni Sb
 1.0000000000000000
     3.9296700000000002    0.0000000000000000    0.0000000000000000
    -1.9648340000000000    3.4031940000000001    0.0000000000000000
     0.0000000000000000    0.0000000000000000    5.1161870000000000
 Ni  Sb 
   2   2
Cartesian
  0.0000000000000000  0.0000000000000000  0.0000000000000000
  0.0000000000000000  0.0000000000000000  2.5580935000000000
 -0.0000012981680000  2.2687971343980000  1.2790467500000000
  1.9648372981680000  1.1343968656020000  3.8371402500000000
