Li Co Si
 1.0000000000000000
     0.0000000000000000    2.7048890000000001    2.7048890000000001
     2.7048890000000001    0.0000000000000000    2.7048890000000001
     2.7048890000000001    2.7048890000000001    0.0000000000000000
 Li  Co  Si 
   1   2   1
Cartesian
  1.3524499097779998  1.3524499097779998  1.3524499097779998
  0.0000000000000000  0.0000000000000000  0.0000000000000000
  2.7048944097780003  2.7048944097780003  2.7048944097780003
  4.0573335000000004  4.0573335000000004  4.0573335000000004
