Sc Al Fe
 1.0000000000000000
     4.5947180000000003   -0.0010800000000000    1.8807900000000000
     2.2955459999999999    6.0846869999999997    0.9413280000000001
    -0.0103290000000000    0.0010100000000000    6.5710670000000002
 Sc  Al  Fe 
   1   8   4
Cartesian
  0.0000000000000000  0.0000000000000000  0.0000000000000000
  3.8170502921940006  2.0536876103730002  3.7825835929320002
  1.5171149076319999  4.0308376231000000  2.8418490569920003
  5.3628200923680005  2.0537793768999997  6.5513359430079996
  3.0628847078060000  4.0309293896270004  5.6106014070680006
  5.0853688992909998  4.7560913609990001  7.2226848865609998
  1.7945661007090001  1.3285256390009998  2.1705001134390001
  4.0893688303700007  4.7555510031710000  3.1110750070400002
  2.7905661696299999  1.3290659968290000  6.2821099929599997
  3.4451320000000001  3.0418034999999999  1.4110590000000001
  1.1477729999999999  3.0423434999999999  0.4706640000000000
  2.2921945000000004 -0.0000350000000000  4.2259285000000002
 -0.0051645000000000  0.0005050000000000  3.2855335000000001
