Ca Pm Au
 1.0000000000000000
    -0.0001900000000000    3.6336300000000001    3.6336300000000001
     3.6336300000000001   -0.0001900000000000    3.6336300000000001
     3.6336300000000001    3.6336300000000001   -0.0001900000000000
 Ca  Pm  Au 
   1   1   2
Cartesian
  1.8167820341400001  1.8167820341400001  1.8167820341400001
  5.4502879658600003  5.4502879658600003  5.4502879658600003
  3.6335350000000002  3.6335350000000002  3.6335350000000002
  7.2670554658600004  7.2670554658600004  7.2670554658600004
