Sr Cr N 
 1.0000000000000000
     7.7865690000000001    0.0000390000000000    0.0000000000000000
    -3.8933179999999998    6.7433480000000001    0.0000000000000000
     0.0000000000000000    0.0000000000000000    5.2295520000000000
 Sr  Cr  N  
   6   2   6
Cartesian
  2.1775052544289997  4.8994315370230002  3.9221640000000000
  4.6322901189530006  4.3355297249169995  1.3073880000000000
  5.3317841354760001  0.5639408121060000  1.3073880000000000
 -1.4385331354760000  6.1794461878940004  3.9221640000000000
 -0.7390391189530000  2.4078572750830003  3.9221640000000000
  1.7157457455710001  1.8439554629770001  1.3073880000000000
  3.8932772266290003  2.2478064188969999  3.9221640000000000
 -0.0000262266290000  4.4955805811029999  1.3073880000000000
  1.7164678145750001  4.6141240922950004  1.3073880000000000
  4.6488548434099997  3.7936058221000000  3.9221640000000000
  4.8541819711649996  0.8205572701950000  3.9221640000000000
 -0.9609309711649998  5.9228297298049997  1.3073880000000000
 -0.7556038434100001  2.9497811779000003  1.3073880000000000
  2.1767831854250002  2.1292629077050003  3.9221640000000000
