Li Ga
 1.0000000000000000
     4.3100189999999996    0.0000000000000000    0.0000000000000000
     0.0000000000000000    4.0485850000000001   -1.9356160000000000
     0.0000000000000000   -0.0097710000000000    5.1814340000000003
 Li  Ga 
   4   2
Cartesian
  1.0775047499999999  2.3543114414430000 -0.2775473329820001
  3.2325142499999995  1.6845066071419998  3.5233633973660003
  3.2325142499999995  3.0696236675360002  1.2186392855820001
  1.0775047499999999  0.9691903324640000  2.0271787144180000
  1.0775047499999999  3.7268572876390000  2.5933211593959999
  3.2325142499999995  0.3119567123610000  0.6524968406040000
