Ca Y  Hg
 1.0000000000000000
    -0.0000010000000000    3.7176990000000001    3.7176990000000001
     3.7176990000000001   -0.0000010000000000    3.7176990000000001
     3.7176990000000001    3.7176990000000001   -0.0000010000000000
 Ca  Y   Hg 
   1   1   2
Cartesian
  1.8588566853969999  1.8588566853969999  1.8588566853969999
  5.5765477499999996  5.5765477500000005  5.5765477500000005
  0.0000000000000000  0.0000000000000000  0.0000000000000000
  3.7176910646030001  3.7176910646030001  3.7176910646030001
