Mo P 
 1.0000000000000000
     4.7995989999999997    0.0150120000000000    2.2892790000000001
     1.8670359999999999    5.4803509999999998    0.8905260000000000
    -0.0019450000000000    0.0075060000000000    6.1800269999999999
 Mo  P  
   2   8
Cartesian
  0.7512172320260000  1.3775937349879999  5.8021862513459999
  5.9134727679739996  4.1252752650120001  3.5576457486540001
  2.9869528771360003  1.7169805996559999  4.8445254096959998
  4.8880599119000001  1.0532188853320001  5.7513020469000002
  1.4811215889750000  1.7351595447449999  1.8649699425810000
  3.3516678568869995  1.0200279702670001  2.7571699172730000
  5.1835684110249991  3.7677094552549995  7.4948620574190006
  3.3130221431130003  4.4828410297329997  6.6026620827269999
  1.7766300881000001  4.4496501146679996  3.6085299530999997
  3.6777371228639999  3.7858884003439996  4.5153065903040002
