Hf Pt
 1.0000000000000000
     5.7074330000000000    0.0000000000000000    0.0000000000000000
    -2.8537159999999999    4.9427810000000001    0.0000000000000000
     0.0000000000000000    0.0000000000000000    9.3206019999999992
 Hf  Pt 
   4  12
Cartesian
  0.0000000000000000  0.0000000000000000  0.0000000000000000
  0.0000000000000000  0.0000000000000000  4.6603009999999996
 -0.0000025203830000  3.2951889809270001  2.3301504999999998
  2.8537195203830001  1.6475920190730000  6.9904514999999989
  2.8537165000000000  0.0000000000000000  0.0000000000000000
  1.4268585000000000  2.4713905000000000  4.6603009999999996
 -1.4268580000000000  2.4713905000000000  4.6603009999999996
 -1.4268580000000000  2.4713905000000000  0.0000000000000000
  1.4268585000000000  2.4713905000000000  0.0000000000000000
  2.8537165000000000  0.0000000000000000  4.6603009999999996
  2.8537196844710002  3.2696941165290001  2.3301504999999998
 -1.4047843374950000  4.1062400296549999  6.9904514999999989
  1.4047794608170001  4.1062400296549999  6.9904514999999989
  1.4489375391829999  0.8365409703450001  2.3301504999999998
  4.2585013374949998  0.8365409703450001  2.3301504999999998
 -0.0000026844709999  1.6730868834710000  6.9904514999999989
