Cu Au
 1.0000000000000000
     3.7876370000000001    0.0000000000000000    0.0000000000000000
     0.0000000000000000    3.7876370000000001    0.0000000000000000
     0.0000000000000000    0.0000000000000000    3.7876370000000001
 Cu  Au 
   3   1
Cartesian
  0.0000000000000000  1.8938185000000001  1.8938185000000001
  1.8938185000000001  1.8938185000000001  0.0000000000000000
  1.8938185000000001  0.0000000000000000  1.8938185000000001
  0.0000000000000000  0.0000000000000000  0.0000000000000000
