Dy S  I 
 1.0000000000000000
     4.1888150000000000    0.0000000000000000    0.0000000000000000
     0.0000000000000000    5.3256129999999997    0.0000000000000000
     0.0000000000000000    0.0000000000000000    9.6364230000000006
 Dy  S   I  
   2   2   2
Cartesian
  1.0472037500000000  1.3314032499999999  1.1336191652970000
  3.1416112500000000  3.9942097499999996  8.5028038347030002
  3.1416112500000000  1.3314032499999999  9.0088798613940000
  1.0472037500000000  3.9942097499999996  0.6275431386060001
  1.0472037500000000  3.9942097499999996  6.2974120669230000
  3.1416112500000000  1.3314032499999999  3.3390109330770001
