Sn Pt
 1.0000000000000000
     4.0642160000000001    0.0000000000000000    0.0000000000000000
     0.0000000000000000    4.0642160000000001    0.0000000000000000
     0.0000000000000000    0.0000000000000000    4.0642160000000001
 Sn  Pt 
   1   3
Cartesian
  0.0000000000000000  0.0000000000000000  0.0000000000000000
  2.0321080000000000  2.0321080000000000  0.0000000000000000
  2.0321080000000000  0.0000000000000000  2.0321080000000000
  0.0000000000000000  2.0321080000000000  2.0321080000000000
