Sr Ta Ga O 
 1.0000000000000000
    -2.7858459999999998    2.7858459999999998    3.9708770000000002
     2.7858459999999998   -2.7858459999999998    3.9708770000000002
     2.7858459999999998    2.7858459999999998   -3.9708770000000002
 Sr  Ta  Ga  O  
   2   1   1   6
Cartesian
 -0.0000000000000002  2.7858460000000003  1.9854385000000001
  2.7858459999999998  0.0000000000000000  1.9854385000000001
  0.0000000000000000  0.0000000000000000  3.9708770000000002
  0.0000000000000000  0.0000000000000000  0.0000000000000000
  1.2376009421159999  1.5481893409639997  3.9708770000000002
  1.2376566590360001  4.0234469421159993 -0.0000000000000001
  1.5481893409640000 -1.2376009421159999  3.9708769999999998
  1.5482450578839997  1.2376566590359999  0.0000000000000001
  0.0000000000000000 -0.0000000000000000  1.9872174528960000
  0.0000000000000002 -0.0000000000000002  5.9545365471040004
