Gd Re O 
 1.0000000000000000
     8.5794370000000004    0.0009030000000000    0.0000000000000000
    -0.0009030000000000    8.5794370000000004    0.0000000000000000
     0.0000000000000000    0.0000000000000000    5.7109180000000004
 Gd  Re  O  
   8   4  20
Cartesian
  3.0713622509090004  3.0066352390170006  1.4244571439860001
  7.2959022390169999  1.2188077490909999  1.4244571439860001
  1.2826317609830002  7.3615322509090007  1.4244571439860001
  5.5071717490910004  5.5737047609830004  1.4244571439860001
  7.3606292509090006  7.2968052390170000  4.2864608560140010
  3.0057322390170005  5.5080747490910005  4.2864608560140010
  5.5728017609830003  3.0722652509090000  4.2864608560140010
  1.2179047490910000  1.2835347609830001  4.2864608560140010
 -0.0004515000000000  4.2897185000000002  0.8523373787460000
  4.2897185000000002  0.0004515000000000  4.8585806212540001
 -0.0004515000000000  4.2897185000000002  3.0971050733340006
  4.2897185000000002  0.0004515000000000  2.6138129266660002
  0.0000000000000000  0.0000000000000000  0.0000000000000000
  4.2892670000000006  4.2901699999999998  0.0000000000000000
  0.0000000000000000  0.0000000000000000  2.8554590000000002
  4.2892670000000006  4.2901699999999998  2.8554590000000002
  2.5622793333449998  7.7805836904190002  5.1598943658520007
  3.4904136904190004  1.7269876666550001  5.1598943658520007
  5.0881203095809999  6.8533523333450006  5.1598943658520007
  6.0162546666550005  0.7997563095810001  5.1598943658520007
  1.7260846666550003  5.0890233095810000  0.5510236341480000
  0.7988533095810000  2.5631823333449999  0.5510236341480000
  7.7796806904190001  6.0171576666549997  0.5510236341480000
  6.8524493333450005  3.4913166904190001  0.5510236341480000
  7.7976579190009998  2.5621601845549997  3.4475669782400002
  6.8505241845550007  5.0719490809990004  3.4475669782400002
  1.7280098154449999  3.5083909190010005  3.4475669782400002
  0.7808760809990001  6.0181798154450004  3.4475669782400002
  5.0710460809990012  1.7289128154450000  2.2633510217600001
  6.0172768154450003  7.7985609190009999  2.2633510217600001
  2.5612571845550001  0.7817790809990001  2.2633510217600001
  3.5074879190010004  6.8514271845550008  2.2633510217600001
