Nd Sc Ge
 1.0000000000000000
    -2.1590799999999999    2.1590799999999999    8.0020080000000000
     2.1590799999999999   -2.1590799999999999    8.0020080000000000
     2.1590799999999999    2.1590799999999999   -8.0020080000000000
 Nd  Sc  Ge 
   2   2   2
Cartesian
  0.0000000000000001 -0.0000000000000001 10.8401922054720004
  0.0000000000000000 -0.0000000000000000  5.1638237945279997
  0.0000000000000000  2.1590799999999999  0.0000000000000000
  2.1590799999999999  0.0000000000000000  0.0000000000000000
  0.0000000000000000 -0.0000000000000000  1.9565709760800001
 -0.0000000000000000  0.0000000000000000 14.0474450239199999
