Ga P 
 1.0000000000000000
     5.5064710000000003    0.0000000000000000    0.0000000000000000
     0.0000000000000000    5.5064710000000003    0.0000000000000000
     0.0000000000000000    0.0000000000000000    5.5064710000000003
 Ga  P  
   4   4
Cartesian
  0.0000000000000000  0.0000000000000000  0.0000000000000000
  0.0000000000000000  2.7532355000000002  2.7532355000000002
  2.7532355000000002  0.0000000000000000  2.7532355000000002
  2.7532355000000002  2.7532355000000002  0.0000000000000000
  4.1298532500000000  1.3766177500000001  1.3766177500000001
  4.1298532500000000  4.1298532500000000  4.1298532500000000
  1.3766177500000001  1.3766177500000001  4.1298532500000000
  1.3766177500000001  4.1298532500000000  1.3766177500000001
