Mn Be Ir
 1.0000000000000000
    -0.0000370000000000    2.7733219999999998    2.7733240000000001
     2.7733219999999998   -0.0000370000000000    2.7733240000000001
     2.7733219999999998    2.7733219999999998   -0.0000370000000000
 Mn  Be  Ir 
   1   2   1
Cartesian
  4.1599552499629997  4.1599580233219999  4.1599610233240005
  2.7733035000369997  2.7733007266780003  2.7733027266760000
  0.0000000000000000  0.0000000000000000  0.0000000000000000
  1.3866572966069997  1.3866572966069997  1.3866582966109999
