Ti Be Co
 1.0000000000000000
    -0.0000050000000000    2.7728440000000001    2.7728449999999998
     2.7728440000000001   -0.0000050000000000    2.7728440000000001
     2.7728440000000001    2.7728449999999998   -0.0000060000000000
 Ti  Be  Co 
   1   1   2
Cartesian
  4.1592622500000003  4.1592630000000002  4.1592622499999994
  1.3864262956829998  1.3864265456839999  1.3864262956829998
  2.7728415000000002  2.7728419999999998  2.7728414999999997
  0.0000055456830000  0.0000055456840000  0.0000055456830000
