Y  B  Ir
 1.0000000000000000
     5.3067240000000000   -0.0227090000000000   -1.3459239999999999
    -2.8657040000000000    4.4664950000000001   -1.3459239999999999
     0.0135990000000000    0.0247560000000000    6.1738780000000002
 Y   B   Ir 
   2   4   4
Cartesian
 -1.8339512499999999  3.9239115000000000  3.2844845000000005
  4.2885702499999994  0.5446305000000000  0.1975455000000002
  3.7206437509000003  0.8727117713000000  3.2844845000000005
  1.6707372509000002  1.9826347713000001  0.1975455000000002
  0.7838817491000000  2.4859072287000004  3.2844845000000005
 -1.2660247509000000  3.5958302287000001  0.1975455000000002
  2.5519595971760003  2.2248968017360005 -1.6637497857440000
  0.5156520971760001  3.3595758017360002  1.4231892142560001
 -0.0973405971760000  2.2436451982640002  5.1457797857440006
  1.9389669028240000  1.1089661982640000  2.0588407857440005
