Pb I 
 1.0000000000000000
     4.6178429999999997    0.0000000000000000    0.0000000000000000
    -2.3089209999999998    3.9991699999999999    0.0000000000000000
     0.0000000000000000    0.0000000000000000   14.5512300000000003
 Pb  I  
   2   4
Cartesian
  2.3089239755879998  1.3330553336099999  7.2770846742300002
 -0.0000019755880000  2.6661146663899999  0.0014696742300000
  2.3089239755879998  1.3330553336099999 12.6792433629600012
  0.0000000000000000  0.0000000000000000  1.8705315140400001
  0.0000000000000000  0.0000000000000000  9.1461465140399998
 -0.0000019755880000  2.6661146663899999  5.4036283629600002
