Dy Br
 1.0000000000000000
     9.9720379999999995   -0.0005110000000000   -0.0000320000000000
    -4.9864629999999996    8.6362790000000000   -0.0000200000000000
    -0.0000200000000000   -0.0000530000000000    3.7361970000000002
 Dy  Br 
   2   6
Cartesian
 -0.0002810836099998  5.7573034910649996  2.8021274861250003
  4.9858161404019992  2.8783942378570004  0.9340212502080001
 -0.0020575988299999  3.6533356835920001  0.9339854561270000
  1.8227878283130006  6.8076620144010001  0.9340710637750000
 -1.8213739572429999  6.8110268111390004  0.9339930758150000
  4.9839329186240002  4.9823449609789998  2.8021520834310003
  3.1645922204369996  1.8248230186079999  2.8021225143940005
  6.8087985462519995  1.8279611463790000  2.8021220149650001
