Pr Te
 1.0000000000000000
     4.5280050000000003    0.0000000000000000    0.0000000000000000
     0.0000000000000000    4.5280050000000003    0.0000000000000000
     0.0000000000000000    0.0000000000000000    9.2556860000000007
 Pr  Te 
   2   4
Cartesian
  1.1320012500000001  1.1320012500000001  2.5152511818720003
  3.3960082780050005  3.3960082780050005  6.7404255624420006
  3.3960082780050005  1.1320012500000001  0.0000000000000000
  1.1320012500000001  3.3960082780050005  0.0000000000000000
  1.1320012500000001  1.1320012500000001  5.8312117596039998
  3.3960082780050005  3.3960082780050005  3.4244742403960000
