Sc Pt
 1.0000000000000000
     4.0112240000000003    0.0000000000000000    0.0000000000000000
     0.0000000000000000    4.0112240000000003    0.0000000000000000
     0.0000000000000000    0.0000000000000000    4.0112240000000003
 Sc  Pt 
   1   3
Cartesian
  0.0000000000000000  0.0000000000000000  0.0000000000000000
  2.0056120000000002  2.0056120000000002  0.0000000000000000
  2.0056120000000002  0.0000000000000000  2.0056120000000002
  0.0000000000000000  2.0056120000000002  2.0056120000000002
