Er Fe
 1.0000000000000000
     0.0000000000000000    3.6288779999999998    3.6288779999999998
     3.6288779999999998    0.0000000000000000    3.6288779999999998
     3.6288779999999998    3.6288779999999998    0.0000000000000000
 Er  Fe 
   2   4
Cartesian
  3.6288779999999998  3.6288779999999998  3.6288779999999998
  5.4433169999999995  5.4433169999999995  5.4433169999999995
  0.9072195000000000  2.7216584999999998  2.7216584999999998
  2.7216584999999998  2.7216584999999998  0.9072195000000000
  2.7216584999999998  0.9072195000000000  2.7216584999999998
  0.9072195000000000  0.9072195000000000  0.9072195000000000
