Ti Tl P  S 
 1.0000000000000000
     6.6812810000000002    0.0636540000000000   -1.0734159999999999
    -0.4611640000000000    6.7051360000000004   -2.3653990000000000
    -0.2427970000000000   -0.3206980000000000    9.8186190000000000
 Ti  Tl  P   S  
   2   2   2  10
Cartesian
  3.2131933997700002  1.8845236173360000 -1.1896984847120000
  2.7641266002300000  4.5635683826640001  7.5695024847120003
  4.3914539258659993  4.6946653450199998  1.7384499351629998
  1.5858660741340000  1.7534266549800002  4.6413540648370004
  1.2951447948830004  5.6039558321580003  4.8752622096850002
  4.6821752051170007  0.8441361678420002  1.5045417903149998
  0.6466506753300000  4.3171933352920009  6.3591456277120004
  2.0318853183479999  3.7438567920839998 -0.4912394647409998
  2.6819667600940003  0.5280190884560001  0.9986159104300001
  3.2953532399059999  5.9200729115440005  5.3811880895700002
  0.8925856628210000  0.7391286510860000  7.6224821120810002
  4.9629883677039999  1.5158388032400001  3.3559570215900001
  3.9454346816520003  2.7042352079160006  6.8710434647409997
  1.0143316322959999  4.9322531967600005  3.0238469784100004
  5.0847343371789995  5.7089633489140006 -1.2426781120810000
  5.3306693246699997  2.1308986647079999  0.0206583722880001
