Hf Se
 1.0000000000000000
     3.7663280000000001    0.0000000000000000    0.0000000000000000
    -1.8831629999999999    3.2617349999999998    0.0000000000000000
     0.0000000000000000    0.0000000000000000    6.4098350000000002
 Hf  Se 
   1   2
Cartesian
  0.0000000000000000  0.0000000000000000  0.0000000000000000
  1.8831662164970002  1.0872439127550000  4.8615714049249998
 -0.0000012164970000  2.1744910872449998  1.5482635950750001
