Hf Si Rh
 1.0000000000000000
     3.9250159999999998    0.0000000000000000    0.0000000000000000
     0.0000000000000000    6.5216589999999997    0.0000000000000000
     0.0000000000000000    0.0000000000000000    7.4617599999999999
 Hf  Si  Rh 
   4   4   4
Cartesian
  0.9812540000000000  3.3938452569639996  6.0837370867200002
  2.9437620000000000  3.1278137430359996  1.3780229132800002
  0.9812540000000000  0.1330157569640000  5.1089029132799997
  2.9437620000000000  6.3886432430360003  2.3528570867199998
  0.9812540000000000  5.0422010908730002  0.8756748448000000
  2.9437620000000000  1.4794579091269999  6.5860851552000002
  0.9812540000000000  1.7813715908729997  2.8552051552000002
  2.9437620000000000  4.7402874091269993  4.6065548447999998
  2.9437620000000000  5.5432340652069998  6.9694703840000001
  0.9812540000000000  0.9784249347929999  0.4922896160000000
  2.9437620000000000  2.2824045652069995  4.2231696159999998
  0.9812540000000000  4.2392544347929997  3.2385903840000001
