Cd Sb
 1.0000000000000000
     6.6008589999999998    0.0000000000000000    0.0000000000000000
     0.0000000000000000    8.4280290000000004    0.0000000000000000
     0.0000000000000000    0.0000000000000000    8.7411530000000006
 Cd  Sb 
   8   8
Cartesian
  2.9930076937929999  1.0228255994400000  7.5778279118420002
  6.2934371937930003  3.1911889005599998  1.1633250881580002
  3.6078513062069999  5.2368400994400002  5.5339015881580007
  0.3074218062070000  7.4052034005600005  3.2072514118420004
  3.6078513062069999  7.4052034005600005  1.1633250881580002
  0.3074218062070000  5.2368400994400002  7.5778279118420002
  2.9930076937929999  3.1911889005599998  3.2072514118420004
  6.2934371937930003  1.0228255994400000  5.5339015881580007
  0.9155325424409999  0.6170497152060000  0.9064837895590001
  4.2159620424410003  3.5969647847940003  7.8346692104410005
  5.6853264575589995  4.8310642152060002  3.4640927104410002
  2.3848969575590000  7.8109792847940005  5.2770602895590004
  5.6853264575589995  7.8109792847940005  7.8346692104410005
  2.3848969575590000  4.8310642152060002  0.9064837895590001
  0.9155325424409999  3.5969647847940003  5.2770602895590004
  4.2159620424410003  0.6170497152060000  3.4640927104410002
