Li Cu O 
 1.0000000000000000
     8.6394090000000006    0.0000000000000000    0.0000000000000000
     0.0000000000000000    8.6394090000000006    0.0000000000000000
     0.0000000000000000    0.0000000000000000    3.5555850000000002
 Li  Cu  O  
  12   4  12
Cartesian
  2.8863747104460002  5.7530342895540008  1.7777925000000001
  7.2060792104460001  7.2060792104460001  0.0000000000000000
  5.7530342895540008  2.8863747104460002  1.7777925000000001
  1.4333297895540000  1.4333297895540000  0.0000000000000000
  1.2186663941310001  5.2086046526010001  0.0000000000000000
  0.8889001526010000  3.1010381058690002  1.7777925000000001
  7.7505088473990007  5.5383708941310008  1.7777925000000001
  7.4207426058690000  3.4308043473990000  0.0000000000000000
  3.1010381058690002  0.8889001526010000  1.7777925000000001
  5.5383708941310008  7.7505088473990007  1.7777925000000001
  5.2086046526010001  1.2186663941310001  0.0000000000000000
  3.4308043473990000  7.4207426058690000  0.0000000000000000
  5.3027742107010010  5.3027742107010010  0.0000000000000000
  0.9830697107010000  7.6563392892989999  1.7777925000000001
  7.6563392892989999  0.9830697107010000  1.7777925000000001
  3.3366347892990005  3.3366347892990005  0.0000000000000000
  5.2003540170060001  3.4390549829940000  0.0000000000000000
  7.7587594829940008  7.7587594829940008  1.7777925000000001
  3.4390549829940000  5.2003540170060001  0.0000000000000000
  0.8806495170060000  0.8806495170060000  1.7777925000000001
  3.3446953578960001  1.5236807288760001  0.0000000000000000
  5.8433852288760004  0.9750091421040000  1.7777925000000001
  2.7960237711240001  7.6643998578960009  1.7777925000000001
  5.2947136421040000  7.1157282711240004  0.0000000000000000
  0.9750091421040000  5.8433852288760004  1.7777925000000001
  7.6643998578960009  2.7960237711240001  1.7777925000000001
  1.5236807288760001  3.3446953578960001  0.0000000000000000
  7.1157282711240004  5.2947136421040000  0.0000000000000000
