Si Ni
 1.0000000000000000
     3.3212969999999999    0.0000000000000000    0.0000000000000000
     0.0000000000000000    5.1415350000000002    0.0000000000000000
     0.0000000000000000    0.0000000000000000    5.5697749999999999
 Si  Ni 
   4   4
Cartesian
  2.4909727500000001  4.2216578316149995  2.3263613428999999
  0.8303242500000000  0.9198771683850000  3.2434136570999996
  2.4909727500000001  1.6508903316150001  0.4585261570999999
  0.8303242500000000  3.4906446683850003  5.1112488429000003
  0.8303242500000000  2.6116427032500003  1.7348679472249999
  2.4909727500000001  2.5298922967499999  3.8349070527750002
  0.8303242500000000  0.0408752032500000  1.0500195527750000
  2.4909727500000001  5.1006597967500005  4.5197554472249992
