Er Si Ru
 1.0000000000000000
     3.8549530000000001    0.0000000000000000   -1.5472159999999999
    -0.6209870000000000    3.8046069999999999   -1.5472159999999999
    -0.0033060000000000   -0.0038890000000000    5.5677589999999997
 Er  Si  Ru 
   1   2   2
Cartesian
  0.0000000000000000  0.0000000000000000  0.0000000000000000
  2.0414446046920003  2.4016624578579999 -0.4896635047979999
  1.1892153953080000  1.3990555421419999  2.9629905047979999
  2.7343150000000001  0.9492072499999999  1.2366634999999999
  0.4963450000000000  2.8515107499999996  1.2366634999999999
