Hf Tc Sb
 1.0000000000000000
     0.0000000000000000    3.2230590000000001    3.2230590000000001
     3.2230590000000001    0.0000000000000000    3.2230590000000001
     3.2230590000000001    3.2230590000000001    0.0000000000000000
 Hf  Tc  Sb 
   1   2   1
Cartesian
  1.6115295000000001  1.6115295000000001  1.6115295000000001
  3.2230590000000001  3.2230590000000001  3.2230590000000001
  0.0000000000000000  0.0000000000000000  0.0000000000000000
  4.8345949461180000  4.8345949461180000  4.8345949461180000
