Mo As
 1.0000000000000000
     3.2013250000000002    0.0000000000000000    0.7743850000000000
     1.6005000000000000    6.8076829999999999    0.3878600000000000
     0.0000780000000000   -0.0006870000000000    7.0040399999999998
 Mo  As 
   5   4
Cartesian
  3.7167170872650002  6.2562918827739997  5.6481166024749996
  1.7302154681940001  2.1917488685840003  6.8559650730200001
  3.0716875318060004  4.6152471314160000  1.3103199269799999
  1.0851859127350001  0.5507041172260000  2.5181683975250002
  0.0000000000000000  0.0000000000000000  0.0000000000000000
  4.2542443485800003  5.2604428376029997  3.4259480468500003
  1.9643584217180003  4.4780054934230007  5.8880331187900001
  2.8375445782819999  2.3289905065770000  2.2782518812100001
  0.5476586514200000  1.5465531623969999  4.7403369531499999
