Tb B  Ru
 1.0000000000000000
     5.4811319999999997    0.0000000000000000    0.0000000000000000
    -2.7405659999999998    4.7468000000000004    0.0000000000000000
     0.0000000000000000    0.0000000000000000    3.0224250000000001
 Tb  B   Ru 
   1   2   3
Cartesian
  0.0000000000000000  0.0000000000000000  0.0000000000000000
 -0.0000027405660001  3.1645349156000004  0.0000000000000000
  2.7405687405659998  1.5822650844000001  0.0000000000000000
  2.7405659999999998  0.0000000000000000  1.5112125000000001
  1.3702829999999999  2.3734000000000002  1.5112125000000001
 -1.3702829999999999  2.3734000000000002  1.5112125000000001
