Be Br
 1.0000000000000000
     5.0302129999999998    0.0000000000000000   -2.3626010000000002
    -1.1501260000000000    5.0546749999999996   -2.4487340000000000
     0.0427570000000000   -0.0310380000000000    6.6272450000000003
 Be  Br 
   2   4
Cartesian
  1.2575532500000000  0.0000000000000000 -0.5906502500000000
  3.7726597499999999  0.0000000000000000 -1.7719507500000002
  0.2086953720810001  1.6251661514199998  0.4443390087929999
  3.7141486279189992  3.3984708485799997  1.3715709912070002
  1.8672250795090000  0.4618815872049999  3.9755002395170003
  2.0556189204910003  4.5617554127949989 -2.1595902395170006
