Eu H  Pd
 1.0000000000000000
     3.7888220000000001    0.0000000000000000    0.0000000000000000
     0.0000000000000000    3.7921450000000001    0.0000000000000000
     0.0000000000000000    0.0000000000000000    3.7925000000000000
 Eu  H   Pd 
   1   3   1
Cartesian
  1.8944110000000001  1.8960725000000000  1.8962500000000000
  0.0000000000000000  0.0000000000000000  1.8962500000000000
  0.0000000000000000  1.8960725000000000  0.0000000000000000
  1.8944110000000001  0.0000000000000000  0.0000000000000000
  0.0000000000000000  0.0000000000000000  0.0000000000000000
