Tm O 
 1.0000000000000000
     8.4801040000000008    0.0000000000000000   -2.9981689999999999
    -4.2400510000000002    7.3439839999999998   -2.9981689999999999
     0.0000000000000000    0.0000000000000000    8.9945079999999997
 Tm  O  
  16  24
Cartesian
  2.1200265000000003  3.6719919999999999  1.4990850000000000
  0.0000000000000000  0.0000000000000000  4.4972539999999999
  4.2400520000000004  0.0000000000000000 -1.4990844999999999
 -2.1200255000000001  3.6719919999999999 -1.4990844999999999
  1.1998882924390002  1.5937253118240000  7.2976102727289991
  0.1398756084169999  3.9142626881760001  4.2994410557179998
  1.3397639008560007  5.5079880000000001 -1.3012710227290003
 -2.2599001084169998  7.1017133118239997 -1.3012710557179998
  7.1403410991440008  1.8359960000000000 -1.6968974772709999
  5.1601902075610004  2.0782666881759999  1.6968982272710007
  3.0401647075610003  5.7502586881760003 -4.2994402727289991
  4.1001773915830002  3.4297213118240002 -1.3012710557179998
  2.9002890991440005  1.8359960000000000  4.2994410227289990
  6.4999531084170012  0.2422706881760000  4.2994410557179998
 -2.9002880991440003  5.5079880000000001  4.6950674772710004
 -0.9201372075609998  5.2657173118239999  1.3012717727290002
  1.2395460528980005  5.6630488781759993  0.9820687884300001
  4.3248031159100000  7.0247703914560002  0.7140116768289997
 -1.0647695659920005  5.6721407303680005  3.4589613206649998
  3.3245953322210009  1.7580396098400000  6.4571335582199998
  5.0262431694880014  5.3438352696319997  3.8394592078299996
  5.0760081927790006  1.9139523901600000  3.9802350191470004
 -2.0755129658320004  7.1109740756480004  0.9820807493790004
  2.3540943623360007  3.9050019243519998  3.7121777221259999
  4.2348033590899998  3.9912056085440000  0.8412987458040000
  1.9802536740810002  7.2577729718239992  3.4589675446510002
  3.4591114714220006  5.3529271218240000 -2.1568615308019998
  6.0412478015990017  3.7582030281760002 -2.2841728022790004
  3.0005069471020001  1.6809351218240001  2.0161012115699997
 -0.0847501159100000  0.3192136085440000  2.2841583231709999
  5.3048225659919996  1.6718432696319998 -0.4607913206649996
  0.9154576677790004  5.5859443901599999 -3.4589635582200002
 -0.7861901694880000  2.0001487303679997 -0.8412892078299999
 -0.8359551927789995  5.4300316098399994 -0.9820650191470002
  6.3155659658320014  0.2330099243520000  2.0160892506209995
  1.8859586376640001  3.4389820756480001 -0.7140077221259999
  0.0052496409100001  3.3527783914559999  2.1568712541960000
  2.2597993259190003  0.0862110281760000 -0.4607975446509999
  0.7809415285779998  1.9910568781760001  5.1550315308019998
 -1.8011948015990000  3.5857809718240001  5.2823428022790004
