Cu Hg Ge S 
 1.0000000000000000
    -2.7532660000000000    2.7532660000000000    5.2460220000000000
     2.7532660000000000   -2.7532660000000000    5.2460220000000000
     2.7532660000000000    2.7532660000000000   -5.2460220000000000
 Cu  Hg  Ge  S  
   2   1   1   4
Cartesian
  0.0000000000000000  2.7532660000000000  2.6230110000000000
  2.7532660000000000  0.0000000000000000  2.6230110000000000
  0.0000000000000000  0.0000000000000000  0.0000000000000000
  0.0000000000000000  0.0000000000000000  5.2460220000000000
 -1.2379234589199999  1.2379234589199999  6.6643050317879995
  1.2379207056540000  1.2379207056539998  3.8277442142339995
  1.2379234589199999 -1.2379234589199999  6.6643050317879995
  1.5153452943460000  1.5153452943460000 -1.4182882778100001
