Sm Cd
 1.0000000000000000
     6.6973940000000001   -0.0000000000000000    0.0000000000000000
    -3.3486980000000002    5.8001139999999998    0.0000000000000000
     0.0000000000000000    0.0000000000000000    4.9508020000000004
 Sm  Cd 
   2   6
Cartesian
  0.0000026820300002  3.8667446000379999  3.7131064508020004
  3.3486933179700000  1.9333693999619999  1.2377005000000001
  0.0000030308839999  1.8433516306819999  1.2377005000000001
  1.7522952789760005  4.8784352846019994  1.2377005000000001
 -1.7522969611620003  4.8784352846019994  1.2377005000000001
  3.3486929691159997  3.9567623693179996  3.7131064508020004
  1.5964007210239999  0.9216787153979999  3.7131064508020004
  5.1010063559500001  0.9216787153979999  3.7131064508020004
