Ca H 
 1.0000000000000000
     3.5682870000000002    0.0000000000000000    0.0000000000000000
     0.0000000000000000    5.8988449999999997    0.0000000000000000
     0.0000000000000000    0.0000000000000000    6.7745530000000000
 Ca  H  
   4   8
Cartesian
  0.8920717500000001  4.3621309902049994  2.6367779695540001
  2.6762152500000003  1.5367140097949998  4.1377750304459999
  0.8920717500000001  1.4127084902050000  0.7504985304460000
  2.6762152500000003  4.4861365097950001  6.0240544695539997
  0.8920717500000001  2.7968901659899998  5.5744748088150002
  2.6762152500000003  3.1019548340100003  1.2000781911850000
  0.8920717500000001  5.7463126659899997  4.5873546911850003
  2.6762152500000003  0.1525323340100000  2.1871983088150002
  2.6762152500000003  3.8019766690050001  3.8783096505460004
  0.8920717500000001  2.0968683309949996  2.8962433494540001
  2.6762152500000003  0.8525541690049999  6.2835198494539997
  0.8920717500000001  5.0462908309949999  0.4910331505460001
