La Yb S 
 1.0000000000000000
     1.9618230000000001   -6.3225829999999998    0.0000000000000000
     1.9618230000000001    6.3225829999999998    0.0000000000000000
     0.0000000000000000    0.0000000000000000    9.5475860000000008
 La  Yb  S  
   2   2   6
Cartesian
  1.9618230000000001  3.1113810297979998  7.1606895000000002
  1.9618230000000001 -3.1113810297980002  2.3868965000000002
  0.0000000000000000  0.0000000000000000  0.0000000000000000
  0.0000000000000000  0.0000000000000000  4.7737930000000004
  1.9618230000000001  5.2670657036480000  2.3868965000000002
  1.9618230000000001 -5.2670657036480000  7.1606895000000002
  1.9618230000000001 -1.7698300785260004  5.3608931583120008
  1.9618230000000001  1.7698300785259999  4.1866928416880000
  1.9618230000000001 -1.7698300785260004  8.9604858416880013
  1.9618230000000001  1.7698300785259999  0.5871001583120000
