Hf Nb Tc
 1.0000000000000000
     0.0000010000000000    3.2129420000000000    3.2129420000000000
     3.2129470000000002   -0.0000030000000000    3.2129460000000001
     3.2129460000000001    3.2129439999999998   -0.0000020000000000
 Hf  Nb  Tc 
   1   1   2
Cartesian
  1.6064735000010000  1.6064675370529999  1.6064747129479999
  4.8194205000000006  4.8194122500000001  4.8194145000000006
  3.2129502129460001  3.2129447129440001  3.2129429999980004
  0.0000000000010000  0.0000032129420000  0.0000032129420000
