La Ni
 1.0000000000000000
    -3.8099630000000002   -0.0000000000000000    0.0000000000000000
     0.0000000000000000    0.0000000000000000   -4.3634630000000003
     1.9049799999999999   -5.4521360000000003    0.0000000000000000
 La  Ni 
   2   2
Cartesian
 -1.9049806946490002 -3.9968900238320004 -3.2725972500000005
 -0.0000023053510000 -1.4552459761680001 -1.0908657500000001
 -1.9049836233919999 -0.7938691665520000 -3.2725972500000005
  0.0000006233919998 -4.6582668334479997 -1.0908657500000001
