Ti Sb P 
 1.0000000000000000
     3.6366000000000001    0.0000000000000000    0.0000000000000000
    -1.8183000000000000    3.1493890000000002    0.0000000000000000
     0.0000000000000000    0.0000000000000000   12.5930999999999997
 Ti  Sb  P  
   4   2   2
Cartesian
  1.8183018183000004  1.0497952835370001  7.5634788255000007
 -0.0000018183000000  2.0995937164630001  5.0296211744999999
 -0.0000018183000000  2.0995937164630001  1.2669288255000000
  1.8183018183000004  1.0497952835370001 11.3261711744999989
  1.8183018183000004  1.0497952835370001  3.1482749999999999
 -0.0000018183000000  2.0995937164630001  9.4448249999999998
  0.0000000000000000  0.0000000000000000  6.2965499999999999
  0.0000000000000000  0.0000000000000000  0.0000000000000000
