Ga Hg S 
 1.0000000000000000
     5.0443879999999996    0.0000130000000000   -2.3906040000000002
    -1.1329469999999999    4.9155210000000000   -2.3905910000000001
    -0.0148560000000000   -0.0186860000000000    6.4860090000000001
 Ga  Hg  S  
   2   1   4
Cartesian
  0.4039587500000000  3.6773009999999999  0.8524102499999997
  1.9557205000000000  2.4577670000000000 -2.3905975000000002
  0.0000000000000000  0.0000000000000000  0.0000000000000000
  3.3906323066099997  4.2386416893870003 -2.3638944955860000
  2.8149710926830003  0.6408555462730001  2.9847703464189999
  0.0060688275560000  2.9043340153820001  2.9678962777759996
  1.5815039504860002  2.0098598334500002 -0.1791441286220001
