Hf Mg Rh
 1.0000000000000000
     0.0000000000000000    3.1604450000000002    3.1604450000000002
     3.1604450000000002    0.0000000000000000    3.1604450000000002
     3.1604450000000002    3.1604450000000002    0.0000000000000000
 Hf  Mg  Rh 
   1   1   2
Cartesian
  1.5802225000000001  1.5802225000000001  1.5802225000000001
  4.7406675000000007  4.7406675000000007  4.7406675000000007
  0.0000000000000000  0.0000000000000000  0.0000000000000000
  3.1604450000000002  3.1604450000000002  3.1604450000000002
