Gd Mg In
 1.0000000000000000
     0.0000000000000000    3.7937319999999999    3.7937319999999999
     3.7937319999999999    0.0000000000000000    3.7937319999999999
     3.7937319999999999    3.7937319999999999    0.0000000000000000
 Gd  Mg  In 
   2   1   1
Cartesian
  1.8968659999999999  1.8968659999999999  1.8968659999999999
  5.6905979999999996  5.6905979999999996  5.6905979999999996
  0.0000000000000000  0.0000000000000000  0.0000000000000000
  3.7937319999999999  3.7937319999999999  3.7937319999999999
