Li Ga Ir
 1.0000000000000000
     3.6375130000000002    0.0000000000000000    2.1001189999999998
     1.2125040000000000    3.4294810000000000    2.1001189999999998
     0.0000000000000000    0.0000000000000000    4.2002389999999998
 Li  Ga  Ir 
   2   1   1
Cartesian
  2.4250085000000001  1.7147405000000000  4.2002384999999993
  1.2125042500000001  0.8573702500000000  2.1001192499999997
  3.6375127500000000  2.5721107500000002  6.3003577499999999
  0.0000000000000000  0.0000000000000000  0.0000000000000000
