Mg Si P 
 1.0000000000000000
     5.1278550000000003    0.0000000000000000   -2.5282640000000001
    -1.2465480000000000    4.9740339999999996   -2.5282640000000001
     0.0184090000000000    0.0235930000000000    6.5016590000000001
 Mg  Si  P  
   2   2   4
Cartesian
  1.9406535000000003  2.4870169999999998 -2.5282640000000001
  3.5434587500000001  1.2553049999999999  0.7225655000000000
  0.0000000000000000  0.0000000000000000  0.0000000000000000
  0.3562572500000001  3.7423219999999997  0.7225655000000000
 -0.1778543305319999  3.3401455266059994  2.8714345568240001
  3.6210333979449998  4.3581779999999997 -2.9076589431760000
  1.2398048520550000  1.8711609999999999 -0.1621715568240001
  3.1164480805320003  0.4257694733940000  3.0886579431760000
