Fe Sb S 
 1.0000000000000000
     5.9021499999999998    0.0000000000000000    0.0000000000000000
     0.0000000000000000    5.5696740000000000   -2.2660170000000002
     0.0000000000000000   -0.0083850000000000    5.9950590000000004
 Fe  Sb  S  
   4   4   4
Cartesian
  5.8014239080999994  3.8861959599630000  2.5974616099590007
  3.0518010918999998  3.8903884683480001 -0.4000738851000001
  0.1007260919000000  1.6750930400369999  1.1315803900410002
  2.8503489081000000  1.6709005400369998  4.1291098900409997
  2.1717728204499998  4.7426383353450001  1.8476383071930003
  3.7303771795499996  0.8186506646550000  1.8814036928070001
  0.7793021795499999  4.7468308353450004 -1.1498911928070001
  5.1228478204499996  0.8144581646550001  4.8789331928069997
  2.1405858598499998  1.9943655922770001  0.2121412642500000
  3.7615641401500000  3.5669234077229999  3.5169007357500002
  5.0916608598499993  3.5711159077229997  0.5193712357500000
  0.8104891401500000  1.9901730922770000  3.2096707642500002
