Gd B 
 1.0000000000000000
     4.1014280000000003    0.0000000000000000    0.0000000000000000
     0.0000000000000000    4.1014280000000003    0.0000000000000000
     0.0000000000000000    0.0000000000000000    4.1014280000000003
 Gd  B  
   1   6
Cartesian
  0.0000000000000000  0.0000000000000000  0.0000000000000000
  0.8159749991720000  2.0507140000000001  2.0507140000000001
  2.0507140000000001  2.0507140000000001  3.2854530008279998
  2.0507140000000001  2.0507140000000001  0.8159749991720000
  2.0507140000000001  0.8159749991720000  2.0507140000000001
  2.0507140000000001  3.2854530008279998  2.0507140000000001
  3.2854530008279998  2.0507140000000001  2.0507140000000001
