Er Ni Sb
 1.0000000000000000
     3.8384269999999998    0.0000000000000000    2.2161170000000001
     1.2794760000000001    3.6189060000000000    2.2161170000000001
     0.0000000000000000    0.0000000000000000    4.4322350000000004
 Er  Ni  Sb 
   1   1   1
Cartesian
  2.5589515000000000  1.8094530000000000  4.4322344999999999
  1.2794757500000000  0.9047265000000000  2.2161172499999999
  0.0000000000000000  0.0000000000000000  0.0000000000000000
