In O  F 
 1.0000000000000000
     5.1104200000000004   -0.0057560000000000   -2.0083039999999999
    -1.7996900000000000    4.7830480000000000   -2.0083039999999999
     0.0023950000000000    0.0034550000000000    6.2198580000000003
 In  O   F  
   4   4   4
Cartesian
 -1.2793611465700001  4.4237314347479995 -0.4533394999999998
  2.8637611465700008  1.5524890652519998 -0.4533394999999998
  4.5924861465700006  0.3570155652520000  2.6565895000000004
  0.4493638534300000  3.2282579347480000  2.6565895000000004
 -0.4103792186950000  1.2528140027170001  2.7052495927500004
  1.3159438711950000  0.0538902915210000 -0.4046794072500001
  3.7235060183850006  3.5279282142350001 -0.5019975844459994
  1.9971760183850003  4.7268567142349998  2.6079314155540008
  2.5564075000000002 -0.0011505000000000  2.1057770000000002
  1.6565625000000002  2.3903734999999999  1.1016250000000003
 -0.8998450000000000  2.3915240000000000 -1.0041519999999999
  1.6553650000000002  2.3886460000000000 -2.0083039999999999
