Ti Mn Rh
 1.0000000000000000
     0.0000000000000000    3.0636830000000002    3.0636830000000002
     3.0636830000000002    0.0000000000000000    3.0636830000000002
     3.0636830000000002    3.0636830000000002    0.0000000000000000
 Ti  Mn  Rh 
   1   1   2
Cartesian
  4.5955306273660002  4.5955306273660002  4.5955306273660002
  1.5318476273660000  1.5318476273660000  1.5318476273660000
  0.0000000000000000  0.0000000000000000  0.0000000000000000
  3.0636830000000002  3.0636830000000002  3.0636830000000002
