Na Al F 
 1.0000000000000000
     5.3387620000000000    0.0000000000000000   -0.0210590000000000
     0.0000000000000000    5.5493230000000002    0.0000000000000000
    -0.0060370000000000    0.0000000000000000    7.6785370000000004
 Na  Al  F  
   6   2  12
Cartesian
  0.0838704889690000  3.0820939942000001  5.7258512712899998
  2.5764550110310003  0.3074324942000000  5.7814247287100002
  5.2488545110309994  2.4672290058000002  1.9316267287100002
  2.7562699889690001  5.2418905057999998  1.8760532712900000
  2.6693810000000000  2.7746615000000001 -0.0105295000000000
 -0.0030185000000000  0.0000000000000000  3.8392685000000002
  2.6663625000000000  2.7746615000000001  3.8287390000000001
  0.0000000000000000  0.0000000000000000  0.0000000000000000
  3.5499311676510001  1.2760668238499999  3.3046582059210001
  4.4551933323490003  4.0507283238500005  0.5030217940790001
  1.7827938323490000  4.2732561761500003  4.3528197940790010
  0.8775316676510000  1.4985946761500002  7.1544562059210000
  1.1947914893689999  1.7969484779220000  4.2012157218760002
  1.4655340106310000  4.5716099779220007  7.3060602781239998
  4.1379335106310000  3.7523745220780000  3.4562622781240004
  3.8671909893690004  0.9777130220780000  0.3514177218760000
  0.5817928148160001  0.2763063414930000  1.6937504403590000
  2.0845696851839999  3.0509678414930002  2.1349885596410001
  4.7509321851840003  5.2730166585070002  5.9637275596409998
  3.2481553148160001  2.4983551585070001  5.5224894403590001
