Pm Cu Ge
 1.0000000000000000
     0.0000000000000000    3.5933530000000000    3.5933530000000000
     3.5933530000000000    0.0000000000000000    3.5933530000000000
     3.5933530000000000    3.5933530000000000    0.0000000000000000
 Pm  Cu  Ge 
   2   1   1
Cartesian
  0.0000000000000000  0.0000000000000000  0.0000000000000000
  3.5933530000000000  3.5933530000000000  3.5933530000000000
  1.7966693132939999  1.7966693132939999  1.7966693132939999
  5.3900223132939997  5.3900223132939997  5.3900223132939997
