Li Ti Se
 1.0000000000000000
     3.5977749999999999    0.0000000000000000    0.0000000000000000
    -1.7988880000000000    3.1157640000000000    0.0000000000000000
     0.0000000000000000    0.0000000000000000   22.2187359999999998
 Li  Ti  Se 
   1   3   6
Cartesian
  0.0000000000000000  0.0000000000000000 11.1093679999999999
  0.0000000000000000  0.0000000000000000  0.0000000000000000
  0.0000000000000000  0.0000000000000000  7.8338597201439990
  0.0000000000000000  0.0000000000000000 14.3848762798559999
 -0.0000021322210000  2.0771770385880002  9.4217883445920005
  1.7988891322210001  1.0385869614120000 12.7969476554080011
 -0.0000021322210000  2.0771770385880002 15.8497131068639998
  1.7988891322210001  1.0385869614120000  6.3690228931360000
 -0.0000021322210000  2.0771770385880002  1.5092965177440001
  1.7988891322210001  1.0385869614120000 20.7094394822559984
