Ho Te
 1.0000000000000000
     3.7424770000000001    0.0000000000000000    2.1607189999999998
     1.2474930000000000    3.5284409999999999    2.1607189999999998
    -0.0000000000000000   -0.0000000000000000    4.3214399999999999
 Ho  Te 
   1   1
Cartesian
  0.0000000000000000  0.0000000000000000  0.0000000000000000
  2.4949849999999998  1.7642205000000000  4.3214389999999998
