Zn Si P 
 1.0000000000000000
     4.8827579999999999    0.0000000000000000   -2.2432509999999999
    -1.0306000000000000    4.7727539999999999   -2.2432509999999999
     0.0132520000000000    0.0164190000000000    6.4644810000000001
 Zn  Si  P  
   2   2   4
Cartesian
  0.0000000000000000  0.0000000000000000  0.0000000000000000
  0.4543655000000000  3.5877750000000002  0.9889895000000002
  1.9260790000000001  2.3863770000000000 -2.2432509999999999
  3.4110445000000000  1.2013980000000000  0.9889895000000002
  1.5323488461579999  1.7938875000000001 -0.1051284855509997
  3.2894746538419999  4.1802644999999998 -2.2707585144489997
 -0.0060108394000000  2.9127120830460003  3.2047329855510003
  2.9150073393999998  0.6914819169540000  3.1271120144490001
