La Al
 1.0000000000000000
     5.7422779999999998    0.0000000000000000    0.0000000000000000
     0.0000000000000000    6.0164790000000004   -1.1908140000000000
     0.0000000000000000    0.0108780000000000    6.1331840000000000
 La  Al 
   4   4
Cartesian
  4.3067085000000001  0.9581465668320001  2.9584060262200000
  1.4355694999999999  5.0692104331680001  1.9839639737800001
  4.3067085000000001  3.0887836616070001  0.3600346357699999
  1.4355694999999999  2.9385733383930002  4.5823353642300004
  4.3067085000000001  4.2089938034549998  3.4513311065500001
  1.4355694999999999  1.8183631965450000  1.4910388934499998
  2.8711389999999999  0.0000000000000000  0.0000000000000000
  0.0000000000000000  0.0000000000000000  0.0000000000000000
