Mg In Pd
 1.0000000000000000
     0.0000000000000000    3.2168049999999999    3.2168049999999999
     3.2168049999999999    0.0000000000000000    3.2168049999999999
     3.2168049999999999    3.2168049999999999    0.0000000000000000
 Mg  In  Pd 
   1   1   2
Cartesian
  4.8252074999999994  4.8252074999999994  4.8252074999999994
  1.6083960663899999  1.6083960663899999  1.6083960663899999
  0.0000000000000000  0.0000000000000000  0.0000000000000000
  3.2168049999999999  3.2168049999999999  3.2168049999999999
