B 
 1.0000000000000000
     4.2804640000000003   -0.0017220000000000    2.6653319999999998
     1.4793200000000000    4.0167140000000003    2.6653319999999998
    -0.0024720000000000   -0.0017220000000000    5.0424569999999997
 B  
  12
Cartesian
  1.0105484664400000  2.6280413828100002  1.8207334039500001
  0.0558076539600000  0.0389027914700000  3.3523506983250000
  2.8153675628000001  0.0389027914700000  1.8207334039500001
  2.9419444372000001  3.9743672085299999  8.5523875960500000
  4.7467635335600002  1.3852286171900001  8.5523875960500000
  5.7015043460400001  3.9743672085300004  7.0207703016749994
  1.8779698716719999  2.5363375180859999  3.3835931663939998
  1.2688511160240001  0.8844830500020001  4.3607555630189996
  3.0294333346079996  0.8844830500020001  3.3835931663939998
  2.7278786653920002  3.1287869499980001  6.9895278336059992
  3.8793421283280001  1.4769324819140002  6.9895278336059992
  4.4884608839759998  3.1287869499980001  6.0123654369809989
