Ag Cl O 
 1.0000000000000000
     4.2420150000000003   -0.0130600000000000   -2.3243429999999998
    -2.7504490000000001    3.9745400000000002   -0.1883760000000000
    -0.0090400000000000    0.0130600000000000    4.8370629999999997
 Ag  Cl  O  
   1   1   4
Cartesian
 -1.3797445000000002  1.9938000000000000  2.3243434999999999
  0.0000000000000000  0.0000000000000000  0.0000000000000000
  0.1671773978160000  3.8118094201199999  2.9135974493879995
 -0.1216516412260000  0.1757905668200000  3.4001587233089996
  0.6157767483490000  1.1736469938800000  0.5892584354170000
 -1.9382655049390001  2.8008930191800001  0.0700163918860000
