Zr Rh
 1.0000000000000000
     4.4704420000000002    0.0000000000000000    0.0000000000000000
     0.0000000000000000    5.2658500000000004    0.0000000000000000
     0.0000000000000000    0.0000000000000000    6.1594100000000003
 Zr  Rh 
   4   4
Cartesian
  3.3528315000000002  4.5208375419999998  5.0695331975500002
  1.1176105000000001  1.8879125420000002  4.1695818024500007
  3.3528315000000002  3.3779374580000003  1.9898281975500001
  1.1176105000000001  0.7450124580000000  1.0898768024500001
  3.3528315000000002  0.8953630071999999  2.7964522123300002
  1.1176105000000001  4.3704869928000001  3.3629577876700001
  1.1176105000000001  3.5282880072000000  0.2832527876700000
  3.3528315000000002  1.7375619928000001  5.8761572123299999
