Ga Si Ru
 1.0000000000000000
     0.0000000000000000    2.9533360000000002    2.9533360000000002
     2.9533360000000002    0.0000000000000000    2.9533360000000002
     2.9533360000000002    2.9533360000000002    0.0000000000000000
 Ga  Si  Ru 
   1   1   2
Cartesian
  1.4766680000000001  1.4766680000000001  1.4766680000000001
  4.4300040000000003  4.4300040000000003  4.4300040000000003
  2.9533360000000002  2.9533360000000002  2.9533360000000002
  0.0000000000000000  0.0000000000000000  0.0000000000000000
