Dy Zn
 1.0000000000000000
     3.5450070000000000    0.0000000000000000    0.0000000000000000
     0.0000000000000000    3.5450070000000000    0.0000000000000000
     0.0000000000000000    0.0000000000000000    3.5450070000000000
 Dy  Zn 
   1   1
Cartesian
  0.0000000000000000  0.0000000000000000  0.0000000000000000
  1.7725035000000000  1.7725035000000000  1.7725035000000000
