Li In Pt
 1.0000000000000000
     3.8764590000000001    0.0000000000000000    2.2380730000000000
     1.2921540000000000    3.6547600000000000    2.2380730000000000
    -0.0000000000000000    0.0000000000000000    4.4761490000000004
 Li  In  Pt 
   2   1   1
Cartesian
  2.5843065000000003  1.8273800000000000  4.4761474999999997
  1.2921532500000001  0.9136900000000000  2.2380737499999999
  3.8764597500000000  2.7410700000000001  6.7142212500000005
  0.0000000000000000  0.0000000000000000  0.0000000000000000
