Sm Bi Cl O 
 1.0000000000000000
     3.9371220000000000    0.0000000000000000    0.0000000000000000
     0.0000000000000000    3.9371220000000000    0.0000000000000000
     0.0000000000000000    0.0000000000000000    9.1042719999999999
 Sm  Bi  Cl  O  
   1   2   1   4
Cartesian
  0.0000000000000000  0.0000000000000000  0.0000000000000000
  1.9685610000000000  1.9685610000000000  6.5529090232640002
  1.9685610000000000  1.9685610000000000  2.5513629767359998
  0.0000000000000000  0.0000000000000000  4.5521360000000000
  0.0000000000000000  1.9685610000000000  1.4420802677120002
  1.9685610000000000  0.0000000000000000  1.4420802677120002
  1.9685610000000000  0.0000000000000000  7.6621917322880000
  0.0000000000000000  1.9685610000000000  7.6621917322880000
