Lu Ni Pb
 1.0000000000000000
     7.3675150000000000    0.0000000000000000    0.0000000000000000
    -3.6837559999999998    6.3804540000000003    0.0000000000000000
     0.0000000000000000    0.0000000000000000    3.7832110000000001
 Lu  Ni  Pb 
   3   3   3
Cartesian
  4.4081905149200002  0.0000000000000000  1.8916055000000001
  1.4796628450480001  2.5628497190879997  1.8916055000000001
 -2.2040943599679998  3.8176042809120001  1.8916055000000001
 -0.0000026837570001  4.2536381268180001  0.0000000000000000
  3.6837616837570004  2.1268158731820002  0.0000000000000000
  0.0000000000000000  0.0000000000000000  1.8916055000000001
  1.9637669181599999  0.0000000000000000  0.0000000000000000
  2.7018751411039998  4.6797822690239999  0.0000000000000000
 -0.9818830592640000  1.7006717309760000  0.0000000000000000
