Ba Cl F 
 1.0000000000000000
     4.4183089999999998    0.0000000000000000    0.0000000000000000
     0.0000000000000000    4.4183089999999998    0.0000000000000000
     0.0000000000000000    0.0000000000000000    7.2809689999999998
 Ba  Cl  F  
   2   2   2
Cartesian
  3.3137317499999996  3.3137317499999996  5.7883412311239999
  1.1045772500000000  1.1045772500000000  1.4926277688759999
  1.1045772500000000  1.1045772500000000  4.7226986082839995
  3.3137317499999996  3.3137317499999996  2.5582703917159999
  3.3137317499999996  1.1045772500000000  0.0000000000000000
  1.1045772500000000  3.3137317499999996  0.0000000000000000
