Nb C 
 1.0000000000000000
     3.1483810000000001    0.0000000000000000    0.0000000000000000
    -1.5741909999999999    2.7265779999999999    0.0000000000000000
     0.0000000000000000    0.0000000000000000    5.0015660000000004
 Nb  C  
   2   1
Cartesian
  1.5741919075240003  0.9088584244740000  3.7487937545840002
 -0.0000019075240000  1.8177195755260001  1.2527722454160000
  0.0000000000000000  0.0000000000000000  0.0000000000000000
