Sr Al Co
 1.0000000000000000
     7.8429849999999997    0.0000000000000000    0.0000000000000000
    -3.9214920000000002    6.7922229999999999    0.0000000000000000
     0.0000000000000000    0.0000000000000000    3.8974210000000000
 Sr  Al  Co 
   1   9   2
Cartesian
  0.0000000000000000  0.0000000000000000  0.0000000000000000
  3.9214924999999998  0.0000000000000000  0.0000000000000000
  1.9607464999999997  3.3961114999999999  0.0000000000000000
 -1.9607460000000001  3.3961114999999999  0.0000000000000000
  0.0000041368020000  2.9248602760369997  1.9487105000000000
  5.3099754571299993  1.4624335341299999  1.9487105000000000
  2.5330019151949998  1.4624335341299999  1.9487105000000000
  1.3884910848049996  5.3297894658700002  1.9487105000000000
 -1.3884824571300003  5.3297894658700002  1.9487105000000000
  3.9214888631979994  3.8673627239630002  1.9487105000000000
 -0.0000035881590002  4.5281509307409999  0.0000000000000000
  3.9214965881590000  2.2640720692590000  0.0000000000000000
