Ba Br F 
 1.0000000000000000
     4.5399229999999999    0.0000000000000000    0.0000000000000000
     0.0000000000000000    4.5399229999999999    0.0000000000000000
     0.0000000000000000    0.0000000000000000    7.4953940000000001
 Ba  Br  F  
   2   2   2
Cartesian
  3.4049422499999999  3.4049422499999999  6.0591490879020000
  1.1349807500000000  1.1349807500000000  1.4362449120980001
  1.1349807500000000  1.1349807500000000  4.8690754009460004
  3.4049422499999999  3.4049422499999999  2.6263185990540001
  1.1349807500000000  3.4049422499999999  0.0000000000000000
  3.4049422499999999  1.1349807500000000  0.0000000000000000
