Ca Pd
 1.0000000000000000
     5.3573860000000000    0.0000000000000000    0.0000000000000000
    -2.6786930000000000    4.6396329999999999    0.0000000000000000
     0.0000000000000000    0.0000000000000000    4.4782200000000003
 Ca  Pd 
   1   5
Cartesian
  0.0000000000000000  0.0000000000000000  0.0000000000000000
 -0.0000026786930000  3.0930902132110001  0.0000000000000000
  2.6786956786930003  1.5465427867889998  0.0000000000000000
 -1.3393465000000000  2.3198164999999999  2.2391100000000002
  1.3393465000000000  2.3198164999999999  2.2391100000000002
  2.6786930000000000  0.0000000000000000  2.2391100000000002
