Ba Mg Ge
 1.0000000000000000
     4.6825599999999996    0.0000000000000000    0.0000000000000000
     0.0000000000000000    4.6804399999999999    0.0000000000000000
     0.0000000000000000    0.0000000000000000    7.9078929999999996
 Ba  Mg  Ge 
   2   2   2
Cartesian
  0.0000000000000000  2.3402200000000000  2.6807440954280000
  2.3412799999999998  0.0000000000000000  5.2271489045720001
  0.0000000000000000  0.0000000000000000  0.0004033025430000
  2.3412799999999998  2.3402200000000000  7.9074896974569997
  0.0000000000000000  2.3402200000000000  6.2890682239700002
  2.3412799999999998  0.0000000000000000  1.6188247760299999
