Fe Sn
 1.0000000000000000
     6.5644970000000002    0.0000000000000000    0.0000000000000000
     0.0000000000000000    6.5644970000000002    0.0000000000000000
     0.0000000000000000    0.0000000000000000    5.3381900000000000
 Fe  Sn 
   4   8
Cartesian
  0.0000000000000000  0.0000000000000000  1.3345475000000000
  0.0000000000000000  0.0000000000000000  4.0036424999999998
  3.2822485000000001  3.2822485000000001  4.0036424999999998
  3.2822485000000001  3.2822485000000001  1.3345475000000000
  1.0645579139930001  4.3468064139929998  2.6690950000000000
  2.2176905860070000  1.0645579139930001  2.6690950000000000
  2.2176905860070000  5.4999390860070001  0.0000000000000000
  1.0645579139930001  2.2176905860070000  0.0000000000000000
  4.3468064139929998  1.0645579139930001  0.0000000000000000
  5.4999390860070001  4.3468064139929998  0.0000000000000000
  5.4999390860070001  2.2176905860070000  2.6690950000000000
  4.3468064139929998  5.4999390860070001  2.6690950000000000
