Dy Tl
 1.0000000000000000
     3.7629340000000000    0.0000000000000000    0.0000000000000000
     0.0000000000000000    3.7629340000000000    0.0000000000000000
     0.0000000000000000    0.0000000000000000    3.7629340000000000
 Dy  Tl 
   1   1
Cartesian
  0.0000000000000000  0.0000000000000000  0.0000000000000000
  1.8814670000000000  1.8814670000000000  1.8814670000000000
