Ca P  Pt
 1.0000000000000000
     4.3696950000000001    0.0000000000000000    0.0000000000000000
     0.0000000000000000    6.5314329999999998    0.0000000000000000
     0.0000000000000000    0.0000000000000000    8.3220410000000005
 Ca  P   Pt 
   4   4   4
Cartesian
  0.0000000000000000  5.6574162302389999  1.0603778201380001
  0.0000000000000000  6.0700917614780003  4.8927276328840001
  0.0000000000000000  2.8043752614780000  3.4293133671160003
  0.0000000000000000  2.3916997302390000  7.2616631798620004
  2.1848475000000001  1.1128451488390001  0.5954919657959999
  2.1848475000000001  4.8794833713410002  3.1953891166470001
  2.1848475000000001  4.3785616488389998  7.7265490342040009
  2.1848475000000001  1.6137668713409998  5.1266518833530004
  2.1848475000000001  0.7542890714380001  2.8477441759130002
  2.1848475000000001  3.2481142880650000  1.3983941594350000
  2.1848475000000001  6.5138307880649995  6.9236468405649996
  2.1848475000000001  4.0200055714379994  5.4742968240870002
