Sm Si Pd
 1.0000000000000000
     3.9048759999999998    0.0000000000000000   -1.5195470000000000
    -0.5913190000000000    3.8598450000000000   -1.5195470000000000
    -0.0006320000000000   -0.0007360000000000    5.7754500000000002
 Sm  Si  Pd 
   1   2   2
Cartesian
  0.0000000000000000  0.0000000000000000  0.0000000000000000
  2.0491659773199999  2.3870007983360000 -0.5111986385660001
  1.2637590226799997  1.4721082016639999  3.2475546385660006
  2.7805112499999995  0.9645932500000000  1.3681780000000001
  0.5324137499999999  2.8945157500000001  1.3681780000000001
