Hf N 
 1.0000000000000000
     2.7628529999999998    0.0000000000000000    1.5951350000000000
     0.9209510000000000    2.6048429999999998    1.5951350000000000
     0.0000000000000000    0.0000000000000000    3.1902680000000001
 Hf  N  
   1   1
Cartesian
  0.0000000000000000  0.0000000000000000  0.0000000000000000
  1.8419019999999999  1.3024214999999999  3.1902689999999998
