Cs Cu S 
 1.0000000000000000
     5.3593919999999997    0.0000000000000000    0.0000000000000000
    -2.6796950000000002    4.6413690000000001    0.0000000000000000
     0.0000000000000000    0.0000000000000000    6.5366730000000004
 Cs  Cu  S  
   1   3   2
Cartesian
  0.0000000000000000  0.0000000000000000  3.2683365000000002
  2.6796959999999999  0.0000000000000000  0.0000000000000000
  1.3398484999999998  2.3206845000000000  0.0000000000000000
 -1.3398475000000001  2.3206845000000000  0.0000000000000000
  2.6796990130289999  1.5471214528770001  5.0335323602850002
 -0.0000020130290004  3.0942475471230000  1.5031406397150000
