Mg Rh
 1.0000000000000000
     7.9591029999999998    0.0000000000000000    0.0000000000000000
    -3.9795520000000000    6.8927860000000001    0.0000000000000000
     0.0000000000000000    0.0000000000000000    8.2626130000000000
 Mg  Rh 
  18   6
Cartesian
  0.0000000000000000  0.0000000000000000  2.6075567236050001
  0.0000000000000000  0.0000000000000000  6.7388632236049997
 -0.0000043128850003  4.5951929642620000  1.6783763160770000
  3.9795553128850001  2.2975930357380001  5.8096828160770002
 -0.0000043128850003  4.5951929642620000  5.8096828160770002
  3.9795553128850001  2.2975930357380001  1.6783763160770000
  1.1330338834140001  1.9624726732040001  4.7707666452959998
 -1.1330341681280001  1.9624726732040001  0.6394601452960000
  2.2660680515420002  0.0000000000000000  0.6394601452960000
  5.6930349484580001  0.0000000000000000  4.7707666452959998
 -2.8465178318719997  4.9303133267960000  4.7707666452959998
  2.8465171165860004  4.9303133267960000  0.6394601452960000
  2.4912466806120004  4.3149667494320001  3.4642822777359998
 -2.4912473066240000  4.3149667494320001  7.5955887777359994
  4.9824939872360003  0.0000000000000000  7.5955887777359994
  2.9766090127639999  0.0000000000000000  3.4642822777359998
 -1.4883046933760000  2.5778192505680000  3.4642822777359998
  1.4883043193879999  2.5778192505680000  7.5955887777359994
  1.3036372347840000  2.2579664090240001  2.0454511612149999
 -1.3036375623679999  2.2579664090240001  6.1767576612149995
  2.6072747971519998  0.0000000000000000  6.1767576612149995
  5.3518282028480000  0.0000000000000000  2.0454511612149999
 -2.6759144376320001  4.6348195909759999  2.0454511612149999
  2.6759137652159999  4.6348195909759999  6.1767576612149995
