Dy Cu Si
 1.0000000000000000
     3.7029109999999998    0.0000000000000000   -1.3679079999999999
    -0.5053230000000000    3.6682690000000000   -1.3679079999999999
    -0.0001750000000000   -0.0001990000000000    5.6953540000000000
 Dy  Cu  Si 
   1   2   2
Cartesian
  0.0000000000000000  0.0000000000000000  0.0000000000000000
  0.5466480000000000  2.7511022499999997  1.4797690000000001
  2.6507649999999998  0.9169677500000000  1.4797690000000001
  1.9757899246440003  2.2666241736210004 -0.3473951103119999
  1.2216230753560000  1.4014458263790002  3.3069331103119999
