Sr Zn Ir O 
 1.0000000000000000
     4.7231660000000000   -4.8429820000000001    0.0000000000000000
     4.7231660000000000    4.8429820000000001    0.0000000000000000
    -0.2426720000000000    0.0000000000000000    6.7604649999999999
 Sr  Zn  Ir  O  
   6   2   2  12
Cartesian
  3.8573412782099998  1.7545881636900003  6.0012985828250001
  5.2249827217899991 -3.0883938363099999  4.1393989171749999
  7.0240809999999998  1.3338056726199998  1.6901162500000000
  5.3463187217900003 -1.7545881636900003  0.7591664171750000
  3.9786772782099997  3.0883938363099999  2.6210660828250001
  2.1795789999999999 -1.3338056726200000  5.0703487500000000
  6.9027450000000004 -0.0000000000000002  5.0703487500000000
  2.3009149999999998  0.0000000000000000  1.6901162500000000
  4.6018299999999996  0.0000000000000000  3.3802325000000000
  0.0000000000000000  0.0000000000000000  0.0000000000000000
  1.5564249230559999  0.9226946166040001  6.4871596814450001
  4.9078491259039998 -4.1912037964759996  1.9245488948050000
  5.8539505133400001  3.2685091798720003  0.6365315820750000
  4.4171468740959998  0.6517782035240000  1.4556836051950000
  2.8027330769440004  0.9226946166040001  3.6535378185549998
  3.4710454866600000 -1.5744728201279998  2.7437009179250000
  7.6472350769439998 -0.9226946166039995  0.2733053185550000
  4.2958108740960004  4.1912037964760005  4.8359161051950004
  3.3497094866599997 -3.2685091798720003  6.1239334179250005
  4.7865131259040004 -0.6517782035239997  5.3047813948049996
  5.7326145133399997  1.5744728201279996  4.0167640820749995
  6.4009269230559998 -0.9226946166040001  3.1069271814450001
