Ba Sn Hg
 1.0000000000000000
     4.9564570000000003    0.0000000000000000    0.0000000000000000
    -2.4782289999999998    4.2924170000000004    0.0000000000000000
     0.0000000000000000    0.0000000000000000    9.7328469999999996
 Ba  Sn  Hg 
   2   2   2
Cartesian
  0.0000000000000000  0.0000000000000000  4.8664234999999998
  0.0000000000000000  0.0000000000000000  0.0000000000000000
  2.4782308115620002  1.4308042358610000  2.4332117499999999
 -0.0000028115619998  2.8616127641390001  7.2996352499999997
 -0.0000028115619998  2.8616127641390001  2.4332117499999999
  2.4782308115620002  1.4308042358610000  7.2996352499999997
