Ho Co C 
 1.0000000000000000
     3.6167859999999998    0.0000000000000000    0.0000000000000000
     0.0000000000000000    3.6166499999999999    0.0000000000000000
     0.0000000000000000    0.0000000000000000    6.8064939999999998
 Ho  Co  C  
   2   2   2
Cartesian
  0.0000000000000000  0.0000000000000000  5.1048773064940001
  0.0000000000000000  0.0000000000000000  1.7016166935060000
  1.8083929999999999  1.8083250000000000  0.0000000000000000
  1.8083929999999999  1.8083250000000000  3.4032469999999999
  1.8083929999999999  0.0000000000000000  3.4032469999999999
  0.0000000000000000  1.8083250000000000  0.0000000000000000
