La In Hg
 1.0000000000000000
     0.0000000000000000    3.7298730000000000    3.7298730000000000
     3.7298730000000000    0.0000000000000000    3.7298730000000000
     3.7298730000000000    3.7298730000000000    0.0000000000000000
 La  In  Hg 
   1   1   2
Cartesian
  3.7298730000000000  3.7298730000000000  3.7298730000000000
  0.0000000000000000  0.0000000000000000  0.0000000000000000
  5.5948095000000002  5.5948095000000002  5.5948095000000002
  1.8649365000000000  1.8649365000000000  1.8649365000000000
