Ca Si
 1.0000000000000000
     1.9214629999999999   -1.1093569999999999    5.2905650000000000
     0.0000000000000000    2.2187139999999999    5.2905650000000000
    -1.9214629999999999   -1.1093569999999999    5.2905650000000000
 Ca  Si 
   1   2
Cartesian
  0.0000000000000000  0.0000000000000000  0.0000000000000000
  0.0000000000000000  0.0000000000000000 12.7390985578499993
 -0.0000000000000000  0.0000000000000000  3.1325964421500001
