Sr Y  Os O 
 1.0000000000000000
     5.8464390000000002    0.0000000000000000    0.0000000000000000
     0.0000000000000000    5.8854259999999998    0.0000000000000000
    -5.8169930000000001    0.0000000000000000    8.2761279999999999
 Sr  Y   Os  O  
   4   2   2  12
Cartesian
 -2.8610011025720001  0.1976679176360000  6.2147762467840000
  0.0474953974280002  2.7450450823639998  2.0767122467840000
  2.8904471025720002  5.6877580823639997  2.0613517532159999
 -0.0180493974279998  3.1403809176360000  6.1994157532159999
 -2.9084965000000000  2.9427129999999999  4.1380640000000000
  0.0000000000000000  0.0000000000000000  0.0000000000000000
  0.0147230000000000  0.0000000000000000  4.1380640000000000
  2.9232195000000001  2.9427129999999999  0.0000000000000000
 -3.3386409195469997  2.8305191241620000  6.3420217147839999
 -0.4301444195470000  0.1121938758380000  2.2039577147839999
  3.3680869195470002  3.0549068758380002  1.9341062852159998
  0.4595904195469998  5.7732321241619999  6.0721702852160000
  1.5921154461030005  1.1759434273560001  3.8175874954559998
 -1.3163810538970000  1.7667695726440000  7.9556514954560003
 -1.5626694461029995  4.7094825726439993  4.4585405045439996
  1.3458270538970001  4.1186564273560000  0.3204765045440000
  1.1621932930159999  4.2891395622979998  3.8065305884480001
 -1.7463032069840003  4.5389994377019995  7.9445945884480000
 -1.1327472930160001  1.5962864377019998  4.4695974115519999
  1.7757492069839997  1.3464265622980001  0.3315334115520000
