Li Ga Pt
 1.0000000000000000
     3.7357629999999999    0.0000000000000000    2.1568440000000000
     1.2452540000000001    3.5221100000000001    2.1568440000000000
     0.0000000000000000    0.0000000000000000    4.3136880000000000
 Li  Ga  Pt 
   1   2   1
Cartesian
  2.4905084999999998  1.7610550000000000  4.3136880000000000
  1.2452542499999999  0.8805275000000000  2.1568440000000000
  3.7357627500000001  2.6415825000000002  6.4705320000000004
  0.0000000000000000  0.0000000000000000  0.0000000000000000
