Na H  S  O 
 1.0000000000000000
     8.6307980000000004    0.0059500000000000    0.0083250000000000
    -2.8944160000000001    8.5416450000000008   -0.0000020000000000
    -0.0107470000000000   -0.0036180000000000    9.5750560000000000
 Na  H   S   O  
  12   4   8  32
Cartesian
  5.7433514592340016  8.5036467475320006  0.0204374054840000
  2.8748908205790000  4.2256221512829999  0.0104621991320000
  5.5688866131750006  2.3071009040600003  0.0545256551500000
  2.9541283433570000  1.0566763838330002  8.1030211590260013
  7.1889042131589997  4.2262619530230001  4.8001456088210004
  1.4237093975569994  8.4942686550320001  4.7995415903899996
  1.6247666309159998  1.8816229932810002  4.8377627256449998
  4.2342087405760003  3.1347185290970003  3.3131586387690000
  0.1752572758629999  6.1515146857150009  9.5677180938670006
  2.7905886447110007  7.4095869308620008  1.4945219656980000
  4.1138907196089995  6.5740914187990009  4.7873951807049995
  1.5065759487300006  5.3322336267380006  6.3083185876660002
  5.1826694835260003  7.5056503068220000  7.0517876840009999
  6.6228560590050005  3.2347720530170001  7.3454013410019998
  0.5638728957219999  0.9535528432870001  2.5573598774470003
 -0.8805993132369999  5.2249424146860006  2.2593568736530001
 -1.2788467844700000  7.2766166316860001  6.6403798134610001
  4.2995720210030006  3.4133176658380000  6.5153397089820002
  0.1641051345170001  3.0048185307810003  7.7471105727760001
  2.8893101362709999  0.7756686879100001  1.7278443697460000
  7.0211790508640002  1.1769700615500001  2.9697768111370002
  1.4441719882880002  5.0442604114590006  3.0934120454500000
  5.5742986880689998  5.4513906409320017  1.8569725269790001
  2.8509312981689989  7.6845207401730011  7.8824655957270009
 -1.2161832066950002  7.4059463523750004  8.1021835606339998
 -0.6638897370440000  8.4416509144690011  6.0040750814799999
  5.8630601070310009  7.2654250124840010  6.2444307462930002
 -0.7038532974629997  6.0345720610419997  6.1624743269119993
  3.6787430447570006  4.6586518243360002  6.0703283333369997
  5.7796098605520001  3.5489589528040004  6.3613408953350001
  4.0025247578270005  3.1446926143750007  7.9322287334879995
  3.8380505518069996  2.2886968580580005  5.6822625357760002
  0.2332090189890000  3.1419274688209997  6.2859709265350006
  0.7724436055250002  4.1694508933760002  8.3911390588460009
  7.3062147418509991  2.9828329331170003  8.1534435109479997
  0.7451995324740001  1.7631459304440000  8.2197854966880008
  0.6096834118870004  8.0712284913270018  1.2760468495099999
  1.4088239604770001  0.6499351771640001  1.5713744212010001
  3.1868501098560000  1.0358433896510000  3.1458337340319997
  3.3572448724780006  1.9020394522410002  0.8999700571130000
  6.9580055990389997  1.0482553336590001  1.5074365693089999
  6.4100923082180001  0.0094356513300000  3.6047822498379998
 -0.1221306997170000  1.1960977772150001  3.3656696665359997
  6.4392958041139998  2.4167292612250000  3.4462673723880002
  2.0536669993850003  3.7942783725380003  3.5407185648020003
 -0.0378906746909998  4.9192315729090001  3.2404034224459997
  1.7499685745000002  5.3117717000470002  1.6780631054160000
  1.9066942295199998  6.1656852228550010  3.9301085156470004
  5.5054200691549999  5.3177930994150007  3.3186305907220004
  4.9637481746360006  4.2863198687140001  1.2160153612619999
 -1.5679001440870002  5.4683187174780006  1.4496420442419999
  4.9960561250709992  6.6929894952000009  1.3811692820479999
  5.1310459265670003  0.3879691348720001  8.3371166327330002
  4.3301891978340006  7.8060138701850006  8.0439407354519989
  2.5573883251500003  7.4291681364480002  6.4625474969010002
  2.3770322497660006  6.5550898260200006  8.7034774090799996
