Ti O 
 1.0000000000000000
     2.9540790000000001    0.0000000000000000    0.0000000000000000
    -1.4770390000000000    2.5583079999999998    0.0000000000000000
     0.0000000000000000    0.0000000000000000    4.8223390000000004
 Ti  O  
   2   1
Cartesian
 -0.0000011437060000  1.7055395194359999  3.5205678763060000
  1.4770411437060000  0.8527684805639999  1.3017711236940002
  0.0000000000000000  0.0000000000000000  0.0000000000000000
