Sr Cu Cl O 
 1.0000000000000000
    -1.9948049999999999    1.9948049999999999    8.0327959999999994
     1.9948049999999999   -1.9948049999999999    8.0327959999999994
     1.9948049999999999    1.9948049999999999   -8.0327959999999994
 Sr  Cu  Cl  O  
   2   1   2   2
Cartesian
  0.0000000000000001 -0.0000000000000001  9.7431228587279985
  0.0000000000000000 -0.0000000000000000  6.3224691412719993
  0.0000000000000000  0.0000000000000000  0.0000000000000000
 -0.0000000000000000  0.0000000000000000  2.9305085711279997
 -0.0000000000000000  0.0000000000000000 13.1350834288719991
  1.9948049999999999  0.0000000000000000  0.0000000000000000
  0.0000000000000000  1.9948049999999999  0.0000000000000000
