Ba Cu
 1.0000000000000000
     4.4348780000000003    0.0000000000000000    0.0000000000000000
    -2.2174390000000002    3.8407170000000002    0.0000000000000000
     0.0000000000000000    0.0000000000000000   16.8608480000000007
 Ba  Cu 
   4   4
Cartesian
 -0.0000022174390002  2.5604792802390000  6.3435231213440000
  2.2174412174390001  1.2802377197610000 14.7739471213440012
  2.2174412174390001  1.2802377197610000 10.5173248786559999
 -0.0000022174390002  2.5604792802390000  2.0869008786559999
  2.2174412174390001  1.2802377197610000  4.2152120000000002
 -0.0000022174390002  2.5604792802390000 12.6456359999999997
  0.0000000000000000  0.0000000000000000 12.6456359999999997
  0.0000000000000000  0.0000000000000000  4.2152120000000002
