Rb Fe As
 1.0000000000000000
    -1.8190569999999999    1.8190569999999999    7.7113220000000000
     1.8190569999999999   -1.8190569999999999    7.7113220000000000
     1.8190569999999999    1.8190569999999999   -7.7113220000000000
 Rb  Fe  As 
   1   2   2
Cartesian
  0.0000000000000000  0.0000000000000000  0.0000000000000000
  0.0000000000000000  1.8190569999999999  3.8556610000000000
  1.8190569999999999  0.0000000000000000  3.8556610000000000
 -0.0000000000000000  0.0000000000000000  5.3905996440999999
 -0.0000000000000001  0.0000000000000001 10.0320443559000001
