Ca Fe P 
 1.0000000000000000
     3.5735570000000001    0.0000000000000000   -1.2810919999999999
    -0.4592620000000000    3.5439219999999998   -1.2810919999999999
     0.0145440000000000    0.0165490000000000    5.6652620000000002
 Ca  Fe  P  
   1   2   2
Cartesian
  0.0000000000000000  0.0000000000000000  0.0000000000000000
  2.5726242499999996  0.8942549999999999  1.5515390000000002
  0.5562147500000000  2.6662159999999999  1.5515390000000002
  2.0084901335110001  2.2855674001509998 -0.0220955663619997
  1.1203488664890000  1.2749035998489999  3.1251735663620002
