Fe Ge
 1.0000000000000000
     4.9976200000000004    0.0001500000000000    0.0000000000000000
    -2.4986790000000001    4.3281000000000001    0.0000000000000000
     0.0000000000000000    0.0000000000000000    4.1157610000000000
 Fe  Ge 
   3   3
Cartesian
  2.4988100000000002  0.0000750000000000  0.0000000000000000
  1.2494705000000002  2.1641249999999999  0.0000000000000000
 -1.2493395000000000  2.1640500000000000  0.0000000000000000
  0.0000000000000000  0.0000000000000000  0.0000000000000000
 -0.0000550980069998  2.8854774074999998  2.0578805000000000
  2.4989960980069998  1.4427725924999999  2.0578805000000000
