Cu Sb S 
 1.0000000000000000
     3.8015750000000001    0.0000000000000000    0.0000000000000000
     0.0000000000000000    6.0743210000000003    0.0000000000000000
     0.0000000000000000    0.0000000000000000   14.4917599999999993
 Cu  Sb  S  
   4   4   8
Cartesian
  0.9503937500000000  1.5191998307420000 12.0023364836799988
  0.9503937500000000  4.5563603307420006  9.7353035163200001
  2.8511812500000002  4.5551211692580003  2.4894235163199996
  2.8511812500000002  1.5179606692580001  4.7564564836800001
  0.9503937500000000  4.4270380366520001  6.2979305031199999
  2.8511812500000002  1.6472829633480000  8.1938294968800012
  0.9503937500000000  1.3898775366520000  0.9479494968800000
  2.8511812500000002  4.6844434633479999 13.5438105031199978
  0.9503937500000000  0.7513084672060001  5.8118478891999992
  2.8511812500000002  5.3230125327940003  8.6799121108000001
  0.9503937500000000  3.7884689672060001  1.4340321108000000
  2.8511812500000002  2.2858520327940002 13.0577278891999988
  2.8511812500000002  3.7920345936329998  4.6602167055199999
  0.9503937500000000  5.3194469063670002 11.9060967055199995
  2.8511812500000002  0.7548740936330000  2.5856632944799998
  0.9503937500000000  2.2822864063670001  9.8315432944799994
