Mn Te
 1.0000000000000000
     6.9993960000000000    0.0001360000000000   -0.0001350000000000
     0.0001400000000000    6.9993960000000000   -0.0001320000000000
    -0.0001310000000000   -0.0001360000000000    6.9993960000000000
 Mn  Te 
   4   8
Cartesian
  0.0000000000000000  0.0000000000000000  0.0000000000000000
  3.4996325000000001  0.0000000000000000  3.4996304999999999
  3.4997680000000000  3.4997660000000002 -0.0001335000000000
  0.0000045000000000  3.4996299999999998  3.4996320000000001
  2.6970947799190004  2.6997860254360000  2.6970653183639999
  0.8010788862670000  4.3006810029480000  6.1981975707899997
  6.1994125580079995  0.8025666096999999  4.3021700341439999
  4.3023297227719990  6.1968433112719996  0.7997191303440000
  4.3023102200810008  4.2996099745640004  4.3020636816359996
  6.1983261137330006  2.6987149970519999  0.8009314292099999
  0.7999924419920000  6.1968293902999996  2.6969589658560000
  2.6970752770969999  0.8025526885920000  6.1994168690519995
