Sr Mg Ge
 1.0000000000000000
     4.6044049999999999    0.0000000000000000    0.0000000000000000
     0.0000000000000000    7.8498089999999996    0.0000000000000000
     0.0000000000000000    0.0000000000000000    8.5481370000000005
 Sr  Mg  Ge 
   4   4   4
Cartesian
  1.1511012500000000  0.1215228931290000  6.9787503356220002
  1.1511012500000000  4.0464273931289991  5.8434551643780006
  3.4533037499999999  3.8033816068709996  2.7046818356220004
  3.4533037499999999  7.7282861068709998  1.5693866643780001
  3.4533037499999999  2.8064637136799999  8.0118610771679997
  1.1511012500000000  5.0433452863200001  0.5362759228320000
  3.4533037499999999  6.7313682136799988  4.8103444228320003
  1.1511012500000000  1.1184407863199999  3.7377925771680003
  3.4533037499999999  1.7234491153770000  5.2087132514430001
  1.1511012500000000  2.2014553846229998  0.9346447514430001
  1.1511012500000000  6.1263598846229996  3.3394237485570000
  3.4533037499999999  5.6483536153769993  7.6134922485570007
