Ca Si Pd
 1.0000000000000000
     7.0068080000000004    0.0000000000000000   -2.4700350000000002
     0.0000000000000000    5.7641039999999997    0.0000000000000000
    -0.0006000000000000    0.0000000000000000    5.9137269999999997
 Ca  Si  Pd 
   4   4   4
Cartesian
  0.8121010330320001  0.7294531253040000  1.5982733152070001
  4.3152050330320000  2.1525988746959999  3.3201193152070001
  6.1941069669680013  5.0346508746960001  1.8454186847929994
  2.6910029669680000  3.6115051253039998  0.1235726847930000
  6.6963528568560005  3.5577145067759997 -1.3494179051070003
  0.3098551431440000  2.2063894932239996  4.7931099051070003
  3.8135591431440004  0.6756625067760000  0.6012289051070000
  3.1926488568560001  5.0884414932239999  2.8424630948929996
  1.3296021646640002  3.5270782940159999  2.9418919027890000
  5.6766058353359998  2.2370257059839997  0.5018000972109996
  4.8333061646640001  5.1190777059840000 -1.2499890972110002
  2.1729018353359999  0.6450262940160000  4.6936810972109999
