Mg Pd F 
 1.0000000000000000
     4.3871529999999996    0.0161030000000000    3.0329109999999999
     1.6025950000000000    4.0859860000000001    3.0302359999999999
     0.0253210000000000    0.0208300000000000    5.3333709999999996
 Mg  Pd  F  
   1   1   6
Cartesian
  3.0075344999999998  2.0614595000000002  5.6982590000000002
  0.0000000000000000  0.0000000000000000  0.0000000000000000
  1.8868280433450000  0.4319888010970000  5.5235427609969996
  1.6638326971889998  3.1044781972480000  4.6744129368069993
  2.0661597565409999  2.5189429579020000  7.3853292449579993
  4.3512363028109995  1.0184408027520000  6.7221050631929993
  4.1282409566549996  3.6909301989030001  5.8729752390029999
  3.9489092434589996  1.6039760420979998  4.0111887550420002
