Lu Ir
 1.0000000000000000
     3.3284609999999999    0.0000000000000000    0.0000000000000000
     0.0000000000000000    3.3284609999999999    0.0000000000000000
     0.0000000000000000    0.0000000000000000    3.3284609999999999
 Lu  Ir 
   1   1
Cartesian
  1.6642304999999999  1.6642304999999999  1.6642304999999999
  0.0000000000000000  0.0000000000000000  0.0000000000000000
