Cs Tl In F 
 1.0000000000000000
     0.0000000000000000    4.8211329999999997    4.8211329999999997
     4.8211329999999997    0.0000000000000000    4.8211329999999997
     4.8211329999999997    4.8211329999999997    0.0000000000000000
 Cs  Tl  In  F  
   2   1   1   6
Cartesian
  7.2316994999999995  7.2316994999999995  7.2316994999999995
  2.4105664999999998  2.4105664999999998  2.4105664999999998
  0.0000000000000000  0.0000000000000000  0.0000000000000000
  4.8211329999999997  4.8211329999999997  4.8211329999999997
  2.7031417772379998  4.8211329999999997  4.8211329999999997
  4.8211329999999997  4.8211329999999997  2.7031417772379998
  6.9391242227619996  4.8211329999999997  4.8211329999999997
  4.8211329999999997  2.7031417772379998  4.8211329999999997
  4.8211329999999997  6.9391242227619996  4.8211329999999997
  4.8211329999999997  4.8211329999999997  6.9391242227619996
