Li Ti N 
 1.0000000000000000
     6.0456810000000001   -0.1136860000000000    0.0000000000000000
    -3.1199640000000000    5.4055049999999998    0.0000000000000000
     0.0000000000000000    0.0000000000000000    4.1429140000000002
 Li  Ti  N  
   2   4   6
Cartesian
 -2.0195651770560001  3.4990050085199997  1.7919967361300002
 -1.1003988229440000  1.9064999914800000  3.8634537361299999
  0.9191500854930000  1.7594532865790000  1.7857989367860001
  4.0623985530990003 -0.0294728852190000  1.7857989367860001
  2.0065669145070002  3.5323657134210000  3.8572559367860002
 -1.1366815530990000  5.3212918852189999  3.8572559367860002
  1.1673075883049999  1.7419490567860001  3.8572642226139999
  0.8334617642910001  5.1523913610190002  3.8572642226139999
  1.7584094116950000  3.5498699432140000  1.7858072226140003
  2.0922552357090001  0.1394276389810000  1.7858072226140003
 -2.1755040977400002  3.7691775539250001  3.8581135199840002
 -0.9444599022600000  1.6363274460749999  1.7866565199839999
