Lu Br
 1.0000000000000000
    10.1408079999999998   -0.0000000000000000    0.0000000000000000
    -5.0704029999999998    8.7822010000000006    0.0000000000000000
     0.0000000000000000    0.0000000000000000    3.6325639999999999
 Lu  Br 
   2   6
Cartesian
  0.0000006666660000  5.8547948118660003  2.7244266325640001
  5.0704195445450004  2.9273974059330001  0.9081410000000000
 -0.0000046392390000  3.7865776941650005  0.9081410000000000
  1.7911311382259998  6.8889165440179996  0.9081410000000000
 -1.7911295693899996  6.8889165440179996  0.9081410000000000
  5.0704045688359995  4.9956320880360003  2.7244266325640001
  3.2792637209660001  1.8932844559820001  2.7244266325640001
  6.8615447101979994  1.8932844559820001  2.7244266325640001
