Hg Te
 1.0000000000000000
     4.0293919999999996   -0.0000000000000000    2.3263690000000001
     1.3431299999999999    3.7989449999999998    2.3263690000000001
    -0.0000000000000000   -0.0000000000000000    4.6527409999999998
 Hg  Te 
   1   1
Cartesian
  0.0000000000000000  0.0000000000000000  0.0000000000000000
  1.3431305000000000  0.9497362499999999  2.3263697500000000
