Pt O 
 1.0000000000000000
     4.5528959999999996    0.0000000000000000    0.0000000000000000
     0.0000000000000000    4.6097979999999996    0.0000000000000000
     0.0000000000000000    0.0000000000000000    3.1902689999999998
 Pt  O  
   2   4
Cartesian
  0.0000000000000000  0.0000000000000000  0.0000000000000000
  2.2764479999999998  2.3048989999999998  1.5951344999999999
  2.9033225915519996  3.4149521877939994  0.0000000000000000
  1.6495734084479998  1.1948458122059999  0.0000000000000000
  3.9260214084479998  1.1100531877939999  1.5951344999999999
  0.6268745915520000  3.4997448122060000  1.5951344999999999
