Ti Cd O 
 1.0000000000000000
     4.6898850000000003   -0.0034290000000000    3.4515080000000000
     1.7435210000000001    4.3537960000000000    3.4514559999999999
    -0.0050340000000000   -0.0033350000000000    5.8230490000000001
 Ti  Cd  O  
   2   2   6
Cartesian
  5.4637690679120006  3.6947424602719998 10.8164238452980008
  0.9646029320880000  0.6522895397280000  1.9095891547019999
  4.0937030002960002  2.7682682241759999  8.1041541466340004
  2.3346689997040002  1.5787637758239998  4.6218588533659997
  4.5359762083039996  1.9027436349460001  4.4959034718820003
  2.1110968111260000  0.1516907376840000  6.3189326799440000
  1.5683735398259999  3.5010638293060001  5.4489830101479999
  1.8923957916960004  2.4442883650540002  8.2301095281179997
  4.8599984601740003  0.8459681706940000  7.2770299898520001
  4.3172751888740004  4.1953412623160000  6.4070803200560000
