Mg Ti O 
 1.0000000000000000
     5.9800639999999996    0.0000000000000000    0.0000000000000000
     0.0000000000000000    5.9800639999999996    0.0000000000000000
     0.0000000000000000    0.0000000000000000    8.3982250000000001
 Mg  Ti  O  
   8   4  16
Cartesian
  0.0000000000000000  1.4807774676159999  0.0000000000000000
  0.0000000000000000  4.4992865323839997  4.1991125000000000
  1.4807774676159999  0.0000000000000000  6.2986687500000000
  1.5078312771519999  1.5078312771519999  3.1493343750000000
  1.5078312771519999  4.4722327228480001  1.0497781250000000
  4.4722327228480001  1.5078312771519999  5.2488906249999996
  4.4722327228480001  4.4722327228480001  7.3484468750000005
  4.4992865323839997  0.0000000000000000  2.0995562500000000
  1.4175801512640001  2.9900319999999998  6.2986687500000000
  2.9900319999999998  1.4175801512640001  0.0000000000000000
  2.9900319999999998  4.5624838487360000  4.1991125000000000
  4.5624838487360000  2.9900319999999998  2.0995562500000000
  0.1567613976960000  1.5677275981759997  6.3196223213750002
  0.1567613976960000  4.4123364018239997  6.2777151786249998
  1.5576153099519998  2.8873722413119998  8.2619218082499994
  1.5576153099519998  3.0926917586879998  4.3354156917499997
  1.5677275981759997  0.1567613976960000  8.3772714286249990
  1.5677275981759997  5.8233026023039995  4.2200660713750002
  2.8873722413119998  1.5576153099519998  6.4349719417499998
  2.8873722413119998  4.4224486900479993  6.1623655582500003
  3.0926917586879998  1.5576153099519998  1.9632530582500001
  3.0926917586879998  4.4224486900479993  2.2358594417500002
  4.4123364018239997  5.8233026023039995  4.1781589286249998
  4.4123364018239997  0.1567613976960000  0.0209535713750000
  4.4224486900479993  2.8873722413119998  0.1363031917500000
  4.4224486900479993  3.0926917586879998  4.0628093082499994
  5.8233026023039995  1.5677275981759997  2.0786026786250003
  5.8233026023039995  4.4123364018239997  2.1205098213750002
