Ti C 
 1.0000000000000000
     3.0686480000000000   -1.7716850000000000    4.9599630000000001
     0.0000000000000000    3.5433699999999999    4.9599630000000001
    -3.0686480000000000   -1.7716850000000000    4.9599630000000001
 Ti  C  
   8   5
Cartesian
  0.0000000000000000  1.8206153963300000  6.2638777531440004
 -1.5766989602320001 -0.9103076981650000  6.2638777531440004
  1.5766989602320001 -0.9103076981650000  6.2638777531440004
 -1.5766989602319998  0.9103076981649999  8.6160112468559991
  0.0000000000000001 -1.8206153963299996  8.6160112468559991
  1.5766989602319998  0.9103076981650000  8.6160112468559991
  0.0000000000000000  0.0000000000000000  3.6383114191680002
  0.0000000000000000  0.0000000000000001 11.2415775808320006
 -1.5343240000000000 -0.8858425000000000  2.4799815000000001
  1.5343240000000000 -0.8858425000000000  2.4799815000000001
  0.0000000000000000  1.7716850000000000  2.4799815000000001
  0.0000000000000000  0.0000000000000000  7.4399445000000002
  0.0000000000000000  0.0000000000000000  0.0000000000000000
