Zn B  O 
 1.0000000000000000
    -3.7352780000000001    3.7352780000000001    3.7352780000000001
     3.7352780000000001   -3.7352780000000001    3.7352780000000001
     3.7352780000000001    3.7352780000000001   -3.7352780000000001
 Zn  B   O  
   4   6  13
Cartesian
  2.5950022143840004  2.5950022143839999  2.5950022143839999
  1.1402757856160000 -1.1402757856160000  1.1402757856160000
 -1.1402757856160000  1.1402757856160000  1.1402757856160000
  1.1402757856160000  1.1402757856160000 -1.1402757856160000
  3.7352780000000001  1.8676390000000000 -0.0000000000000002
  0.0000000000000002  3.7352780000000001  1.8676390000000000
  3.7352780000000001  0.0000000000000000  1.8676390000000000
  1.8676390000000000  0.0000000000000000  3.7352780000000001
  1.8676390000000000  3.7352780000000001 -0.0000000000000002
  0.0000000000000002  1.8676389999999998  3.7352779999999992
  1.0462476325220000  1.0462476325220000  4.3678435940220002
  1.0462476325219998 -1.0462476325219998  3.1027124059780000
  2.6890303674780003  0.6325655940220000  2.6890303674779998
 -1.0462476325219996  1.0462476325219996  3.1027124059780000
  3.1027124059780000 -1.0462476325219996  1.0462476325219996
  0.6325655940219997  2.6890303674780003  2.6890303674780007
  4.3678435940220002  1.0462476325220000  1.0462476325219998
  1.0462476325220000  4.3678435940220002  1.0462476325219998
  1.0462476325219998  3.1027124059780000 -1.0462476325219998
  3.1027124059780000  1.0462476325219998 -1.0462476325219998
  2.6890303674780003  2.6890303674780003  0.6325655940219997
 -1.0462476325219996  3.1027124059780000  1.0462476325219996
  0.0000000000000000  0.0000000000000000  0.0000000000000000
