Dy Ni
 1.0000000000000000
    -2.4772219999999998   -4.2906730000000000    0.0000000000000000
     2.4772219999999998   -4.2906730000000000    0.0000000000000000
     0.0000000000000000   -2.8604490000000000    8.0996530000000000
 Dy  Ni 
   3   9
Cartesian
  0.0000000000000000 -2.8604488606890000  4.7145407227509999
 -0.0000000000000000 -8.5813461393110000  3.3851122772490001
  0.0000000000000000  0.0000000000000000  0.0000000000000000
  1.2402459665200001 -5.0048443303510002  6.1062231012109995
 -0.0000000000000001 -7.1530126745310003  6.1062231012109995
 -1.2402459665200001 -5.0048443303510002  6.1062231012109995
 -1.2402459665199999 -6.4369506696490006  1.9934298987890000
  0.0000000000000000 -4.2887823254689996  1.9934298987890000
  1.2402459665200001 -6.4369506696490006  1.9934298987890000
  0.0000000000000000 -2.8604458063210001  0.0025027927770000
  0.0000000000000001 -8.5813491936789994  8.0971502072230006
  0.0000000000000000 -5.7208974999999995  4.0498265000000000
