Zr Pd
 1.0000000000000000
     3.2004730000000001   -0.0000000000000000   -0.9293930000000000
    -0.2698900000000000    3.1890740000000002   -0.9293930000000000
    -0.0202330000000000   -0.0220170000000000    5.9056189999999997
 Zr  Pd 
   2   1
Cartesian
  1.9171584230659999  2.0862608809770000  0.6266570121289999
  0.9931915769340000  1.0807961190230002  3.4201759878709996
  0.0000000000000000  0.0000000000000000  0.0000000000000000
