Er Sn Pt
 1.0000000000000000
     4.5102849999999997    0.0000000000000000    0.0000000000000000
    -2.2551420000000002    3.9060220000000001    0.0000000000000000
     0.0000000000000000    0.0000000000000000    9.0111080000000001
 Er  Sn  Pt 
   2   2   4
Cartesian
  2.2551449218089998  1.3020060313260000  6.7583310000000001
 -0.0000019218090004  2.6040159686740001  2.2527770000000000
  0.0000000000000000  0.0000000000000000  4.5055540000000001
  0.0000000000000000  0.0000000000000000  0.0000000000000000
  2.2551449218089998  1.3020060313260000  0.8047279888319999
 -0.0000019218090004  2.6040159686740001  8.2063800111679992
 -0.0000019218090004  2.6040159686740001  5.3102819888320001
  2.2551449218089998  1.3020060313260000  3.7008260111680000
