Nb B 
 1.0000000000000000
     3.0899830000000001   -0.0231780000000000   -0.6380010000000000
    -0.1201600000000000    3.2383639999999998   -0.7067780000000000
    -0.0738090000000000   -0.0769790000000000    7.4368610000000004
 Nb  B  
   3   4
Cartesian
  0.5222722181780001  0.5655781107650000  2.5014420686199998
  2.3737417818220004  2.5726288892349993  3.5906399313800001
  1.5449915000000001 -0.0115890000000000 -0.3190005000000000
  2.7746297049030000  1.3220672194050000  5.5756827950790004
  0.1213842950970000  1.8161397805949999  0.5163992049210001
  1.0385997995530001  1.1256384181910000  4.9757299000390001
  1.8574142004470002  2.0125685818090000  1.1163520999610002
