Li Cr N 
 1.0000000000000000
     6.4852999999999996    0.0000000000000000    0.0000000000000000
     0.0000000000000000    6.4852999999999996    0.0000000000000000
     0.0000000000000000    0.0000000000000000    4.8941869999999996
 Li  Cr  N  
  12   2   8
Cartesian
  3.2426499999999998  0.0000000000000000  2.9507738609179994
  0.0000000000000000  3.2426499999999998  4.3905066390820000
  0.0000000000000000  3.2426499999999998  1.9434131390819998
  3.2426499999999998  0.0000000000000000  0.5036803609179999
  1.3994110045999999  1.3994110045999999  2.4470934999999998
  5.0858889953999995  5.0858889953999995  2.4470934999999998
  4.6420610045999995  4.6420610045999995  0.0000000000000000
  1.8432389954000001  1.8432389954000001  0.0000000000000000
  1.3994110045999999  5.0858889953999995  2.4470934999999998
  5.0858889953999995  1.3994110045999999  2.4470934999999998
  4.6420610045999995  1.8432389954000001  0.0000000000000000
  1.8432389954000001  4.6420610045999995  0.0000000000000000
  3.2426499999999998  3.2426499999999998  2.4470934999999998
  0.0000000000000000  0.0000000000000000  0.0000000000000000
  3.2426499999999998  1.7340589698999997  1.5244903086299999
  3.2426499999999998  4.7512410300999992  1.5244903086299999
  0.0000000000000000  4.9767089698999998  0.9226031913700000
  0.0000000000000000  1.5085910300999998  0.9226031913700000
  1.7340589698999997  3.2426499999999998  3.3696966913699997
  4.7512410300999992  3.2426499999999998  3.3696966913699997
  4.9767089698999998  0.0000000000000000  3.9715838086299997
  1.5085910300999998  0.0000000000000000  3.9715838086299997
