Al Hg Se
 1.0000000000000000
     5.2632640000000004    0.0001330000000000   -2.4692870000000000
    -1.1585500000000000    5.1342330000000000   -2.4691580000000002
    -0.0192740000000000   -0.0242780000000000    6.8028610000000000
 Al  Hg  Se 
   2   1   4
Cartesian
  0.4372665000000001  3.8385690000000001  0.9322402500000000
  2.0523570000000002  2.5671830000000000 -2.4692224999999999
  0.0000000000000000  0.0000000000000000  0.0000000000000000
  0.5293394696760001  0.6725330476920001  4.2725029168260003
  2.4187923298660001  3.0148877203849995  2.0116307358180001
  4.0780750834240003  2.0870515297779999 -1.2737308336460005
  1.1446666952200004  4.4457088362450001 -1.2815708188690003
