Ho Sn Pd
 1.0000000000000000
     4.1203010000000004    0.0000000000000000    2.3788559999999999
     1.3734340000000000    3.8846579999999999    2.3788559999999999
    -0.0000000000000000   -0.0000000000000000    4.7577150000000001
 Ho  Sn  Pd 
   1   1   2
Cartesian
  0.0000000000000000  0.0000000000000000  0.0000000000000000
  2.7468675000000005  1.9423290000000000  4.7577134999999995
  4.1203012499999998  2.9134935000000000  7.1365702500000001
  1.3734337500000002  0.9711645000000000  2.3788567499999997
