Er Si Ni
 1.0000000000000000
     1.9698020000000001   -8.1923960000000005    0.0000000000000000
     1.9698020000000001    8.1923960000000005    0.0000000000000000
     0.0000000000000000    0.0000000000000000    3.9058780000000000
 Er  Si  Ni 
   2   4   2
Cartesian
  1.9698020000000001  6.4559193590480000  0.9764695000000000
  1.9698020000000001 -6.4559193590480000  2.9294085000000001
  1.9698020000000001 -4.0983935621279999  0.9764695000000000
  1.9698020000000001  4.0983935621279999  2.9294085000000001
  1.9698019999999998 -0.6614868226239997  2.9294085000000001
  1.9698020000000001  0.6614868226239997  0.9764695000000000
  1.9698020000000001 -2.8945045851359996  2.9294085000000001
  1.9698020000000001  2.8945045851359996  0.9764695000000000
