Mg Rh
 1.0000000000000000
     8.6104430000000001    0.0000000000000000    0.0000000000000000
    -4.3052219999999997    7.4568630000000002    0.0000000000000000
     0.0000000000000000    0.0000000000000000    8.0916809999999995
 Mg  Rh 
  20   8
Cartesian
  0.0000000000000000  0.0000000000000000  0.0000000000000000
  0.0000000000000000  0.0000000000000000  4.0458404999999997
  4.3052214593909994  0.6056314991340001  6.0687607499999991
 -1.6281188006239997  4.0312472495670004  2.0229202499999999
  1.6281182600150002  4.0312472495670004  2.0229202499999999
  2.6771027399850000  3.4256157504330003  6.0687607499999991
  5.9333398006240001  3.4256157504330003  6.0687607499999991
 -0.0000004593909997  6.8512315008660005  2.0229202499999999
  4.3052211912170009  4.6051050554580000  0.5176814753370000
  1.8355264769119999  6.0309840277290006  4.5635219753369993
 -1.8355272856949998  6.0309840277290006  4.5635219753369993
  6.1407482856950004  1.4258789722710001  0.5176814753370000
  2.4696945230880001  1.4258789722710001  0.5176814753370000
 -0.0000001912169999  2.8517579445420003  7.5739995246629999
  1.8355264769119999  6.0309840277290006  7.5739995246629999
 -0.0000001912169999  2.8517579445420003  4.5635219753369993
 -1.8355272856949998  6.0309840277290006  7.5739995246629999
  6.1407482856950004  1.4258789722710001  3.5281590246629997
  4.3052211912170009  4.6051050554580000  3.5281590246629997
  2.4696945230880001  1.4258789722710001  3.5281590246629997
  4.3052256385550001  2.4856185143789999  2.0229202499999999
 -0.0000046385549999  4.9712444856209999  6.0687607499999991
  4.3052254275220001  5.6329068533370004  6.0687607499999991
  2.7256266823570008  6.5448886551000003  2.0229202499999999
 -2.7256361704999996  6.5448886551000003  2.0229202499999999
  7.0308571705000000  0.9119743449000001  6.0687607499999991
  1.5795943176430001  0.9119743449000001  6.0687607499999991
 -0.0000044275219999  1.8239561466630001  2.0229202499999999
