Sc Co
 1.0000000000000000
     3.1226569999999998    0.0000000000000000    0.0000000000000000
     0.0000000000000000    3.1226569999999998    0.0000000000000000
     0.0000000000000000    0.0000000000000000    3.1226569999999998
 Sc  Co 
   1   1
Cartesian
  1.5613284999999999  1.5613284999999999  1.5613284999999999
  0.0000000000000000  0.0000000000000000  0.0000000000000000
