Ca Pd
 1.0000000000000000
     3.5387529999999998    0.0000000000000000    0.0000000000000000
     0.0000000000000000    3.5387529999999998    0.0000000000000000
     0.0000000000000000    0.0000000000000000    3.5387529999999998
 Ca  Pd 
   1   1
Cartesian
  0.0000000000000000  0.0000000000000000  0.0000000000000000
  1.7693764999999999  1.7693764999999999  1.7693764999999999
