Ta V 
 1.0000000000000000
     7.1367609999999999    0.0000000000000000    0.0000000000000000
     0.0000000000000000    7.1367609999999999    0.0000000000000000
     0.0000000000000000    0.0000000000000000    7.1367609999999999
 Ta  V  
   8  16
Cartesian
  0.8920951250000000  0.8920951250000000  0.8920951250000000
  6.2446658749999999  2.6762853750000000  2.6762853750000000
  0.8920951250000000  4.4604756249999999  4.4604756249999999
  6.2446658749999999  6.2446658749999999  6.2446658749999999
  4.4604756249999999  0.8920951250000000  4.4604756249999999
  2.6762853750000000  2.6762853750000000  6.2446658749999999
  4.4604756249999999  4.4604756249999999  0.8920951250000000
  2.6762853750000000  6.2446658749999999  2.6762853750000000
  3.5683805000000000  3.5683805000000000  3.5683805000000000
  5.3525707499999999  0.0000000000000000  1.7841902500000000
  3.5683805000000000  1.7841902500000000  1.7841902500000000
  5.3525707499999999  1.7841902500000000  0.0000000000000000
  3.5683805000000000  0.0000000000000000  0.0000000000000000
  5.3525707499999999  3.5683805000000000  5.3525707499999999
  3.5683805000000000  5.3525707499999999  5.3525707499999999
  5.3525707499999999  5.3525707499999999  3.5683805000000000
  0.0000000000000000  3.5683805000000000  0.0000000000000000
  1.7841902500000000  0.0000000000000000  5.3525707499999999
  0.0000000000000000  1.7841902500000000  5.3525707499999999
  1.7841902500000000  1.7841902500000000  3.5683805000000000
  0.0000000000000000  0.0000000000000000  3.5683805000000000
  1.7841902500000000  3.5683805000000000  1.7841902500000000
  0.0000000000000000  5.3525707499999999  1.7841902500000000
  1.7841902500000000  5.3525707499999999  0.0000000000000000
