Nd Nb O 
 1.0000000000000000
     4.8693070000000001    0.0259660000000000   -1.8429009999999999
    -1.2193689999999999    4.9206339999999997   -2.0825870000000002
    -0.0257140000000000   -0.0006320000000000    6.7515679999999998
 Nd  Nb  O  
   2   2   8
Cartesian
  0.1180983035500001  1.8287474162799999  4.0150383110399996
  3.5061256964499998  3.1172205837199995 -1.1889583110399997
  2.0241669234200002  4.4135004537120004  2.2681457640159994
  1.6000570765800002  0.5324675462880000  0.5579342359839999
  2.6581768778820005  4.6720747713559998  0.5236284262619993
  0.6573936484550000  3.1479024470179997  2.0623552189809997
  0.9660471221180000  0.2738932286440000  2.3024515737380002
  2.9668303515450001  1.7980655529819998  0.7637247810190001
  0.0664222252120000  1.3543978940760000 -0.2893010258780001
  1.3810525854559998  3.8983119672519995 -2.0967618177059997
  3.5578017747880000  3.5915701059240002  3.1153810258779995
  2.2431714145440003  1.0476560327480000  4.9228418177059998
