Al Ni Ru
 1.0000000000000000
    -0.0000180000000000    2.9221260000000000    2.9221260000000000
     2.9221260000000000   -0.0000190000000000    2.9221260000000000
     2.9221260000000000    2.9221260000000000   -0.0000180000000000
 Al  Ni  Ru 
   2   1   1
Cartesian
  2.9221228442340004  2.9221223442330002  2.9221228442339999
  0.0000000000000000  0.0000000000000000  0.0000000000000000
  1.4610526557660000  1.4610524057670000  1.4610526557660002
  4.3831755000000001  4.3831747500000002  4.3831755000000001
