Ca Al Si
 1.0000000000000000
     4.0875839999999997    0.0000000000000000    0.0000000000000000
     0.0000000000000000    4.5391060000000003    0.0000000000000000
     0.0000000000000000    0.0000000000000000   18.5352330000000016
 Ca  Al  Si 
   6   4   4
Cartesian
  2.0437919999999998  0.0000000000000000  0.0000000000000000
  0.0000000000000000  0.0000000000000000 15.0783935102670004
  0.0000000000000000  0.0000000000000000  3.4568394897330004
  0.0000000000000000  2.2695530000000002  9.2676165000000008
  2.0437919999999998  2.2695530000000002  5.8107770102670013
  2.0437919999999998  2.2695530000000002 12.7244559897330021
  0.0000000000000000  2.2695530000000002  1.2713687019360000
  0.0000000000000000  2.2695530000000002 17.2638642980640000
  2.0437919999999998  0.0000000000000000 10.5389852019360006
  2.0437919999999998  0.0000000000000000  7.9962477980640010
  2.0437919999999998  2.2695530000000002  2.6755794187830002
  2.0437919999999998  2.2695530000000002 15.8596535812170014
  0.0000000000000000  0.0000000000000000 11.9431959187830010
  0.0000000000000000  0.0000000000000000  6.5920370812170006
