Nb Au
 1.0000000000000000
     3.4269750000000001    0.0000000000000000    0.0000000000000000
     0.0000000000000000    3.4269750000000001    0.0000000000000000
     0.0000000000000000    0.0000000000000000   15.4350649999999998
 Nb  Au 
   6   4
Cartesian
  0.0000000000000000  0.0000000000000000  0.0000000000000000
  1.7134875000000001  1.7134875000000001 13.9029650130349989
  1.7134875000000001  1.7134875000000001  1.5320999869650000
  1.7134875000000001  1.7134875000000001  7.7175324999999999
  0.0000000000000000  0.0000000000000000  6.1854325130349999
  0.0000000000000000  0.0000000000000000  9.2496324869650000
  0.0000000000000000  0.0000000000000000  3.0722107726650001
  0.0000000000000000  0.0000000000000000 12.3628542273349993
  1.7134875000000001  1.7134875000000001 10.7897432726649996
  1.7134875000000001  1.7134875000000001  4.6453217273349994
