Tl
 1.0000000000000000
     3.6019429999999999    0.0000000000000000    0.0000000000000000
    -1.8009710000000001    3.1193730000000000    0.0000000000000000
     0.0000000000000000    0.0000000000000000    5.6174220000000004
 Tl 
   2
Cartesian
 -0.0000014676380001  2.0795830397909998  1.4043555000000001
  1.8009734676380003  1.0397899602089999  4.2130665000000000
