Ca Al Si N 
 1.0000000000000000
     6.1777660000000001    0.0000000000000000    0.0000000000000000
     0.0000000000000000    9.2950300000000006    0.0000000000000000
     0.0000000000000000    0.0000000000000000   15.5646730000000009
 Ca  Al  Si  N  
  20   8   8  32
Cartesian
  4.1460346734520002  2.8050820384900006  1.6188972034030003
  5.1206143265480000  1.8424329615100001  9.4012337034029994
  5.1206143265480000  7.4525970384900004 13.9457757965970011
  4.1460346734520002  6.4899479615100004  6.1634392965969997
  2.0317313265479999  6.4899479615100004 13.9457757965970011
  1.0571516734519999  7.4525970384900004  6.1634392965969997
  1.0571516734519999  1.8424329615100001  1.6188972034030003
  2.0317313265479999  2.8050820384900006  9.4012337034029994
  5.3455406088420006  0.0000000000000000  3.8911682500000002
  3.9211083911580000  4.6475150000000003 11.6735047500000011
  0.8322253911580000  0.0000000000000000 11.6735047500000011
  2.2566576088420001  4.6475150000000003  3.8911682500000002
  3.8672320938720000  3.3374177016200002  6.6198266383030004
  5.3994169061279997  1.3100972983799999 14.4021631383030009
  5.3994169061279997  7.9849327016200000  8.9448463616970013
  3.8672320938720000  5.9576122983800008  1.1625098616970002
  2.3105339061280001  5.9576122983800008  8.9448463616970013
  0.7783490938720000  7.9849327016200000  1.1625098616970002
  0.7783490938720000  1.3100972983799999  6.6198266383030004
  2.3105339061280001  3.3374177016200002 14.4021631383030009
  5.6304900655920003  3.2978859390299999  4.1009333480210008
  3.6361589344079999  1.3496290609700001 11.8832698480209995
  3.6361589344079999  7.9454009390300007 11.4637396519790009
  5.6304900655920003  5.9971440609700002  3.6814031519790005
  0.5472759344080000  5.9971440609700002 11.4637396519790009
  2.5416070655920002  7.9454009390300007  3.6814031519790005
  2.5416070655920002  1.3496290609700001  4.1009333480210008
  0.5472759344080000  3.2978859390299999 11.8832698480209995
  3.6738680180720000  0.0595439621800000  1.0980876801500001
  5.5927809819279997  4.5879710378200000  8.8804241801500012
  5.5927809819279997  4.7070589621800005 14.4665853198500010
  3.6738680180720000  9.2354860378200012  6.6842488198500005
  2.5038979819280001  9.2354860378200012 14.4665853198500010
  0.5849850180720000  4.7070589621800005  6.6842488198500005
  0.5849850180720000  4.5879710378200000  1.0980876801500001
  2.5038979819280001  0.0595439621800000  8.8804241801500012
  5.3184016828040006  0.4364667237100000  1.4095834808990002
  3.9482473171960000  4.2110482762899997  9.1919199808989998
  3.9482473171960000  5.0839817237100009 14.1550895191010024
  5.3184016828040006  8.8585632762900008  6.3727530191010002
  0.8593643171960000  8.8585632762900008 14.1550895191010024
  2.2295186828040001  5.0839817237100009  6.3727530191010002
  2.2295186828040001  4.2110482762899997  1.4095834808990002
  0.8593643171960000  0.4364667237100000  9.1919199808989998
  3.1728450177060004  1.3099485779000002  7.6978825843020005
  6.0938039822940002  3.3375664221000001 15.4802190843020000
  6.0938039822940002  5.9574635779000005  7.8667904156980013
  3.1728450177060004  7.9850814221000004  0.0844539156980000
  3.0049209822939997  7.9850814221000004  7.8667904156980013
  0.0839620177060000  5.9574635779000005  0.0844539156980000
  0.0839620177060000  3.3375664221000001  7.6978825843020005
  3.0049209822939997  1.3099485779000002 15.4802190843020000
  3.9205091478559999  2.5810997005800003  4.1715502694220001
  5.3461398521440007  2.0664152994200000 11.9538867694220006
  5.3461398521440007  7.2286147005800006 11.3931227305780016
  3.9205091478559999  6.7139302994200003  3.6107862305780003
  2.2572568521439997  6.7139302994200003 11.3931227305780016
  0.8316261478560001  7.2286147005800006  3.6107862305780003
  0.8316261478560001  2.0664152994200000  4.1715502694220001
  2.2572568521439997  2.5810997005800003 11.9538867694220006
  5.7325776487420006  4.4656205579300003  2.5122627395840000
  3.5340713512580000  0.1818944420700000 10.2945992395840005
  3.5340713512580000  9.1131355579300006 13.0524102604159999
  5.7325776487420006  4.8294094420700002  5.2700737604160004
  0.4451883512580000  4.8294094420700002 13.0524102604159999
  2.6436946487420001  9.1131355579300006  5.2700737604160004
  2.6436946487420001  0.1818944420700000  2.5122627395840000
  0.4451883512580000  4.4656205579300003 10.2945992395840005
