Sr Ac Tl
 1.0000000000000000
     0.0000000000000000    4.0985940000000003    4.0985940000000003
     4.0985940000000003    0.0000000000000000    4.0985940000000003
     4.0985940000000003    4.0985940000000003    0.0000000000000000
 Sr  Ac  Tl 
   1   1   2
Cartesian
  6.1478910000000004  6.1478910000000004  6.1478910000000004
  2.0492970000000001  2.0492970000000001  2.0492970000000001
  0.0000000000000000  0.0000000000000000  0.0000000000000000
  4.0985940000000003  4.0985940000000003  4.0985940000000003
