La Al Ge
 1.0000000000000000
     4.2135499999999997    0.0006250000000000   -1.1824049999999999
    -0.3312930000000000    4.2005059999999999   -1.1824049999999999
    -0.0286790000000000   -0.0310340000000000    7.9941570000000004
 La  Al  Ge 
   2   2   2
Cartesian
  3.8529262357589991  4.1679875268600002  5.6260304456370003
  3.0609481741149995  1.0342623402080000  2.8113569456370002
  2.2578412246429997  2.4428998396090003 -0.0548249489099998
  1.1069001181450000  3.4777142793749998  3.9422535510900003
  1.5903085504039998  1.7218838380040000  5.6643273640680007
  0.4693871725910000  2.7864933128749998  1.6672488640680003
