Nd H 
 1.0000000000000000
     3.3608609999999999    0.0000000000000000    1.9403940000000000
     1.1202870000000000    3.1686510000000001    1.9403940000000000
     0.0000000000000000    0.0000000000000000    3.8807879999999999
 Nd  H  
   1   2
Cartesian
  0.0000000000000000  0.0000000000000000  0.0000000000000000
  3.3608609999999999  2.3764882500000000  5.8211820000000003
  1.1202870000000000  0.7921627500000000  1.9403940000000000
