Ba Al Ge
 1.0000000000000000
     4.3526170000000004    0.0000000000000000    0.0000000000000000
    -2.1763080000000001    3.7694770000000002    0.0000000000000000
     0.0000000000000000    0.0000000000000000    5.2277670000000001
 Ba  Al  Ge 
   1   1   1
Cartesian
  0.0000000000000000  0.0000000000000000  0.0000000000000000
  2.1763108429750004  1.2564910768410000  2.6138835000000000
 -0.0000018429750000  2.5129859231590004  2.6138835000000000
