Nb Ni
 1.0000000000000000
     4.2191000000000001    0.0000000000000000    0.0000000000000000
     0.0000000000000000    4.5273329999999996    0.0000000000000000
     0.0000000000000000    0.0000000000000000    5.0826900000000004
 Nb  Ni 
   2   6
Cartesian
  1.0547750000000000  1.5831857134349998  3.8120175000000005
  3.1643249999999998  2.9441472865649998  1.2706725000000001
  1.0547750000000000  1.4266486476269997  1.2706725000000001
  3.1643249999999998  3.1006843523729994  3.8120175000000005
  3.1643249999999998  0.7142003627490000  2.5361606561999999
  1.0547750000000000  3.8131326372509995  2.5465293438000005
  1.0547750000000000  3.8131326372509995  5.0775056562000005
  3.1643249999999998  0.7142003627490000  0.0051843438000000
