Na Cu S 
 1.0000000000000000
     3.7928839999999999    0.0000000000000000    0.0000000000000000
    -1.8964410000000000    3.2847330000000001    0.0000000000000000
     0.0000000000000000    0.0000000000000000   12.0466979999999992
 Na  Cu  S  
   1   4   4
Cartesian
  0.0000000000000000  0.0000000000000000  6.0233489999999996
  1.8964442297749999  1.0949099050890001 10.2616905705479997
 -0.0000012297750002  2.1898230949110000  1.7850074294520000
 -0.0000012297750002  2.1898230949110000  8.2866344334480004
  1.8964442297749999  1.0949099050890001  3.7600635665519997
  0.0000000000000000  0.0000000000000000 10.9977317716499989
  0.0000000000000000  0.0000000000000000  1.0489662283499999
  1.8964442297749999  1.0949099050890001  7.9329795202619993
 -0.0000012297750002  2.1898230949110000  4.1137184797379991
