Zr In Au
 1.0000000000000000
     0.0000000000000000    3.2356729999999998    3.2356729999999998
     3.2356729999999998    0.0000000000000000    3.2356729999999998
     3.2356729999999998    3.2356729999999998    0.0000000000000000
 Zr  In  Au 
   1   1   1
Cartesian
  0.0000000000000000  0.0000000000000000  0.0000000000000000
  3.2356729999999998  3.2356729999999998  3.2356729999999998
  4.8535094999999995  4.8535094999999995  4.8535094999999995
