Rb Au
 1.0000000000000000
     5.6418330000000001   -0.0000000000000000    0.0000000000000000
    -2.8209179999999998    6.7442650000000004    0.0000000000000000
     0.0000000000000000    0.0000000000000000    7.2675679999999998
 Rb  Au 
   3   7
Cartesian
 -0.0000038307419996  4.5403538505050003  3.6337839999999999
  2.8209188307419999  2.2039111494950001  3.6337839999999999
  2.8209165000000000  0.0000000000000000  0.0000000000000000
 -0.0000003244410000  1.4587440539100001  5.8398397312640000
  2.8209153244410006  5.2855209460900001  1.4277282687359998
  2.8209153244410006  5.2855209460900001  5.8398397312640000
 -0.0000003244410000  1.4587440539100001  1.4277282687359998
  1.4104575000000001  3.3721325000000002  0.0000000000000000
 -1.4104589999999999  3.3721325000000002  0.0000000000000000
  0.0000000000000000  0.0000000000000000  3.6337839999999999
