Ba Zr O 
 1.0000000000000000
     5.9539299999999997    0.0000000000000000    0.0000000000000000
    -2.9769660000000000    2.9769660000000000    4.2139420000000003
     0.0000000000000000   -5.9539299999999997    0.0000000000000000
 Ba  Zr  O  
   2   2   6
Cartesian
  2.9769644999999998  0.0000005000000001  2.1069710000000001
 -0.0000005000000001 -2.9769644999999998  2.1069710000000001
  2.9769649999999999 -2.9769649999999999  0.0000000000000000
  0.0000000000000000  0.0000000000000000  0.0000000000000000
 -0.0000005000000001  0.0000005000000001  2.1069710000000001
  2.9769644999999998 -2.9769644999999998  2.1069710000000001
  1.4251743623099999 -1.5517906376899999  0.0000000000000000
  4.5287556376899998 -4.4021393623099998  0.0000000000000000
  1.5517906376899999 -4.5287556376899998  0.0000000000000000
  4.4021393623099998 -1.4251743623099999  0.0000000000000000
