Li N 
 1.0000000000000000
     3.1133959999999998   -0.0027460000000000    0.7398140000000000
     1.3999299999999999    2.7809059999999999    0.7398140000000000
    -0.0586290000000000   -0.0360880000000000    4.8397220000000001
 Li  N  
   1   3
Cartesian
  0.0000000000000000  0.0000000000000000  0.0000000000000000
  2.7623875341119999  1.7003769604480001  2.1648714169120002
  1.6923094658879998  1.0416950395519999  4.1544785830880002
  2.2273484999999997  1.3710359999999999  3.1596750000000000
