Ca Sn Rh
 1.0000000000000000
     4.3927920000000000    0.0000000000000000    0.0000000000000000
     0.0000000000000000   10.9545800000000000    0.0000000000000000
     0.0000000000000000    0.0000000000000000    7.6045220000000002
 Ca  Sn  Rh 
   4   8   4
Cartesian
  0.0000000000000000  0.7260914715600000  5.7033915000000004
  0.0000000000000000 10.2284885284399998  1.9011305000000001
  2.1963960000000000  6.2033814715599993  5.7033915000000004
  2.1963960000000000  4.7511985284399998  1.9011305000000001
  2.1963960000000000  9.3637887561399999  7.2472615564399998
  2.1963960000000000  1.5907912438600000  0.3572604435600000
  2.1963960000000000  1.5907912438600000  3.4450005564400001
  2.1963960000000000  9.3637887561399999  4.1595214435600001
  0.0000000000000000  3.8864987561400000  7.2472615564399998
  0.0000000000000000  7.0680812438600000  0.3572604435600000
  0.0000000000000000  7.0680812438600000  3.4450005564400001
  0.0000000000000000  3.8864987561400000  4.1595214435600001
  0.0000000000000000  8.6517081924000010  5.7033915000000004
  0.0000000000000000  2.3028718075999999  1.9011305000000001
  2.1963960000000000  3.1744181923999997  5.7033915000000004
  2.1963960000000000  7.7801618075999999  1.9011305000000001
