Nd P  O 
 1.0000000000000000
     6.9697750000000003    0.0000000000000000    0.0000000000000000
     0.0000000000000000    6.4076500000000003    0.0239830000000000
     0.0000000000000000    4.7915159999999997    6.5806410000000000
 Nd  P   O  
   4   4  16
Cartesian
  4.5809264373999996  2.2138530143259998  1.4400128809960000
  1.0960389374000001  6.5895549856739999  1.8742906190040001
  2.3888485626000002  8.9853129856739997  5.1646111190039994
  5.8737360626000008  4.6096110143260001  4.7303333809960000
  4.6150365162500000  5.3663744251340004  1.3124401502209999
  1.1301490162499999  3.4370335748660001  2.0018633497790002
  2.3547384837499998  5.8327915748659995  5.2921838497789997
  5.8396259837500004  7.7621324251340003  4.6027606502209997
  4.9639155736500005  4.4463947740499998  2.4797902739220001
  1.4790280736500001  4.3570132259499994  0.8345132260779999
  2.0058594263500003  6.7527712259499992  4.1248337260780001
  5.4907469263499999  6.8421527740499997  5.7701107739220001
  4.2148390055250005  4.3890960859360000  0.1960556681410000
  0.7299515055250001  4.4143119140640001  3.1182478318590001
  2.7549359944749998  6.8100699140639991  6.4085683318589997
  6.2398234944750000  6.7848540859360007  3.4863761681410002
  6.9364525057249997  8.7739898836560002  4.9577642904030004
  3.4515650057250005  4.8209341163439996  4.9371802095969999
  0.0333224942750000  2.4251761163440002  1.6468597095970001
  3.5182099942750003  6.3782318836560004  1.6674437904030002
  4.6525548150750007  8.6157236059239999  4.0925221503970004
  1.1676673150749999  4.9792003940759999  5.8024223496029999
  2.3172201849250000  2.5834423940760001  2.5121018496029999
  5.8021076849249997  6.2199656059240001  0.8022016503970000
