Sc N 
 1.0000000000000000
     2.7623780000000000    0.0000000000000000    1.5948599999999999
     0.9207930000000000    2.6043940000000001    1.5948599999999999
     0.0000000000000000    0.0000000000000000    3.1897199999999999
 Sc  N  
   1   1
Cartesian
  0.0000000000000000  0.0000000000000000  0.0000000000000000
  1.8415854999999999  1.3021970000000000  3.1897199999999999
