Ca As N 
 1.0000000000000000
     6.7235050000000003    0.0000000000000000    0.0000000000000000
     0.0000000000000000    6.7162269999999999    0.0000000000000000
     0.0000000000000000    0.0000000000000000    9.5270609999999998
 Ca  As  N  
  12   4   4
Cartesian
  3.4132948893299999  6.4146549752460000  7.1452957499999998
  0.0515423893300000  3.6596855247539999  7.1452957499999998
  6.6719626106700005  3.0565481914729999  2.3817652499999999
  3.3102101106699999  0.3015720247540000  2.3817652499999999
  4.8196168126550001  1.9014981882399999  9.3042135161489998
  1.4578643126549999  1.4566153117599998  4.9863779838510007
  5.2656406873449999  5.2596116882400006  0.2228474838510000
  1.9038881873450002  4.8147288117599993  4.5406830161489999
  1.9038881873450002  4.8147288117599993  0.2228474838510000
  5.2656406873449999  5.2596116882400006  4.5406830161489999
  1.4578643126549999  1.4566153117599998  9.3042135161489998
  4.8196168126550001  1.9014981882399999  4.9863779838510007
  0.1371393314850000  6.6966089009330005  2.3817652499999999
  3.4988918314849999  3.3777315990669998  2.3817652499999999
  3.2246131685150003  3.3384954009330001  7.1452957499999998
  6.5863656685150005  0.0196180990670000  7.1452957499999998
  0.0000000000000000  3.3581135000000000  4.7635304999999999
  3.3617525000000001  0.0000000000000000  0.0000000000000000
  3.3617525000000001  0.0000000000000000  4.7635304999999999
  0.0000000000000000  3.3581135000000000  0.0000000000000000
