Sr N 
 1.0000000000000000
     3.7347380000000001    0.0194390000000000    6.3204200000000004
     1.7426520000000001    3.3033020000000000    6.3204200000000004
     0.0320450000000000    0.0194390000000000    7.3413180000000002
 Sr  N  
   2   1
Cartesian
  1.4781979388049999  0.8967169205400001  5.3612729378740003
  4.0312370611950001  2.4454630794600001 14.6208850621260016
  0.0000000000000000  0.0000000000000000  0.0000000000000000
