Zr Ni Sb
 1.0000000000000000
     3.9495160000000000    0.0000000000000000    0.0000000000000000
     0.0000000000000000   14.4337549999999997    0.0000000000000000
     0.0000000000000000    0.0000000000000000   17.6418740000000014
 Zr  Ni  Sb 
  12   4  28
Cartesian
  0.9873790000000000  6.7919188852899994  6.5375845319280010
  2.9621370000000002  7.6418361147099994 11.1042894680720003
  2.9621370000000002 14.0087963852899993  2.2833524680720001
  0.9873790000000000  0.4249586147100000 15.3585215319280017
  0.9873790000000000 13.1404328169799989  6.9204484814760008
  2.9621370000000002  1.2933221830199999 10.7214255185240006
  2.9621370000000002  5.9235553169799999  1.9004885185240001
  0.9873790000000000  8.5101996830199997 15.7413854814760015
  0.9873790000000000  4.4650821092499999 14.9370395201940021
  2.9621370000000002  9.9686728907499997  2.7048344798060002
  2.9621370000000002 11.6819596092500007 11.5257714798060000
  0.9873790000000000  2.7517953907499999  6.1161025201940005
  0.9873790000000000 11.7107982517400000 16.5491010406920012
  2.9621370000000002  2.7229567482599997  1.0927729593080000
  2.9621370000000002  4.4939207517400002  9.9137099593080009
  0.9873790000000000  9.9398342482600004  7.7281640406920005
  0.9873790000000000  4.2905491437899999  0.3864099662220000
  2.9621370000000002 10.1432058562099989 17.2554640337780008
  2.9621370000000002 11.5074266437899997  8.4345270337780001
  0.9873790000000000  2.9263283562100000  9.2073469662220013
  0.9873790000000000  1.1031141596299998  0.6560836521860001
  2.9621370000000002 13.3306408403700001 16.9857903478139995
  2.9621370000000002  8.3199916596300003  8.1648533478140006
  0.9873790000000000  6.1137633403700002  9.4770206521860008
  0.9873790000000000  8.0961385533349990  1.2472452080520000
  2.9621370000000002  6.3376164466649998 16.3946287919480014
  2.9621370000000002  0.8792610533349999  7.5736917919480007
  0.9873790000000000 13.5544939466649996 10.0681822080520007
  0.9873790000000000 11.8983071629450006  1.5905031504700000
  2.9621370000000002  2.5354478370550000 16.0513708495300023
  2.9621370000000002  4.6814296629449998  7.2304338495300007
  0.9873790000000000  9.7523253370549998 10.4114401504699998
  0.9873790000000000  5.1254697017649997  4.0186777622080001
  2.9621370000000002  9.3082852982350008 13.6231962377920013
  2.9621370000000002 12.3423472017649996  4.8022592377920006
  0.9873790000000000  2.0914077982350001 12.8396147622080008
  0.9873790000000000  0.3144970876950000  4.3568372030400004
  2.9621370000000002 14.1192579123050006 13.2850367969600018
  2.9621370000000002  7.5313745876949989  4.4640997969600003
  0.9873790000000000  6.9023804123049999 13.1777742030400002
  0.9873790000000000  9.9021621477099995  5.1420064472840004
  2.9621370000000002  4.5315928522900002 12.4998675527160010
  2.9621370000000002  2.6852846477100001  3.6789305527160003
  0.9873790000000000 11.7484703522899991 13.9629434472840011
