Ag Au O 
 1.0000000000000000
     0.0000000000000000   -3.8788220000000000    0.0000000000000000
    -5.3169990000000000    0.0000000000000000    1.3238399999999999
     0.0030030000000000    0.0000000000000000   -5.6115849999999998
 Ag  Au  O  
   2   2   4
Cartesian
  0.0015015000000000 -1.9394110000000000 -2.8057924999999999
 -2.6569980000000002  0.0000000000000000 -2.1438725000000001
 -2.6584995000000000 -1.9394110000000000  0.6619200000000000
  0.0000000000000000  0.0000000000000000  0.0000000000000000
 -4.1331157280520001 -0.7980521112120000 -0.0940195320050001
 -3.8393797719480003 -2.7374631112120000 -3.5318054679949995
 -1.1808802719479998 -3.0807698887880002 -4.1937254679949998
 -1.4746162280520001 -1.1413588887880000 -0.7559395320050001
