Pr Mg Cd
 1.0000000000000000
     0.0000000000000000    3.6711339999999999    3.6711339999999999
     3.6711339999999999    0.0000000000000000    3.6711339999999999
     3.6711339999999999    3.6711339999999999    0.0000000000000000
 Pr  Mg  Cd 
   1   1   2
Cartesian
  5.5067009999999996  5.5067009999999996  5.5067009999999996
  1.8355743422679998  1.8355743422679998  1.8355743422679998
  0.0000000000000000  0.0000000000000000  0.0000000000000000
  3.6711339999999999  3.6711339999999999  3.6711339999999999
