Li Al O 
 1.0000000000000000
     2.6759930000000001   -0.0035370000000000    4.1932200000000002
     1.2213400000000001    2.3810240000000000    4.1932200000000002
    -0.0057980000000000   -0.0035370000000000    4.9743350000000000
 Li  Al  O  
   1   1   2
Cartesian
  0.0000000000000000  0.0000000000000000  0.0000000000000000
  1.9457675000000001  1.1869749999999999  6.6803875000000001
  0.9285474917450000  0.5664410876500001  3.1879744404250001
  2.9629875082550003  1.8075089123499999 10.1728005595750002
