Pr B  Ir
 1.0000000000000000
     5.6744729999999999   -0.0000000000000000    0.0000000000000000
    -2.8372370000000000    4.9142370000000000    0.0000000000000000
     0.0000000000000000    0.0000000000000000    2.9677300000000000
 Pr  B   Ir 
   1   2   3
Cartesian
  0.0000000000000000  0.0000000000000000  0.0000000000000000
  2.8372391705699997  1.6380773619209998  0.0000000000000000
 -0.0000031705700000  3.2761596380790001  0.0000000000000000
  1.4186179999999999  2.4571185000000000  1.4838650000000000
  2.8372364999999999  0.0000000000000000  1.4838650000000000
 -1.4186185000000000  2.4571185000000000  1.4838650000000000
