Nd Cu
 1.0000000000000000
     5.0672050000000004    0.0000000000000000    0.0000000000000000
    -2.5336029999999998    4.3883289999999997    0.0000000000000000
     0.0000000000000000    0.0000000000000000    4.0683879999999997
 Nd  Cu 
   1   5
Cartesian
  0.0000000000000000  0.0000000000000000  0.0000000000000000
 -0.0000028669359997  2.9255541294429999  0.0000000000000000
  2.5336048669360007  1.4627748705569998  0.0000000000000000
  2.5336025000000002  0.0000000000000000  2.0341939999999998
  1.2668010000000003  2.1941644999999999  2.0341939999999998
 -1.2668014999999999  2.1941644999999999  2.0341939999999998
