Sr Cd Ga
 1.0000000000000000
     4.2509589999999999    0.0000000000000000   -1.5629519999999999
    -0.5746510000000000    4.2119400000000002   -1.5629519999999999
    -0.0049690000000000   -0.0056930000000000    6.5488999999999997
 Sr  Cd  Ga 
   1   2   2
Cartesian
  0.0000000000000000  0.0000000000000000  0.0000000000000000
  3.0420720000000001  1.0501385000000001  1.7114980000000000
  0.6292670000000000  3.1561085000000002  1.7114980000000000
  2.2362484496309998  2.5620661476270001 -0.4801969834200001
  1.4350905503689999  1.6441808523730002  3.9031929834199999
