Pr Mg Ga
 1.0000000000000000
     7.4928910000000002   -0.0000000000000000    0.0000000000000000
    -3.7464469999999999    6.4890350000000003    0.0000000000000000
     0.0000000000000000    0.0000000000000000    4.5634870000000003
 Pr  Mg  Ga 
   3   3   3
Cartesian
 -1.5804686385260001  2.7374513270300000  0.0000000000000000
  2.1659766270480008  3.7515836729700003  0.0000000000000000
  3.1609360114780003  0.0000000000000000  0.0000000000000000
 -2.8381583893199998  4.9158333546000001  2.2817435000000001
  0.9082878833600001  1.5732016454000000  2.2817435000000001
  5.6763145059600006  0.0000000000000000  2.2817435000000001
 -0.0000047464459998  4.3260254963450002  2.2817435000000001
  3.7464487464460006  2.1630095036550001  2.2817435000000001
  0.0000000000000000  0.0000000000000000  0.0000000000000000
