Dy Fe
 1.0000000000000000
     0.0000000000000000    3.6537959999999998    3.6537959999999998
     3.6537959999999998    0.0000000000000000    3.6537959999999998
     3.6537959999999998    3.6537959999999998    0.0000000000000000
 Dy  Fe 
   2   4
Cartesian
  0.0000000000000000  0.0000000000000000  0.0000000000000000
  1.8268979999999999  1.8268979999999999  1.8268979999999999
  4.5672449999999998  4.5672449999999998  4.5672449999999998
  4.5672449999999998  2.7403469999999999  2.7403469999999999
  2.7403469999999999  4.5672449999999998  2.7403469999999999
  2.7403469999999999  2.7403469999999999  4.5672449999999998
