Ta N  O 
 1.0000000000000000
     4.9081289999999997    0.0000000000000000   -0.8379330000000000
     0.0000000000000000    5.0412109999999997    0.0000000000000000
     0.0117790000000000    0.0000000000000000    5.1952670000000003
 Ta  N   O  
   4   4   4
Cartesian
  1.4464551439610001  2.2947289999339997  3.4736366687530005
  3.4793423560389996  4.8153344999340000  3.4813308312469999
  3.4734528560389997  2.7464820000660000  0.8836973312470002
  1.4405656439610002  0.2258765000660000  0.8760031687530001
  2.1909021115570000  3.7504996652479994  4.7159208658610003
  2.7348953884429998  1.2298941652479998  2.2390466341390001
  2.7290058884429995  1.2907113347519998 -0.3585868658610000
  2.1850126115570001  3.8113168347520001  2.1182873658610002
  0.3107927760030000  1.6421694420389998  1.7510090952690001
  4.6032257239970003  4.1627749420389994  0.0086914047310000
  4.6091152239969997  3.3990415579610000  2.6063249047309998
  0.3166822760030000  0.8784360579609999  4.3486425952690002
