Zn Ga Te
 1.0000000000000000
     5.4894449999999999    0.0003380000000000   -2.4558019999999998
    -1.0988400000000000    5.3784820000000000   -2.4554930000000001
    -0.0180580000000000   -0.0225400000000000    7.3228049999999998
 Zn  Ga  Te 
   1   2   4
Cartesian
  0.0000000000000000  0.0000000000000000  0.0000000000000000
  2.1953024999999999  2.6894100000000001 -2.4556475000000000
  0.5392022500000000  4.0226760000000006  1.2058322499999998
  1.7701943724719997  1.9871060994479999  0.0537760172779998
 -0.0954358128820000  3.2239160348200002  3.6441385855899999
  3.2963945498479998  0.6968842367400000  3.5114979650200002
  3.7739408905619998  4.8046536289919999 -2.3863925678879996
