Na B  F 
 1.0000000000000000
     4.5246459999999997   -0.0181490000000000    0.0000000000000000
    -0.4569260000000000    4.5015510000000001    0.0000000000000000
     0.0000000000000000    0.0000000000000000    6.7213019999999997
 Na  B   F  
   2   2   8
Cartesian
  1.4331513135600000  1.5796056428459999  1.6803254999999999
  2.6345686864399998  2.9037963571540000  5.0409764999999993
  3.4527295486399998  3.8055654184240000  1.6803254999999999
  0.6149904513600000  0.6778365815759999  5.0409764999999993
  2.8978355925599999  3.1939666179959998  2.8186116002099997
  1.1698844074400001  1.2894353820040001  6.1792626002099995
  2.8978355925599999  3.1939666179959998  0.5420393997899999
  1.1698844074400001  1.2894353820040001  3.9026903997899995
  0.4516743481300000  3.8057733194110002  5.0409764999999993
  3.6160456518699995  0.6776286805890001  1.6803254999999999
  3.7440201907899997  0.8186809909110000  5.0409764999999993
  0.3236998092100000  3.6647210090889999  1.6803254999999999
