Nd In Au
 1.0000000000000000
     4.3413420000000000    0.0000000000000000    2.5064750000000000
     1.4471149999999999    4.0930569999999999    2.5064750000000000
     0.0000000000000000    0.0000000000000000    5.0129500000000000
 Nd  In  Au 
   1   1   2
Cartesian
  2.8942285000000001  2.0465285000000000  5.0129500000000000
  0.0000000000000000  0.0000000000000000  0.0000000000000000
  1.4471142500000000  1.0232642500000000  2.5064750000000000
  4.3413427499999999  3.0697927500000000  7.5194250000000000
