Li Au S 
 1.0000000000000000
     5.2624399999999998    0.0000000000000000   -2.3502580000000002
    -1.2477300000000000    5.4981249999999999   -2.7937829999999999
    -0.0080980000000000   -0.0206880000000000    7.0485319999999998
 Li  Au  S  
   6   2   4
Cartesian
  3.4133529036520001  2.8675959978820003  0.5761334972139992
 -0.0306059036519999  5.3589035021179994 -0.0685339972140000
  0.5932590963480000  2.6098410021180003  1.3283575027860000
  4.0372179036519995  0.1185334978820000  1.9730249972139990
  1.6954224999999998  4.1235937499999995 -3.2704662500000001
  2.3192874999999997  1.3745312500000000 -1.8735747500000000
 -0.6238650000000000  2.7490625000000000 -1.3968915000000000
  0.0000000000000000  0.0000000000000000  0.0000000000000000
  0.3523431403399999  1.9575759218800000  3.6951338819419997
  2.1139290974600002  0.7707985781200000  0.5728039718479997
  1.8926829025400000  4.7066384218799993  1.3316870281519997
  3.6542688596599997  3.5198610781200004 -1.7906428819420004
