La Au
 1.0000000000000000
     1.9963329999999999   -5.7803100000000001    0.0000000000000000
     1.9963329999999999    5.7803100000000001    0.0000000000000000
     0.0000000000000000    0.0000000000000000    4.7928639999999998
 La  Au 
   2   2
Cartesian
  1.9963329999999999 -4.2194297694599996  3.5946479999999998
  1.9963329999999999  4.2194297694599996  1.1982159999999999
  1.9963329999999999 -1.0057623793800006  3.5946479999999998
  1.9963329999999999  1.0057623793800003  1.1982159999999999
