Li Al Ni
 1.0000000000000000
     0.0000000000000000    2.9178299999999999    2.9178299999999999
     2.9178299999999999    0.0000000000000000    2.9178299999999999
     2.9178299999999999    2.9178299999999999    0.0000000000000000
 Li  Al  Ni 
   1   2   1
Cartesian
  1.4589150000000000  1.4589150000000000  1.4589150000000000
  2.9178241643400002  2.9178241643400002  2.9178241643400002
  0.0000000000000000  0.0000000000000000  0.0000000000000000
  4.3767391643400000  4.3767391643400000  4.3767391643400000
