Ba Zn Sn
 1.0000000000000000
     4.7002379999999997    0.0000000000000000    0.0000000000000000
    -2.3501189999999998    4.0705249999999999    0.0000000000000000
     0.0000000000000000    0.0000000000000000    9.9942080000000004
 Ba  Zn  Sn 
   2   2   2
Cartesian
  0.0000000000000000  0.0000000000000000  4.9971040000000002
  0.0000000000000000  0.0000000000000000  0.0000000000000000
  2.3501213501190001  1.3568403098249999  2.4985520000000001
 -0.0000023501190000  2.7136846901750000  7.4956560000000003
 -0.0000023501190000  2.7136846901750000  2.4985520000000001
  2.3501213501190001  1.3568403098249999  7.4956560000000003
