Be Fe
 1.0000000000000000
     3.2390050000000001   -0.0000010000000000    0.0000000000000000
    -0.0000010000000000    3.2390020000000002   -0.0000010000000000
     0.0000000000000000   -0.0000010000000000    3.2389969999999999
 Be  Fe 
   3   1
Cartesian
 -0.0000005000000000  1.6195005000010001  1.6194947610029999
  1.6195015000010000  3.2389977610000003  1.6194910220070000
  1.6194955219910001  1.6194972610000002 -0.0000004999990000
 -0.0000009999990000  3.2389987609980002 -0.0000009999990000
