Li Zn Pd
 1.0000000000000000
     0.0000000000000000    3.0185130000000000    3.0185130000000000
     3.0185130000000000    0.0000000000000000    3.0185130000000000
     3.0185130000000000    3.0185130000000000    0.0000000000000000
 Li  Zn  Pd 
   1   2   1
Cartesian
  1.5092565000000000  1.5092565000000000  1.5092565000000000
  3.0185069629740000  3.0185069629740000  3.0185069629740000
  0.0000000000000000  0.0000000000000000  0.0000000000000000
  4.5277755370259998  4.5277755370259998  4.5277755370259998
