Mn Sn Ru
 1.0000000000000000
     0.0000000000000000    3.1055999999999999    3.1055999999999999
     3.1055999999999999    0.0000000000000000    3.1055999999999999
     3.1055999999999999    3.1055999999999999    0.0000000000000000
 Mn  Sn  Ru 
   1   1   2
Cartesian
  1.5528062111999998  1.5528062111999998  1.5528062111999998
  4.6584062112000000  4.6584062112000000  4.6584062112000000
  0.0000000000000000  0.0000000000000000  0.0000000000000000
  3.1055999999999999  3.1055999999999999  3.1055999999999999
