Ni Sb Te
 1.0000000000000000
     3.9042610000000000    0.0000000000000000    0.0000000000000000
    -1.9521310000000001    3.3811890000000000    0.0000000000000000
     0.0000000000000000    0.0000000000000000   16.2748589999999993
 Ni  Sb  Te 
   4   2   4
Cartesian
  0.0000000000000000  0.0000000000000000  2.7497839017810000
  0.0000000000000000  0.0000000000000000 10.8872134017809987
  0.0000000000000000  0.0000000000000000 13.5250750982190002
  0.0000000000000000  0.0000000000000000  5.3876455982189997
 -0.0000022854640002  2.2541271270630001  4.0687147499999998
  1.9521322854640000  1.1270618729369999 12.2061442499999995
 -0.0000022854640002  2.2541271270630001  9.6781541266710001
  1.9521322854640000  1.1270618729369999  1.5407246266710000
  1.9521322854640000  1.1270618729369999  6.5967048733289992
 -0.0000022854640002  2.2541271270630001 14.7341343733289989
