Lu Si Ir
 1.0000000000000000
    12.4899170000000002    0.0000940000000000    0.0000000000000000
     0.0000940000000000   12.4898880000000005    0.0000000000000000
     0.0000000000000000    0.0000000000000000    4.1819400000000000
 Lu  Si  Ir 
  10  20   8
Cartesian
  6.2448805953779996  6.2442665855560007  0.0000000000000000
  0.0001124147050000  0.0007244143500000  0.0000000000000000
  8.4196056261520003 10.3157741123640001  2.0909700000000000
  4.0703054595880008  2.1748823408360001  2.0909700000000000
  2.1746578327440003  8.4192250489680003  2.0909700000000000
 10.3154780613499995  4.0700824980199997  2.0909700000000000
  4.8016568738720000 11.0472171741040004  2.0909700000000000
  7.6881667852689999  1.4438139750780001  2.0909700000000000
 11.0469522968750002  7.6876716531499998  2.0909700000000000
  1.4432085743270000  4.8012736872739996  2.0909700000000000
  7.0704299648240001 11.6647842712880010  0.0000000000000000
  5.4194811196000003  0.8256973234800000  0.0000000000000000
  0.8254618650660001  7.0701071526919996  0.0000000000000000
 11.6646115805710018  5.4193502724820002  0.0000000000000000
  8.7576176257680007  8.3075525446359997  0.0000000000000000
  3.7323933719759999  4.1821296980520000  0.0000000000000000
  2.5126750794479999 10.4272893359960008  0.0000000000000000
  9.9773609025479999  2.0629799316160002  0.0000000000000000
  4.1822396776459998  8.7575287746320001  0.0000000000000000
  8.3077838113310012  3.7323283265820004  0.0000000000000000
  2.0627162128949998  2.5126437626299998  0.0000000000000000
 10.4273322579840002  9.9774881163080007  0.0000000000000000
  6.2900462044289993  8.1787507383580014  2.0909700000000000
  6.1999897726790003  4.3108690550780002  2.0909700000000000
  0.0451805367370000 10.5561414298339997  2.0909700000000000
 12.4448804254690000  1.9341777975179999  2.0909700000000000
  4.3110545982290001  6.2896777540980002  2.0909700000000000
  8.1788814567229995  6.1995673419460005  2.0909700000000000
  1.9339515793230000  0.0453403586060000  2.0909700000000000
 10.5561218753380004 12.4453160958160005  2.0909700000000000
  6.4876077151760008  9.3073010351720011  0.0000000000000000
  6.0023283452280003  3.1826684743759999  0.0000000000000000
  0.2428249803620000  9.4276815365840001  0.0000000000000000
 12.2472609591400001  3.0623004639800002  0.0000000000000000
  3.1827169845630001  6.4873966790660011  0.0000000000000000
  9.3072565412679999  6.0019982959160005  0.0000000000000000
  3.0622422087030001  0.2429638581260000  0.0000000000000000
  9.4277438163510006 12.2476676158619995  0.0000000000000000
