Hf Ag
 1.0000000000000000
     3.4218739999999999    0.0000000000000000    0.0000000000000000
     0.0000000000000000    3.4218739999999999    0.0000000000000000
     0.0000000000000000    0.0000000000000000    6.5717239999999997
 Hf  Ag 
   2   2
Cartesian
  2.5664055000000001  2.5664055000000001  5.6415753284879990
  0.8554685000000000  0.8554685000000000  0.9301486715120000
  2.5664055000000001  2.5664055000000001  2.5242780490880001
  0.8554685000000000  0.8554685000000000  4.0474459509119995
