Pr In
 1.0000000000000000
     5.0344239999999996    0.0000000000000000    0.0000000000000000
     0.0000000000000000    5.0344239999999996    0.0000000000000000
     0.0000000000000000    0.0000000000000000    5.0344239999999996
 Pr  In 
   3   1
Cartesian
  0.0000000000000000  2.5172119999999998  2.5172119999999998
  2.5172119999999998  2.5172119999999998  0.0000000000000000
  2.5172119999999998  0.0000000000000000  2.5172119999999998
  0.0000000000000000  0.0000000000000000  0.0000000000000000
