Sb Rh
 1.0000000000000000
     4.2228079999999997    0.0000000000000000    0.0000000000000000
     0.0000000000000000    5.8325079999999998    0.0000000000000000
     0.0000000000000000    0.0000000000000000    8.0497660000000000
 Sb  Rh 
   4   8
Cartesian
  3.1671059999999995  4.1740110201679999  7.1834340835479997
  1.0557019999999999  1.6584969798320000  0.8663319164519999
  3.1671059999999995  1.2577570201680000  4.8912149164520002
  1.0557019999999999  4.5747509798319994  3.1585510835480002
  3.1671059999999995  0.9298534204080000  7.4913778818779999
  1.0557019999999999  4.9026545795920002  0.5583881181220000
  3.1671059999999995  3.8461074204079995  4.5832711181220001
  1.0557019999999999  1.9864005795919999  3.4664948818779999
  3.1671059999999995  0.2271470240600000  2.4153644873640001
  1.0557019999999999  5.6053609759400000  5.6344015126359999
  3.1671059999999995  3.1434010240600001  1.6095185126360001
  1.0557019999999999  2.6891069759399997  6.4402474873640001
