Lu Si Ni
 1.0000000000000000
     1.9333540000000000   -8.2726260000000007    0.0000000000000000
     1.9333540000000000    8.2726260000000007    0.0000000000000000
     0.0000000000000000    0.0000000000000000    3.8532660000000001
 Lu  Si  Ni 
   2   4   2
Cartesian
  1.9333540000000000 -6.5283758984040006  2.8899495000000002
  1.9333540000000000  6.5283758984040006  0.9633165000000000
  1.9333540000000002 -0.6650033136360004  2.8899495000000002
  1.9333540000000000  0.6650033136360000  0.9633165000000000
  1.9333540000000000  4.1356015541640003  2.8899495000000002
  1.9333540000000000 -4.1356015541639994  0.9633165000000000
  1.9333540000000002 -2.8826461654560003  2.8899495000000002
  1.9333540000000002  2.8826461654560007  0.9633165000000000
