Pm Hg Ge
 1.0000000000000000
     0.0000000000000000    3.7132010000000002    3.7132010000000002
     3.7132010000000002    0.0000000000000000    3.7132010000000002
     3.7132010000000002    3.7132010000000002    0.0000000000000000
 Pm  Hg  Ge 
   2   1   1
Cartesian
  0.0000000000000000  0.0000000000000000  0.0000000000000000
  3.7132010000000002  3.7132010000000002  3.7132010000000002
  5.5698015000000005  5.5698015000000005  5.5698015000000005
  1.8566005000000001  1.8566005000000001  1.8566005000000001
