Gd P 
 1.0000000000000000
     3.5149409999999999    0.0000000000000000    2.0293530000000000
     1.1716480000000000    3.3139180000000001    2.0293530000000000
     0.0000000000000000    0.0000000000000000    4.0587049999999998
 Gd  P  
   1   1
Cartesian
  0.0000000000000000  0.0000000000000000  0.0000000000000000
  2.3432944999999998  1.6569590000000001  4.0587055000000003
