Sc Sb
 1.0000000000000000
     4.2298200000000001    0.0000000000000000    0.0000000000000000
     0.0000000000000000    4.2298200000000001    0.0000000000000000
     0.0000000000000000    0.0000000000000000    7.8596380000000003
 Sc  Sb 
   4   2
Cartesian
  0.0000000000000000  0.0000000000000000  0.0000000000000000
  2.1149100000000001  2.1149100000000001  0.0000000000000000
  2.1149100000000001  0.0000000000000000  2.7070400988739998
  0.0000000000000000  2.1149100000000001  5.1525979011259997
  2.1149100000000001  0.0000000000000000  5.6595917099540003
  0.0000000000000000  2.1149100000000001  2.2000462900460005
