Dy Rh
 1.0000000000000000
     3.4027660000000002    0.0000000000000000    0.0000000000000000
     0.0000000000000000    3.4027660000000002    0.0000000000000000
     0.0000000000000000    0.0000000000000000    3.4027660000000002
 Dy  Rh 
   1   1
Cartesian
  0.0000000000000000  0.0000000000000000  0.0000000000000000
  1.7013830000000001  1.7013830000000001  1.7013830000000001
