Sr Ta N 
 1.0000000000000000
     5.6449689999999997    3.0112239999999999    0.0049520000000000
    -5.6449689999999997    3.0112239999999999    0.0049520000000000
     0.0000000000000000    0.4821930000000000   12.6097350000000006
 Sr  Ta  N  
   8   4  12
Cartesian
  2.2730370873539996  4.5446042333759999  1.7795848134720000
 -1.3079506072379998  1.8269544559419999  5.3428157468900004
  1.3079506072379998  2.0680509559420002 11.6476832468900007
  1.3079506072379998  4.6776865440579991  7.2768232531099999
 -2.2730370873540000  1.9600367666239999 10.8400541865280005
 -2.2730370873540000  4.7857007333759993  8.0844523134720010
  2.2730370873540000  1.7189402666239999  4.5351866865280002
 -1.3079506072379996  4.4365900440579997  0.9719557531100002
  0.0210670243080002  4.7733278173200002  4.2477830861040005
  0.0210670243079998  1.4902166826800001  2.0669884138960000
 -0.0210670243079999  1.7313131826799999  8.3718559138960007
 -0.0210670243080000  5.0144243173199996 10.5526505861040008
 -0.0181768001800000  3.3728687499999999  9.4622532499999998
  0.0181768001800000  3.1317722500000000  3.1573857500000000
 -4.7078589862479996  3.3728687499999999  9.4622532499999998
  4.7078589862480005  3.1317722500000000  3.1573857500000000
 -1.8373527349649998  1.3241290100669998  7.8868390037489995
 -1.8373527349650001  5.4216084899330008 11.0376674962510002
  1.8373527349650001  5.1805119899329997  4.7327999962509999
  1.8373527349649998  1.0830325100670000  1.5819715037489999
  1.0542374755329997  4.7433282687259997 12.0968253810339998
 -1.0542374755329997  4.5022317687259994  5.7919578810340004
 -1.0542374755330000  1.7613127312740000  0.5228136189660000
  1.0542374755330002  2.0024092312740001  6.8276811189659998
