Na Sb
 1.0000000000000000
     5.3206819999999997    0.0000000000000000    0.0000000000000000
    -2.6603400000000001    4.6078450000000002    0.0000000000000000
     0.0000000000000000    0.0000000000000000    9.4700849999999992
 Na  Sb 
   6   2
Cartesian
 -0.0000019936740003  3.0718982026150004  8.6859714320849992
  2.6603439936740001  1.5359467973850001  3.9509289320849996
  0.0000000000000000  0.0000000000000000  2.3675212499999998
  0.0000000000000000  0.0000000000000000  7.1025637499999998
 -0.0000019936740003  3.0718982026150004  5.5191560679149987
  2.6603439936740001  1.5359467973850001  0.7841135679149999
  2.6603439936740001  1.5359467973850001  7.1025637499999998
 -0.0000019936740003  3.0718982026150004  2.3675212499999998
