Na In Te
 1.0000000000000000
     6.6761450000000000   -0.0174890000000000   -1.9060660000000000
    -3.8040219999999998    5.4864050000000004   -1.9060660000000000
     0.0091850000000000    0.0174890000000000    6.9429049999999997
 Na  In  Te 
   2   2   4
Cartesian
  0.7180307500000001  1.3672290000000000 -0.9530330000000000
  2.1540922500000006  4.1016870000000001 -2.8590990000000001
  4.0606957500000007  1.3672290000000000  1.5653864999999998
 -1.1793877499999998  4.1191760000000004  1.5653864999999998
  3.8722351130229997  1.0083739236340001  4.3640281200580002
  0.0226633762370002  1.7435730763660000  2.5184194999999998
  2.8586446237630008  3.7428319236340006  0.6123534999999998
 -0.9909271130230000  4.4780310763660003 -1.2332551200580002
