Bi Pd O 
 1.0000000000000000
     8.5713050000000006    0.0000000000000000    0.0000000000000000
     0.0000000000000000    8.5713050000000006    0.0000000000000000
     0.0000000000000000    0.0000000000000000    5.9862880000000001
 Bi  Pd  O  
   8   4  16
Cartesian
  2.8254878367250003  5.7458171632750004  4.4897159999999996
  1.4601646632750001  1.4601646632750001  4.4897159999999996
  7.1111403367250006  7.1111403367250006  4.4897159999999996
  5.7458171632750004  2.8254878367250003  4.4897159999999996
  1.4601646632750001  7.1111403367250006  1.4965720000000000
  2.8254878367250003  2.8254878367250003  1.4965720000000000
  5.7458171632750004  5.7458171632750004  1.4965720000000000
  7.1111403367250006  1.4601646632750001  1.4965720000000000
  0.0000000000000000  4.2856525000000003  3.4799249950080005
  4.2856525000000003  0.0000000000000000  5.4995070049920001
  4.2856525000000003  0.0000000000000000  2.5063630049920000
  0.0000000000000000  4.2856525000000003  0.4867809950080000
  1.8113224578200002  3.3810798268250002  3.5298805683680001
  6.7599825421800013  5.1902251731750004  3.5298805683680001
  0.9045726731750001  6.0969749578199997  3.5298805683680001
  7.6667323268250005  2.4743300421800001  3.5298805683680001
  3.3810798268250002  1.8113224578200002  5.4495514316320000
  6.0969749578199997  0.9045726731750001  5.4495514316320000
  2.4743300421800001  7.6667323268250005  5.4495514316320000
  5.1902251731750004  6.7599825421800013  5.4495514316320000
  2.4743300421800001  0.9045726731750001  2.4564074316319999
  6.0969749578199997  7.6667323268250005  2.4564074316319999
  3.3810798268250002  6.7599825421800013  2.4564074316319999
  5.1902251731750004  1.8113224578200002  2.4564074316319999
  7.6667323268250005  6.0969749578199997  0.5367365683680000
  1.8113224578200002  5.1902251731750004  0.5367365683680000
  6.7599825421800013  3.3810798268250002  0.5367365683680000
  0.9045726731750001  2.4743300421800001  0.5367365683680000
