Li Ho Tl
 1.0000000000000000
     0.0000000000000000    3.6258119999999998    3.6258119999999998
     3.6258119999999998    0.0000000000000000    3.6258119999999998
     3.6258119999999998    3.6258119999999998    0.0000000000000000
 Li  Ho  Tl 
   1   1   2
Cartesian
  5.4387179999999997  5.4387179999999997  5.4387179999999997
  1.8129132516239996  1.8129132516239996  1.8129132516239996
  0.0000000000000000  0.0000000000000000  0.0000000000000000
  3.6258119999999998  3.6258119999999998  3.6258119999999998
