Ti Ga Co
 1.0000000000000000
     3.5472269999999999    0.0000000000000000    2.0479930000000000
     1.1824090000000000    3.3443580000000002    2.0479930000000000
     0.0000000000000000    0.0000000000000000    4.0959839999999996
 Ti  Ga  Co 
   1   1   2
Cartesian
  2.3648180000000001  1.6721790000000001  4.0959849999999998
  0.0000000000000000  0.0000000000000000  0.0000000000000000
  3.5472269999999999  2.5082685000000002  6.1439775000000001
  1.1824090000000000  0.8360895000000000  2.0479924999999999
