Nb Pt
 1.0000000000000000
     5.2062840000000001    0.0000000000000000    0.0000000000000000
     0.0000000000000000    5.2062840000000001    0.0000000000000000
     0.0000000000000000    0.0000000000000000    5.2062840000000001
 Nb  Pt 
   6   2
Cartesian
  1.3015710000000000  0.0000000000000000  2.6031420000000001
  3.9047130000000001  0.0000000000000000  2.6031420000000001
  0.0000000000000000  2.6031420000000001  1.3015710000000000
  0.0000000000000000  2.6031420000000001  3.9047130000000001
  2.6031420000000001  3.9047130000000001  0.0000000000000000
  2.6031420000000001  1.3015710000000000  0.0000000000000000
  0.0000000000000000  0.0000000000000000  0.0000000000000000
  2.6031420000000001  2.6031420000000001  2.6031420000000001
