Nd Ga
 1.0000000000000000
     4.1783109999999999    0.0000000000000000    0.0000000000000000
     0.0000000000000000    4.1863029999999997   -1.6396520000000001
     0.0000000000000000   -0.0436300000000000    6.0525940000000000
 Nd  Ga 
   2   2
Cartesian
  3.1337332499999997  0.5672830005719999  1.4483613365900001
  1.0445777500000000  3.5753900430579995  2.9645746108159998
  3.1337332499999997  1.7624121438909996  4.4997425671400002
  1.0445777500000000  2.3802608561090000 -0.0868005671400001
