Li Sm Tl
 1.0000000000000000
     0.0000000000000000    3.6812160000000000    3.6812160000000000
     3.6812160000000000    0.0000000000000000    3.6812160000000000
     3.6812160000000000    3.6812160000000000    0.0000000000000000
 Li  Sm  Tl 
   1   1   2
Cartesian
  1.8406080000000000  1.8406080000000000  1.8406080000000000
  5.5218240000000005  5.5218240000000005  5.5218240000000005
  0.0000000000000000  0.0000000000000000  0.0000000000000000
  3.6812160000000000  3.6812160000000000  3.6812160000000000
