Rb Ni Br
 1.0000000000000000
     7.3562060000000002   -0.0000010000000000    0.0000000000000000
    -3.6781030000000001    6.3706620000000003    0.0000000000000000
     0.0000000000000000    0.0000000000000000    6.2321020000000003
 Rb  Ni  Br 
   2   2   6
Cartesian
  3.6781066781030001  2.1235512097789999  1.5580255000000001
 -0.0000036781030000  4.2471097902210007  4.6740765000000000
  0.0000000000000000  0.0000000000000000  3.1160510000000001
  0.0000000000000000  0.0000000000000000  0.0000000000000000
  1.9225003008639996  5.3570635113599998  1.5580255000000001
  5.6006033008639999  1.0135969659520001  4.6740765000000000
 -1.9225003008640000  5.3570640340480002  1.5580255000000001
  1.7556026991359999  1.0135974886400001  4.6740765000000000
  3.6781030000000006  4.3434655454079998  4.6740765000000000
 -0.0000000000000001  2.0271954545919999  1.5580255000000001
