Li Al Si
 1.0000000000000000
     5.9400899999999996    0.0000000000000000    0.0000000000000000
     0.0000000000000000    5.9400899999999996    0.0000000000000000
     0.0000000000000000    0.0000000000000000    5.9400899999999996
 Li  Al  Si 
   4   4   4
Cartesian
  0.0000000000000000  2.9700449999999998  0.0000000000000000
  0.0000000000000000  0.0000000000000000  2.9700449999999998
  2.9700449999999998  2.9700449999999998  2.9700449999999998
  2.9700449999999998  0.0000000000000000  0.0000000000000000
  0.0000000000000000  0.0000000000000000  0.0000000000000000
  0.0000000000000000  2.9700449999999998  2.9700449999999998
  2.9700449999999998  0.0000000000000000  2.9700449999999998
  2.9700449999999998  2.9700449999999998  0.0000000000000000
  4.4550675000000002  1.4850224999999999  1.4850224999999999
  4.4550675000000002  4.4550675000000002  4.4550675000000002
  1.4850224999999999  1.4850224999999999  4.4550675000000002
  1.4850224999999999  4.4550675000000002  1.4850224999999999
