Ho Bi Pt
 1.0000000000000000
     4.0870240000000004    0.0000000000000000    2.3596439999999999
     1.3623419999999999    3.8532820000000001    2.3596439999999999
     0.0000000000000000    0.0000000000000000    4.7192869999999996
 Ho  Bi  Pt 
   1   1   1
Cartesian
  2.7246830000000002  1.9266410000000000  4.7192875000000001
  0.0000000000000000  0.0000000000000000  0.0000000000000000
  1.3623415000000001  0.9633205000000000  2.3596437500000000
