Ba Ce N 
 1.0000000000000000
     3.6803610000000000   -0.0000000000000000    0.0000000000000000
    -1.8401820000000000    3.1872850000000001    0.0000000000000000
     0.0000000000000000    0.0000000000000000   12.6775970000000004
 Ba  Ce  N  
   2   2   4
Cartesian
 -0.0000028401810001  2.1248577290949999  9.5081977500000008
  1.8401818401810002  1.0624272709050000  3.1693992500000001
  0.0000000000000000  0.0000000000000000  0.0000000000000000
  0.0000000000000000  0.0000000000000000  6.3387985000000002
 -0.0000028401810001  2.1248577290949999  5.1223957454470002
  1.8401818401810002  1.0624272709050000 11.4611942454470004
 -0.0000028401810001  2.1248577290949999  1.2164027545530001
  1.8401818401810002  1.0624272709050000  7.5552012545529994
