Ce Cd
 1.0000000000000000
     5.1615330000000004   -0.0000000000000000    0.0000000000000000
    -2.5807669999999998    4.4700189999999997    0.0000000000000000
     0.0000000000000000    0.0000000000000000    3.2066270000000001
 Ce  Cd 
   1   2
Cartesian
  0.0000000000000000  0.0000000000000000  0.0000000000000000
 -0.0000029140999999  2.9800141566730001  1.6043973399259999
  2.5807689141000001  1.4900048433269999  1.6022296600740000
