Sm Sc O 
 1.0000000000000000
     5.5262669999999998    0.0000000000000000    0.0000000000000000
     0.0000000000000000    5.7843169999999997    0.0000000000000000
     0.0000000000000000    0.0000000000000000    7.9759909999999996
 Sm  Sc  O  
   4   4  12
Cartesian
  0.0959083637850000  5.4394386675090001  1.9939977499999999
  2.8590418637849999  3.2370368324909999  5.9819932499999995
  2.6672251362149999  2.5472801675089998  1.9939977499999999
  5.4303586362149998  0.3448783324910000  5.9819932499999995
  0.0000000000000000  2.8921584999999999  0.0000000000000000
  2.7631334999999999  0.0000000000000000  0.0000000000000000
  2.7631334999999999  0.0000000000000000  3.9879954999999998
  0.0000000000000000  2.8921584999999999  3.9879954999999998
  4.8745543326899998  3.1652418898870001  1.9939977499999999
  2.1114208326899999  5.5112336101129999  5.9819932499999995
  3.4148461673099999  0.2730833898870000  1.9939977499999999
  0.6517126673100000  2.6190751101129996  5.9819932499999995
  3.8396337327989998  1.7525381489770000  7.4829232123710003
  1.0765002327989999  1.1396203510229999  0.4930677876289999
  4.4497667672010000  4.6446966489769999  4.4810632876289995
  1.6866332672010000  4.0317788510229997  3.4949277123709996
  1.6866332672010000  4.0317788510229997  0.4930677876289999
  4.4497667672010000  4.6446966489769999  7.4829232123710003
  1.0765002327989999  1.1396203510229999  3.4949277123709996
  3.8396337327989998  1.7525381489770000  4.4810632876289995
