Cs Al Tl H 
 1.0000000000000000
     0.0000000000000000    4.4586249999999996    4.4586249999999996
     4.4586249999999996    0.0000000000000000    4.4586249999999996
     4.4586249999999996    4.4586249999999996    0.0000000000000000
 Cs  Al  Tl  H  
   2   1   1   6
Cartesian
  2.2293124999999998  2.2293124999999998  2.2293124999999998
  6.6879374999999994  6.6879374999999994  6.6879374999999994
  4.4586249999999996  4.4586249999999996  4.4586249999999996
  0.0000000000000000  0.0000000000000000  0.0000000000000000
  6.2568508832499994  4.4586249999999996  4.4586249999999996
  4.4586249999999996  2.6603991167499998  4.4586249999999996
  4.4586249999999996  6.2568508832499994  4.4586249999999996
  4.4586249999999996  4.4586249999999996  6.2568508832499994
  4.4586249999999996  4.4586249999999996  2.6603991167499998
  2.6603991167499998  4.4586249999999996  4.4586249999999996
