Li Ti O 
 1.0000000000000000
     4.3789030000000002    2.5227249999999999   -0.0003640000000000
    -4.3789030000000002    2.5227249999999999   -0.0003640000000000
     0.0000000000000000    1.7224969999999999    9.5272749999999995
 Li  Ti  O  
   8   4  12
Cartesian
 -0.6999282344230001  1.2115052723540001  0.0032265197230000
 -0.6999282344229999  4.6951932276459996  4.7596829802769998
  0.6999282344230002  5.5564417276459999  9.5233204802769986
  0.6999282344230001  2.0727537723539999  4.7668640197230001
 -2.1894515000000001  2.1226110000000000  4.7634555000000001
  2.1894515000000001  1.2613624999999999 -0.0001820000000000
  3.6384567761180002  3.8145977499999995  7.1450922499999994
 -3.6384567761180002  2.9533492500000000  2.3814547500000001
  0.7220373156699998  3.8145977499999999  7.1450922499999994
  2.1884268366980000  2.9533492500000000  2.3814547500000001
 -2.1884268366980000  3.8145977499999999  7.1450922499999994
 -0.7220373156699998  2.9533492500000000  2.3814547500000001
 -0.8170989208970000  1.3283502732110000  3.4901022517059999
  2.0783674886960006  4.7145267419370001  8.2322529141630003
 -0.8170989208969999  4.5783482267890001  1.2728072482940000
  0.8170989208970001  5.4395967267889995  6.0364447482939996
 -0.7393164669080001  4.5485796005039996  8.2309525326420001
  2.0783674886960002  2.9146687580629997  6.0579315858369993
 -2.0783674886960002  2.0534202580629999  1.2942940858370000
 -2.0783674886960006  3.8532782419369997  3.4686154141629997
  0.7393164669079998  3.6873311005040001  3.4673150326419999
 -0.7393164669080000  3.0806158994959998  6.0592319673579995
  0.7393164669080001  2.2193673994959999  1.2955944673580000
  0.8170989208970000  2.1895987732109998  8.2537397517060000
