Li Be Pd
 1.0000000000000000
    -0.0006480000000000    2.8631530000000001    2.8631530000000001
     2.8631530000000001   -0.0006480000000000    2.8631530000000001
     2.8631530000000001    2.8631530000000001   -0.0006480000000000
 Li  Be  Pd 
   1   1   2
Cartesian
  4.2942435000000003  4.2942435000000003  4.2942434999999994
  1.4314087743420001  1.4314087743420001  1.4314087743420001
  0.0000858848700000  0.0000858848700000  0.0000858848700000
  2.8627602921039998  2.8627602921039998  2.8627602921039998
