Zr Tl C 
 1.0000000000000000
    -1.6903600000000001   -2.9277880000000001    0.0000000000000000
    -1.6903600000000001    2.9277880000000001    0.0000000000000000
     0.0000000000000000    0.0000000000000000  -14.9904189999999993
 Zr  Tl  C  
   4   2   2
Cartesian
 -1.6903600000000001 -0.9759312851920000 -6.2658602282290001
 -1.6903600000000001  0.9759312851920001 -8.7245587717709991
 -1.6903600000000001  0.9759312851920001 -13.7610697282289998
 -1.6903600000000001 -0.9759312851920000 -1.2293492717710000
 -1.6903600000000001 -0.9759312851920000 -11.2428142499999986
 -1.6903600000000001  0.9759312851920001 -3.7476047499999998
  0.0000000000000000  0.0000000000000000  0.0000000000000000
  0.0000000000000000  0.0000000000000000 -7.4952094999999996
