Mo S 
 1.0000000000000000
     6.5464830000000003   -1.5921520000000000   -0.0783900000000000
     6.5464830000000003    1.5921520000000000   -0.0783900000000000
     6.1920080000000004    0.0000000000000000    2.6564199999999998
 Mo  S  
   1   2
Cartesian
 19.2806348808499983  0.0000000000000001  2.4990775809999999
  7.9633443138200013 -0.0000000000000000  1.0321763451999999
  4.8848067743040007 -0.0000000000000000  0.6331488134400000
