Zr Cd Pd
 1.0000000000000000
     0.0032660000000000    3.2826010000000001    3.2826010000000001
     3.2826010000000001    0.0032660000000000    3.2826010000000001
     3.2826010000000001    3.2826010000000001    0.0032660000000000
 Zr  Cd  Pd 
   1   1   2
Cartesian
  4.9263444315319997  4.9263444315319997  4.9263444315319997
  1.6421235684680000  1.6421235684680000  1.6421235684679998
  6.5680476180480003  6.5680476180480003  6.5680476180480003
  3.2846543819520000  3.2846543819520000  3.2846543819519995
