Al Au
 1.0000000000000000
     6.4366539999999999    0.0000000000000000   -0.2778060000000000
     0.0000000000000000    3.4127890000000001    0.0000000000000000
     0.0034840000000000    0.0000000000000000    6.4247240000000003
 Al  Au 
   4   4
Cartesian
  5.2846891015220008  0.8531972500000000  3.3029273877420002
  1.1554488984780000  2.5595917500000001  2.8439906122580001
  2.0585900189159996  0.8531972500000000  5.8342750560759997
  4.3815479810839992  2.5595917500000001  0.3126429439240000
  3.0784234099879999  0.8531972500000000  1.8440305334680003
  3.3617145900119998  2.5595917500000001  4.3028874665319998
  0.0225669335000000  0.8531972500000000  1.2098000109000000
  6.4175710664999999  2.5595917500000001  4.9371179890999999
