Th Ge Rh
 1.0000000000000000
     3.8927960000000001    0.0000000000000000   -1.5111699999999999
    -0.5866300000000000    3.8483410000000000   -1.5111699999999999
     0.0808530000000000    0.0941120000000000    5.9778130000000003
 Th  Ge  Rh 
   1   2   2
Cartesian
  0.0000000000000000  0.0000000000000000  0.0000000000000000
  2.0764268614190002  2.4169381148279996 -0.4206361560769996
  1.3105921385810000  1.5255148851720000  3.3761091560770002
  2.8133660000000003  1.0091412500000001  1.4777365000000002
  0.5736530000000001  2.9333117500000001  1.4777365000000002
