Ti Cr P 
 1.0000000000000000
     6.3772539999999998   -0.0000220000000000    0.0000000000000000
    -3.1886450000000002    5.5227839999999997    0.0000000000000000
     0.0000000000000000    0.0000000000000000    3.2316150000000001
 Ti  Cr  P  
   3   3   3
Cartesian
  1.2894894230769998  2.2333000200580000  1.6158075000000001
  0.6096060303029998  5.5227543286240000  1.6158075000000001
 -1.8991888487380000  3.2895137426079999  1.6158075000000001
 -0.8100051120599999  1.4029417739519998  0.0000000000000000
 -1.5685960913929999  5.5227507973539991  0.0000000000000000
  2.3786385420000000  4.1198147690299995  0.0000000000000000
  3.1885572275559997  1.8408838787640001  0.0000000000000000
 -0.0000406978650003  3.6819167809660001  0.0000000000000000
 -3.1885780387790001  5.5227674314500002  1.6158075000000001
