Co W 
 1.0000000000000000
     5.1155600000000003    0.0000000000000000    0.0000000000000000
    -2.5577800000000002    4.4302049999999999    0.0000000000000000
     0.0000000000000000    0.0000000000000000    4.1004779999999998
 Co  W  
   6   2
Cartesian
  2.5577825577800000  2.9949381955350001  1.0251195000000000
 -1.3148063467600002  3.7125738128700001  3.0753585000000001
  1.3148012312000001  3.7125738128700001  3.0753585000000001
  1.2429787688000002  0.7176311871300000  1.0251195000000000
  3.8725863467600004  0.7176311871300000  1.0251195000000000
 -0.0000025577800001  1.4352668044650001  3.0753585000000001
 -0.0000025577800000  2.9534714767349999  1.0251195000000000
  2.5577825577800004  1.4767335232649998  3.0753585000000001
