Ca Ac In
 1.0000000000000000
     0.0000060000000000    3.9988510000000002    3.9988489999999999
     3.9988530000000000    0.0000030000000000    3.9988519999999999
     3.9988560000000000    3.9988570000000001   -0.0000010000000000
 Ca  Ac  In 
   1   1   2
Cartesian
  5.9982782522849991  5.9982752522889999  5.9982670022999995
  1.9994287499999999  1.9994277500000002  1.9994249999999998
  0.0000000000000000  0.0000000000000000  0.0000000000000000
  3.9988495022850001  3.9988475022890002  3.9988420023000000
