Er Zn Ru
 1.0000000000000000
     0.0005890000000000    3.4161540000000001    3.4166550000000000
     3.4148269999999998   -0.0033270000000000    3.4180120000000001
     3.4204919999999999    3.4152420000000001   -0.0017620000000000
 Er  Zn  Ru 
   2   1   1
Cartesian
  3.4162956545320000  3.4137596509680002  6.8339418607400004
  3.4165407588150001  3.4127159586570004  3.4173453395840001
  5.1265438597979998  5.1203990923319997  5.1251918029220001
  1.7098977319310000  1.7080558004580002  1.7075386603250000
