Ga Ge Te
 1.0000000000000000
    12.0623249999999995   -2.0360830000000001   -0.0021030000000000
    12.0623249999999995    2.0360830000000001   -0.0021030000000000
    11.7192530000000001    0.0000000000000000    3.5077680000000000
 Ga  Ge  Te 
   2   2   2
Cartesian
  9.1256067964789995 -0.0000000000000000  0.8919823602660001
 26.7182962035209997 -0.0000000000000001  2.6115796397340003
 11.5502317710109992  0.0000000000000000  1.1289773081940000
 24.2936712289889982 -0.0000000000000000  2.3745846918060001
  4.0731219174049995  0.0000000000000000  0.3981272678700000
 31.7707810825949970 -0.0000000000000001  3.1054347321300000
