Co Sb
 1.0000000000000000
     3.8748000000000000    0.0000000000000000    0.0000000000000000
    -1.9374009999999999    3.3556759999999999    0.0000000000000000
     0.0000000000000000    0.0000000000000000    5.2036860000000003
 Co  Sb 
   2   2
Cartesian
  0.0000000000000000  0.0000000000000000  0.0000000000000000
  0.0000000000000000  0.0000000000000000  2.6018430000000001
 -0.0000026040670000  2.2371184518920000  1.3009215000000001
  1.9374016040670001  1.1185575481079999  3.9027645000000000
