Sr Zn Sb
 1.0000000000000000
     4.5128560000000002    0.0000000000000000    0.0000000000000000
    -2.2564280000000001    3.9082479999999999    0.0000000000000000
     0.0000000000000000    0.0000000000000000    7.7398980000000002
 Sr  Zn  Sb 
   1   2   2
Cartesian
  0.0000000000000000  0.0000000000000000  0.0000000000000000
  2.2564302564280001  1.3027480305840000  2.8339404330060001
 -0.0000022564280000  2.6054999694159999  4.9059575669940001
 -0.0000022564280000  2.6054999694159999  2.1054534933480000
  2.2564302564280001  1.3027480305840000  5.6344445066520006
