Er Cu
 1.0000000000000000
    -4.2535390000000000    0.0000000000000000    0.0000000000000000
    -2.1267689999999999   -3.3268380000000000    3.6013799999999998
    -2.1267689999999999    3.3268380000000000    3.6013799999999998
 Er  Cu 
   2   4
Cartesian
 -4.2535384538639995  1.6634189999999998  3.9336865353599997
 -4.2535385461359994 -1.6634190000000002  3.2690734646399999
 -4.2535367093150001  0.3538990459259999  1.1806440067799999
 -4.2535402906849997 -0.3538990459260000  6.0221159932199999
 -6.3803057093150004 -0.3538990459259997  4.7820240067799995
 -2.1267712906849998  0.3538990459260000  2.4207359932199997
