Cu Bi S 
 1.0000000000000000
     3.9158219999999999    0.0000000000000000    0.0000000000000000
     0.0000000000000000    6.2300620000000002    0.0000000000000000
     0.0000000000000000    0.0000000000000000   14.3911479999999994
 Cu  Bi  S  
   4   4   8
Cartesian
  0.9789555000000000  1.5226956834820000 11.9246923177240003
  0.9789555000000000  4.6377266834820006  9.6620296822759997
  2.9368664999999998  4.7073663165179997  2.4664556822760000
  2.9368664999999998  1.5923353165180001  4.7291183177239997
  0.9789555000000000  4.5755444346600003  6.2931195000679994
  2.9368664999999998  1.6545175653399999  8.0980284999319991
  0.9789555000000000  1.4605134346599999  0.9024544999320000
  2.9368664999999998  4.7695485653400000 13.4886935000679991
  2.9368664999999998  3.8712982261800000  4.6033252930559998
  0.9789555000000000  2.3587637738200002  9.7878227069439987
  2.9368664999999998  0.7562672261800000  2.5922487069439999
  0.9789555000000000  5.4737947738199999 11.7988992930559995
  0.9789555000000000  0.8669068972380000  5.7675259928119997
  2.9368664999999998  2.2481241027620000 12.9630999928119994
  0.9789555000000000  3.9819378972379997  1.4280480071880000
  2.9368664999999998  5.3631551027620006  8.6236220071879988
