Ge O 
 1.0000000000000000
     2.8765139999999998    0.0000000000000000    0.0000000000000000
     0.0000000000000000    4.4124239999999997    0.0000000000000000
     0.0000000000000000    0.0000000000000000    4.4124239999999997
 Ge  O  
   2   4
Cartesian
  1.4382569999999999  2.2062119999999998  2.2062119999999998
  0.0000000000000000  0.0000000000000000  0.0000000000000000
  0.0000000000000000  3.0632327010959997  3.0632327010959997
  1.4382569999999999  3.5554032989039999  0.8570207010960000
  0.0000000000000000  1.3491912989040000  1.3491912989040000
  1.4382569999999999  0.8570207010960000  3.5554032989039999
