Ca Mg In
 1.0000000000000000
     0.0000000000000000    3.8719630000000000    3.8719630000000000
     3.8719630000000000    0.0000000000000000    3.8719630000000000
     3.8719630000000000    3.8719630000000000    0.0000000000000000
 Ca  Mg  In 
   2   1   1
Cartesian
  5.8079444999999996  5.8079444999999996  5.8079444999999996
  1.9359815000000000  1.9359815000000000  1.9359815000000000
  0.0000000000000000  0.0000000000000000  0.0000000000000000
  3.8719630000000000  3.8719630000000000  3.8719630000000000
