Ca U  O 
 1.0000000000000000
     5.9985419999999996   -1.9340459999999999   -0.0000420000000000
     5.9985419999999996    1.9340459999999999   -0.0000420000000000
     5.3749909999999996    0.0000000000000000    3.2912800000000000
 Ca  U   O  
   1   1   4
Cartesian
  8.6860374999999994  0.0000000000000000  1.6455979999999999
  0.0000000000000000  0.0000000000000000  0.0000000000000000
 11.0725263031249987 -0.0000000000000001  2.0977260504999999
  6.2995486968749992  0.0000000000000001  1.1934699494999998
  1.9362567353500000 -0.0000000000000000  0.3668301237680000
 15.4358182646499991  0.0000000000000000  2.9243658762320002
