Li H 
 1.0000000000000000
     4.0181250000000004    0.0000000000000000    0.0000000000000000
     0.0000000000000000    4.0181250000000004    0.0000000000000000
     0.0000000000000000    0.0000000000000000    4.0181250000000004
 Li  H  
   4   4
Cartesian
  0.0000000000000000  0.0000000000000000  0.0000000000000000
  0.0000000000000000  2.0090625000000002  2.0090625000000002
  2.0090625000000002  0.0000000000000000  2.0090625000000002
  2.0090625000000002  2.0090625000000002  0.0000000000000000
  2.0090625000000002  2.0090625000000002  2.0090625000000002
  2.0090625000000002  0.0000000000000000  0.0000000000000000
  0.0000000000000000  2.0090625000000002  0.0000000000000000
  0.0000000000000000  0.0000000000000000  2.0090625000000002
