Ti Fe Ge
 1.0000000000000000
     0.0001380000000000    2.8682289999999999    2.8681340000000000
     2.8681770000000002    0.0001330000000000    2.8681390000000002
     2.8681760000000001    2.8682330000000000    0.0001340000000000
 Ti  Fe  Ge 
   1   2   1
Cartesian
  4.3023395686499999  4.3024376447570001  4.3023023810419998
  5.7364623167190008  5.7365433714509999  5.7363668451710002
  2.8683172053780002  2.8683548662280001  2.8682579963479999
  1.4341170139210000  1.4341573542920001  1.4340988819850000
