Sr Ac Zn
 1.0000000000000000
     0.0000000000000000    3.8912119999999999    3.8912119999999999
     3.8912119999999999    0.0000000000000000    3.8912119999999999
     3.8912119999999999    3.8912119999999999    0.0000000000000000
 Sr  Ac  Zn 
   1   1   2
Cartesian
  5.8368180000000001  5.8368180000000001  5.8368180000000001
  1.9455982175760000  1.9455982175760000  1.9455982175760000
  0.0000000000000000  0.0000000000000000  0.0000000000000000
  3.8912197824240002  3.8912197824240002  3.8912197824240002
