Sr Zn Si
 1.0000000000000000
     4.2800539999999998    0.0000000000000000    0.0000000000000000
    -2.1400260000000002    3.7066360000000000    0.0000000000000000
     0.0000000000000000    0.0000000000000000    9.0120570000000004
 Sr  Zn  Si 
   2   2   2
Cartesian
  0.0000000000000000  0.0000000000000000  4.5060285000000002
  0.0000000000000000  0.0000000000000000  0.0000000000000000
 -0.0000014733600002  2.4710919022120001  2.2530142500000001
  2.1400294733599998  1.2355440977879999  6.7590427500000008
  2.1400294733599998  1.2355440977879999  2.2530142500000001
 -0.0000014733600002  2.4710919022120001  6.7590427500000008
