Ga Ag Te
 1.0000000000000000
     5.7595970000000003    0.0000000000000000   -2.6610109999999998
    -1.2294229999999999    5.6268520000000004   -2.6610109999999998
    -0.0001240000000000   -0.0001530000000000    7.5633869999999996
 Ga  Ag  Te 
   2   2   4
Cartesian
  4.0122800000000005  1.4066365000000001  1.1206825000000000
  2.2650870000000003  2.8134260000000002 -2.6610109999999998
  0.5177700000000001  4.2200625000000009  1.1206825000000000
  0.0000000000000000  0.0000000000000000  0.0000000000000000
  1.8062122532440001  2.1100312500000005 -0.1545446771720000
 -0.0256015522039999  3.4117157064960004  3.7264151771720000
  3.4230460522040000  0.8081937935040000  3.6271488228279996
  3.8564432467560001  4.9234572500000002 -2.7162893228279996
