Mg Hg
 1.0000000000000000
     3.9316230000000001    0.0000000000000000    0.0000000000000000
     0.0000000000000000    3.9316230000000001    0.0000000000000000
     0.0000000000000000    0.0000000000000000    8.9191109999999991
 Mg  Hg 
   2   4
Cartesian
  0.0000000000000000  0.0000000000000000  0.0000000000000000
  1.9658115000000000  1.9658115000000000  4.4595554999999996
  1.9658115000000000  1.9658115000000000  1.4869585094759998
  1.9658115000000000  1.9658115000000000  7.4321524905239995
  0.0000000000000000  0.0000000000000000  5.9465140094759992
  0.0000000000000000  0.0000000000000000  2.9725969905239999
