Sr Ti O 
 1.0000000000000000
     4.7827099999999998    0.0000000000000000   -2.7607620000000002
    -1.5936170000000001    4.5094010000000004   -2.7607620000000002
     0.0067840000000000    0.0095920000000000    5.5348860000000002
 Sr  Ti  O  
   2   2   6
Cartesian
  3.1920202499999997  1.1321462500000001  0.0066809999999999
  0.0038567499999999  3.3868467500000001  0.0066809999999999
  1.5945464999999999  2.2547005000000002 -2.7607620000000002
  0.0000000000000000  0.0000000000000000  0.0000000000000000
  3.2554620720009999  1.2218537667570002 -2.8764765784680000
  2.2581910650609998  3.4765542667570002 -4.1411430000000005
  0.9309019349390000  1.0328467332430000 -1.3803810000000001
 -0.0663690720010001  3.2875472332430005 -2.6450474215320003
  0.8006652499999999  1.1321462500000001  1.3870620000000000
  2.3952117499999996  3.3868467500000001 -1.3737000000000004
