Lu C 
 1.0000000000000000
     3.5834250000000001   -0.0113880000000000    0.0000000000000000
    -1.6350880000000001    6.0400210000000003    0.0000000000000000
     0.0000000000000000    0.0000000000000000   13.4576799999999999
 Lu  C  
   8  14
Cartesian
  1.8478889564060001  1.5593377240870001 12.7256494964000009
  0.9179920435940002  1.4492847759130001  5.9968094963999992
  0.1004480435940001  4.4692952759129998  0.7320305036000000
  1.0303449564060001  4.5793482240870000  7.4608705035999998
  2.8213970243030002  2.0387643967989999  8.8790677373599998
 -0.0555143892150000  0.9698520631799999  2.1502277373599998
 -0.8730583892150001  3.9898625631800004  4.5786122626400001
  2.0038513892150003  5.0587809368199999 11.3074522626400000
 -0.8175440000000000  3.0200105000000002  6.7288399999999999
  0.0000000000000000  0.0000000000000000  0.0000000000000000
  1.7980838801069998  0.4525462039800001 10.5813162228800000
  0.9677971198930001  2.5560762960200001  3.8524762228800000
  0.1502531198930001  5.5760867960200002  2.8763637771199999
  0.9805398801069999  3.4725567039800000  9.6052037771199998
  1.4860933276649999  2.7438080040930002  2.6582416996800000
  1.2797876723350001  0.2648144959070000  9.3870816996799995
  1.0704205435649998  5.7328198594680009  5.3351492015200002
  0.0603724564350000  3.3158236405319998 12.0639892015200001
  0.8779164564350000  0.2958131405320000  8.1225307984799997
  1.8879645435649999  2.7128093594679998  1.3936907984800000
  0.6685493276649999  5.7638185040929999  4.0705983003200004
  0.4622436723350000  3.2848249959070004 10.7994383003200003
