Na Cu P 
 1.0000000000000000
     5.1793310000000004    0.0000000000000000    0.0000000000000000
     0.0000000000000000    5.3997299999999999   -1.1863100000000000
     0.0000000000000000   -0.0062020000000000    5.5285060000000001
 Na  Cu  P  
   4   2   2
Cartesian
  1.2948327500000001  3.6964159255660003 -0.6470160741980000
  3.8844982500000000  1.6971120744340003  4.9892120741979999
  1.2948327500000001  0.1570279087300000  3.7493284017700002
  3.8844982500000000  5.2365000912699999  0.5928675982300002
  2.5896655000000002  2.6967639999999999  2.1710980000000002
  0.0000000000000000  2.6967639999999999  2.1710980000000002
  3.8844982500000000  4.1017888310560000  3.3022487423920004
  1.2948327500000001  1.2917391689439999  1.0399472576080000
