Ho Mg In
 1.0000000000000000
     0.0000000000000000    3.7234799999999999    3.7234799999999999
     3.7234799999999999    0.0000000000000000    3.7234799999999999
     3.7234799999999999    3.7234799999999999    0.0000000000000000
 Ho  Mg  In 
   2   1   1
Cartesian
  0.0000000000000000  0.0000000000000000  0.0000000000000000
  3.7234799999999999  3.7234799999999999  3.7234799999999999
  5.5852274469600003  5.5852274469600003  5.5852274469600003
  1.8617400000000000  1.8617400000000000  1.8617400000000000
