Ba Hf S 
 1.0000000000000000
     4.7490629999999996   -0.0000510000000000   -1.3859889999999999
    -0.4046280000000000    4.7317950000000000   -1.3859889999999999
    -0.0478670000000000   -0.0521350000000000    8.6635740000000006
 Ba  Hf  S  
   2   1   4
Cartesian
  1.5201371896800000  1.6556578873409999  5.2079136356280005
  2.7764308103199999  3.0239511126589997  0.6836823643720005
 -0.4524898463090000  4.6796552681539998  7.2775850000000002
  4.4988819999999992  2.3137115000000001  6.5845905000000009
  2.3745314999999998 -0.0000255000000000 -0.6929945000000000
  3.6112668180089993  3.9332130070829998  3.5428278968860005
  0.6853011819909999  0.7463959929170000  2.3487681031140002
