Hf Si
 1.0000000000000000
     7.8917780000000004    0.0000000000000000    0.0000000000000000
    -3.9458890000000002    6.8344790000000000    0.0000000000000000
     0.0000000000000000    0.0000000000000000    5.5100020000000001
 Hf  Si 
  10   6
Cartesian
 -2.9483800984670001  5.1067432122369993  4.1325015000000000
 -0.9975089015330000  1.7277357877630000  1.3775005000000000
  2.9483800984670001  5.1067432122369993  1.3775005000000000
  5.8967601969340002  0.0000000000000000  4.1325015000000000
  0.9975089015330000  1.7277357877630000  4.1325015000000000
  1.9950178030660000  0.0000000000000000  1.3775005000000000
 -0.0000039458890002  4.5563216114929999  2.7550010000000000
  3.9458929458889997  2.2781573885070001  0.0000000000000000
  3.9458929458889997  2.2781573885070001  2.7550010000000000
 -0.0000039458890002  4.5563216114929999  0.0000000000000000
  3.0827257812500002  0.0000000000000000  4.1325015000000000
  1.5413628906250001  2.6697183593750000  1.3775005000000000
 -2.4045261093750003  4.1647606406250004  1.3775005000000000
 -1.5413628906250001  2.6697183593750000  4.1325015000000000
  2.4045261093750003  4.1647606406250004  4.1325015000000000
  4.8090522187500007  0.0000000000000000  1.3775005000000000
