Ni Te
 1.0000000000000000
     3.7097470000000001   -0.0021410000000000    5.9924689999999998
     1.7031410000000000    3.2956850000000002    5.9924689999999998
    -0.0035190000000000   -0.0021410000000000    7.0478290000000001
 Ni  Te 
   2   2
Cartesian
  0.7101635997960001  0.4321085514520001  2.4986977828280001
  4.6992054002040007  2.8592944485480003 16.5340692171720001
  1.3849715638080000  0.8427044928960000  4.8729974005439995
  4.0243974361919994  2.4486985071039999 14.1597695994559984
