Al Pt
 1.0000000000000000
     4.1093570000000001    0.0000000000000000    0.0000000000000000
     0.0000000000000000    5.4681150000000001    0.0000000000000000
     0.0000000000000000    0.0000000000000000    8.0006210000000006
 Al  Pt 
   4   8
Cartesian
  3.0820177500000003  1.6914465448350002  3.1715901755780003
  1.0273392500000000  3.7766684551650003  4.8290308244220004
  3.0820177500000003  4.4255040448349998  0.8287203244220001
  1.0273392500000000  1.0426109551650000  7.1719006755780006
  3.0820177500000003  5.2290708846600005  6.3254269731570005
  1.0273392500000000  0.2390441153400000  1.6751940268430003
  3.0820177500000003  2.4950133846600000  5.6755045268430004
  1.0273392500000000  2.9731016153400001  2.3251164731570002
  3.0820177500000003  4.5915324205800001  3.4499237795470004
  1.0273392500000000  0.8765825794200001  4.5506972204530003
  3.0820177500000003  1.8574749205800001  0.5503867204530001
  1.0273392500000000  3.6106400794200000  7.4502342795470007
