Ca Cd Sn
 1.0000000000000000
     7.7336260000000001    0.0000000000000000    0.0000000000000000
    -3.8668130000000001    6.6975170000000004    0.0000000000000000
     0.0000000000000000    0.0000000000000000    4.7275179999999999
 Ca  Cd  Sn 
   3   3   3
Cartesian
 -2.2217238109060000  3.8481387625540004  2.3637589999999999
  4.4434476218120000  0.0000000000000000  2.3637589999999999
  1.6450891890940000  2.8493782374459999  2.3637589999999999
  1.9493223023080000  0.0000000000000000  0.0000000000000000
  2.8921518488459999  5.0093542600140006  0.0000000000000000
 -0.9746611511540000  1.6881627399860002  0.0000000000000000
  0.0000000000000000  0.0000000000000000  2.3637589999999999
  3.8668168668129996  2.2325034341609999  0.0000000000000000
 -0.0000038668130002  4.4650135658390004  0.0000000000000000
