Na Mg Sn
 1.0000000000000000
     5.0374699999999999    0.0000000000000000    0.0000000000000000
    -2.5187339999999998    4.3634579999999996    0.0000000000000000
     0.0000000000000000    0.0000000000000000    9.9750949999999996
 Na  Mg  Sn 
   4   2   2
Cartesian
  2.5187353333339999  1.4544889089719999  0.7969003644550000
  2.5187353333339999  1.4544889089719999  4.1906471355450003
  0.0000006666660000  2.9089690910279997  5.7844478644549993
  0.0000006666660000  2.9089690910279997  9.1781946355449993
  2.5187334809920001  4.3622667759659999  2.4937737499999999
  0.0000025190080000  0.0011912240340000  7.4813212499999997
  0.0000031852500002  2.9083102088699997  2.4937737499999999
  2.5187328147499999  1.4551477911299997  7.4813212499999997
