Ti Cr
 1.0000000000000000
     6.8627589999999996    0.0000000000000000    0.0000000000000000
     0.0000000000000000    6.8627589999999996    0.0000000000000000
     0.0000000000000000    0.0000000000000000    6.8627589999999996
 Ti  Cr 
   8  16
Cartesian
  4.2892243749999999  0.8578448750000000  4.2892243749999999
  6.0049141250000000  6.0049141250000000  6.0049141250000000
  4.2892243749999999  4.2892243749999999  0.8578448750000000
  6.0049141250000000  2.5735346249999997  2.5735346249999997
  0.8578448750000000  0.8578448750000000  0.8578448750000000
  2.5735346249999997  6.0049141250000000  2.5735346249999997
  0.8578448750000000  4.2892243749999999  4.2892243749999999
  2.5735346249999997  2.5735346249999997  6.0049141250000000
  3.4313794999999998  1.7156897499999999  1.7156897499999999
  5.1470692499999995  1.7156897499999999  0.0000000000000000
  3.4313794999999998  0.0000000000000000  0.0000000000000000
  5.1470692499999995  0.0000000000000000  1.7156897499999999
  3.4313794999999998  5.1470692499999995  5.1470692499999995
  5.1470692499999995  5.1470692499999995  3.4313794999999998
  3.4313794999999998  3.4313794999999998  3.4313794999999998
  5.1470692499999995  3.4313794999999998  5.1470692499999995
  0.0000000000000000  1.7156897499999999  5.1470692499999995
  1.7156897499999999  1.7156897499999999  3.4313794999999998
  0.0000000000000000  0.0000000000000000  3.4313794999999998
  1.7156897499999999  0.0000000000000000  5.1470692499999995
  0.0000000000000000  5.1470692499999995  1.7156897499999999
  1.7156897499999999  5.1470692499999995  0.0000000000000000
  0.0000000000000000  3.4313794999999998  0.0000000000000000
  1.7156897499999999  3.4313794999999998  1.7156897499999999
