La Ag
 1.0000000000000000
     3.8079890000000001    0.0000000000000000    0.0000000000000000
     0.0000000000000000    3.8079890000000001    0.0000000000000000
     0.0000000000000000    0.0000000000000000    3.8182809999999998
 La  Ag 
   1   1
Cartesian
  1.9039945000000000  1.9039945000000000  1.9091404999999999
  0.0000000000000000  0.0000000000000000  0.0000000000000000
