Tm Cu
 1.0000000000000000
     3.3844870000000000    0.0000000000000000    0.0000000000000000
     0.0000000000000000    3.3844870000000000    0.0000000000000000
     0.0000000000000000    0.0000000000000000    3.3844870000000000
 Tm  Cu 
   1   1
Cartesian
  1.6922435000000000  1.6922435000000000  1.6922435000000000
  0.0000000000000000  0.0000000000000000  0.0000000000000000
