Mn Al Ru
 1.0000000000000000
    -0.0001100000000000    2.9756969999999998    2.9757349999999998
     2.9757140000000000   -0.0001100000000000    2.9757370000000001
     2.9757020000000001    2.9756890000000000   -0.0000990000000000
 Mn  Al  Ru 
   1   1   2
Cartesian
  4.4634170090260001  4.4634570012900001  4.4635267752330003
  1.4878384030520000  1.4878189997639999  1.4878432498059999
  5.9512762441660003  5.9512194620410002  5.9513343162329999
  2.9757303681520000  2.9756915613179999  2.9757222072559997
