Na
 1.0000000000000000
     3.7433920000000001    0.0000000000000000    0.0000000000000000
    -1.8716969999999999    3.2418730000000000    0.0000000000000000
     0.0000000000000000    0.0000000000000000    6.0910580000000003
 Na 
   2
Cartesian
 -0.0000025383630000  2.1612497472909999  1.5227645000000001
  1.8716975383629999  1.0806232527090001  4.5682935000000002
