Mg P  Pt
 1.0000000000000000
     3.9107430000000001    0.0000000000000000    0.0000000000000000
     0.0000000000000000    3.9107430000000001    0.0000000000000000
     0.0000000000000000    0.0000000000000000    6.9631920000000003
 Mg  P   Pt 
   1   1   5
Cartesian
  0.0000000000000000  0.0000000000000000  0.0000000000000000
  1.9553715000000000  1.9553715000000000  3.4815960000000001
  1.9553715000000000  1.9553715000000000  0.0000000000000000
  0.0000000000000000  1.9553715000000000  2.0327507141760002
  0.0000000000000000  1.9553715000000000  4.9304412858240001
  1.9553715000000000  0.0000000000000000  4.9304412858240001
  1.9553715000000000  0.0000000000000000  2.0327507141760002
