Mg Ni Sn
 1.0000000000000000
     3.7425709999999999    0.0000000000000000    2.1607740000000000
     1.2475240000000001    3.5285289999999998    2.1607740000000000
     0.0000000000000000    0.0000000000000000    4.3215479999999999
 Mg  Ni  Sn 
   1   2   1
Cartesian
  2.4950475000000001  1.7642644999999999  4.3215479999999999
  1.2475237500000000  0.8821322500000000  2.1607740000000000
  3.7425712500000001  2.6463967500000001  6.4823219999999999
  0.0000000000000000  0.0000000000000000  0.0000000000000000
