In Ag Te
 1.0000000000000000
     5.9205509999999997    0.0000000000000000   -2.6979080000000000
    -1.2293970000000001    5.7915020000000004   -2.6979080000000000
     0.0293480000000000    0.0362310000000000    7.9096710000000003
 In  Ag  Te 
   2   2   4
Cartesian
  2.3455769999999996  2.8957510000000002 -2.6979080000000000
  4.1477380000000004  1.4659910000000000  1.2569275000000002
  0.0000000000000000  0.0000000000000000  0.0000000000000000
  0.5727639999999998  4.3617420000000005  1.2569275000000002
  1.7448860566459998  2.1808710000000002 -0.0361550941680002
 -0.0107854666380001  3.6680241483080005  3.8989640941679999
  3.5731729666379999  0.7299488516920001  3.9186804058320002
  4.1337304433539996  5.0766220000000004 -2.7537794058320006
