Ti As
 1.0000000000000000
     3.6444529999999999   -0.0000000000000000    0.0000000000000000
    -1.8222270000000000    3.1561900000000001    0.0000000000000000
     0.0000000000000000    0.0000000000000000   12.0434800000000006
 Ti  As 
   4   4
Cartesian
 -0.0000021555600002  2.1041277187300000  1.4150245956400000
  1.8222281555600000  1.0520622812700000  7.4367645956399997
  1.8222281555600000  1.0520622812700000 10.6284554043600004
 -0.0000021555600002  2.1041277187300000  4.6067154043600000
  0.0000000000000000  0.0000000000000000  0.0000000000000000
  0.0000000000000000  0.0000000000000000  6.0217400000000003
 -0.0000021555600002  2.1041277187300000  9.0326100000000000
  1.8222281555600000  1.0520622812700000  3.0108700000000002
