Sr Cu I  O 
 1.0000000000000000
     4.0592420000000002    0.0000000000000000    0.0000000000000000
     0.0000000000000000    4.0592420000000002    0.0000000000000000
    -2.0296210000000001   -2.0296210000000001   10.3421170000000000
 Sr  Cu  I   O  
   2   1   2   2
Cartesian
 -0.0000000000000000 -0.0000000000000000  8.6611506712880004
  2.0296210000000001  2.0296210000000001  1.6809663287120002
  0.0000000000000000  0.0000000000000000  0.0000000000000000
 -0.0000000000000000 -0.0000000000000000  3.4447936988280001
  2.0296210000000001  2.0296210000000001  6.8973233011719994
  2.0296210000000001  0.0000000000000000  0.0000000000000000
  0.0000000000000000  2.0296210000000001  0.0000000000000000
