Rb Pd S 
 1.0000000000000000
     6.0187020000000002    0.0038880000000000   -1.3287510000000000
    -3.3339289999999999    5.0108889999999997   -1.3287119999999999
     0.0063780000000000    0.0119570000000000    7.4433730000000002
 Rb  Pd  S  
   2   3   4
Cartesian
  2.2637275937300005  4.2283535306200006  2.8482545423799999
  0.4274234062700001  0.7983804693800001  1.9376554576200000
  3.0093510000000001  0.0019440000000000 -0.6643755000000000
  1.3423865000000001  2.5073884999999998 -1.3287315000000000
 -1.6669645000000000  2.5054444999999999 -0.6643559999999999
 -0.5297883746649998  2.7883302185549996  4.7248094565680008
  0.0769261594220003  3.9215522033879999  0.0611229548900000
  2.6142248405780006  1.1051817966120001  4.7247870451100002
  3.2209393746650004  2.2384037814449997  0.0611005434320001
