Be V 
 1.0000000000000000
     4.3677359999999998    0.0000000000000000    0.0000000000000000
    -2.1838679999999999    3.7825700000000002    0.0000000000000000
     0.0000000000000000    0.0000000000000000    7.0475050000000001
 Be  V  
   8   4
Cartesian
  0.0000000000000000  0.0000000000000000  0.0000000000000000
  0.0000000000000000  0.0000000000000000  3.5237525000000001
  2.1838679999999995  2.4865102152000005  1.7618762500000000
 -1.0614472027199999  3.1345401075999999  5.2856287499999999
  1.0614472027200004  3.1345401075999999  5.2856287499999999
  1.1224207972800000  0.6480298924000001  1.7618762500000000
  3.2453152027199996  0.6480298924000001  1.7618762500000000
 -0.0000000000000000  1.2960597848000002  5.2856287499999999
 -0.0000021838680002  2.5217145941900001  0.4744239415900000
  2.1838701838680001  1.2608554058100001  3.9981764415900001
  2.1838701838680001  1.2608554058100001  6.5730810584100006
 -0.0000021838680002  2.5217145941900001  3.0493285584100001
