Ca Rh
 1.0000000000000000
     7.5932190000000004    0.0000000000000000    0.0000000000000000
     0.0000000000000000    7.5932190000000004    0.0000000000000000
     0.0000000000000000    0.0000000000000000    7.5932190000000004
 Ca  Rh 
   8  16
Cartesian
  2.8474571250000000  2.8474571250000000  2.8474571250000000
  4.7457618750000004  0.9491523750000000  0.9491523750000000
  2.8474571250000000  6.6440666250000007  6.6440666250000007
  4.7457618750000004  4.7457618750000004  4.7457618750000004
  6.6440666250000007  2.8474571250000000  6.6440666250000007
  0.9491523750000000  0.9491523750000000  4.7457618750000004
  6.6440666250000007  6.6440666250000007  2.8474571250000000
  0.9491523750000000  4.7457618750000004  0.9491523750000000
  5.6949142500000001  0.0000000000000000  5.6949142500000001
  5.6949142500000001  5.6949142500000001  0.0000000000000000
  0.0000000000000000  5.6949142500000001  5.6949142500000001
  0.0000000000000000  0.0000000000000000  0.0000000000000000
  5.6949142500000001  3.7966095000000002  1.8983047500000001
  5.6949142500000001  1.8983047500000001  3.7966095000000002
  0.0000000000000000  1.8983047500000001  1.8983047500000001
  0.0000000000000000  3.7966095000000002  3.7966095000000002
  1.8983047500000001  0.0000000000000000  1.8983047500000001
  1.8983047500000001  5.6949142500000001  3.7966095000000002
  3.7966095000000002  5.6949142500000001  1.8983047500000001
  3.7966095000000002  0.0000000000000000  3.7966095000000002
  1.8983047500000001  3.7966095000000002  5.6949142500000001
  1.8983047500000001  1.8983047500000001  0.0000000000000000
  3.7966095000000002  1.8983047500000001  5.6949142500000001
  3.7966095000000002  3.7966095000000002  0.0000000000000000
