Cs Dy O 
 1.0000000000000000
     3.5294599999999998    0.0000000000000000   -0.0000150000000000
    -1.7647290000000000    3.0565980000000001    0.0000280000000000
    -0.0000520000000000    0.0000890000000000   13.6673220000000004
 Cs  Dy  O  
   2   2   4
Cartesian
 -0.0000612748790000  2.0376285993779999 10.2505051656230002
  1.7648602764529999  1.0188566651540001  3.4168298325140003
 -1.7647201764549998  3.0565949435799999  0.0000553345860000
  3.5293845876379994  0.0001239714590000  6.8336323334210007
 -0.0000722353450000  2.0378618997599998  5.7100294565979999
  0.0000228624809999  2.0377158831280004  1.1236588773050000
  1.7646577047540000  1.0189687602570001  7.9572918774410004
  1.7646790789519999  1.0189558339710001 12.5436897898169999
