Be Al O 
 1.0000000000000000
     4.4214869999999999    0.0000000000000000    0.0000000000000000
     0.0000000000000000    5.4680429999999998    0.0000000000000000
     0.0000000000000000    0.0000000000000000    9.3937249999999999
 Be  Al  O  
   4   8  16
Cartesian
  0.2944975631220000  1.3670107499999999  5.5651620766500001
  4.1269894368779996  4.1010322499999994  3.8285629233499998
  1.9162459368780000  1.3670107499999999  0.8682995766500000
  2.5052410631220003  4.1010322499999994  8.5254254233499989
  2.1876721808339998  4.1010322499999994  2.1369691065250001
  4.3984156808339998  1.3670107499999999  2.5598933934749999
  2.2338148191659997  1.3670107499999999  7.2567558934749998
  0.0230713191660000  4.1010322499999994  6.8338316065250000
  2.2107435000000000  2.7340214999999999  4.6968624999999999
  0.0000000000000000  2.7340214999999999  0.0000000000000000
  2.2107435000000000  0.0000000000000000  4.6968624999999999
  0.0000000000000000  0.0000000000000000  0.0000000000000000
  3.3453059071740001  2.8186394654250000  3.1628578137750001
  1.1345624071739999  2.6494035345749998  1.5340046862250001
  1.0761810928260001  0.0846179654250000  6.2308671862249998
  3.2869245928259998  5.3834250345749997  7.8597203137750000
  1.1345624071739999  0.0846179654250000  1.5340046862250001
  1.0761810928260001  2.6494035345749998  6.2308671862249998
  3.3453059071740001  5.3834250345749997  3.1628578137750001
  3.2869245928259998  2.8186394654250000  7.8597203137750000
  0.9398135907720000  4.1010322499999994  8.5451522458499998
  3.1505570907719997  1.3670107499999999  5.5454352541500000
  3.4816734092280002  1.3670107499999999  0.8485727541500000
  1.2709299092280000  4.1010322499999994  3.8482897458499998
  3.3559263189480002  4.1010322499999994  5.3248236225250007
  1.1451828189480000  1.3670107499999999  8.7657638774749991
  1.0655606810520000  1.3670107499999999  4.0689013774750000
  3.2763041810519997  4.1010322499999994  0.6279611225250000
