Li Zn Ag
 1.0000000000000000
     0.0000000000000000    3.1202160000000001    3.1202160000000001
     3.1202160000000001    0.0000000000000000    3.1202160000000001
     3.1202160000000001    3.1202160000000001    0.0000000000000000
 Li  Zn  Ag 
   1   1   2
Cartesian
  1.5601080000000001  1.5601080000000001  1.5601080000000001
  4.6803177595680001  4.6803177595680001  4.6803177595680001
  0.0000000000000000  0.0000000000000000  0.0000000000000000
  3.1202222404320001  3.1202222404320001  3.1202222404320001
