Nb O  F 
 1.0000000000000000
     2.1215760000000001   -4.9544920000000001   -0.0766850000000000
     3.3833570000000002    4.4595409999999998   -0.3655700000000000
    -0.0754170000000000   -2.9094890000000002    4.5368649999999997
 Nb  O   F  
   2   4   2
Cartesian
  1.8602621684809999 -4.9125372116349997  3.2724792125600000
  2.6687744706930001  1.1189898173129997  0.5657948943600000
  1.4206842090789999 -0.9604789186530005  3.9137623079099999
  2.3381395221680004 -0.6668852727120003  0.0550476719850000
  3.8952523766570004  0.5405629423089997  2.0869572196099995
  4.1468378360309996 -1.5257276304850005  4.0050222139349998
  3.2428892931630005 -3.9743428126170008  1.9145566073849998
  5.1019764627700006 -1.9003994962140007  1.3802237109349997
