Cr Si Ru
 1.0000000000000000
     0.0000000000000000    2.9435220000000002    2.9435220000000002
     2.9435220000000002    0.0000000000000000    2.9435220000000002
     2.9435220000000002    2.9435220000000002    0.0000000000000000
 Cr  Si  Ru 
   1   1   2
Cartesian
  2.9435220000000002  2.9435220000000002  2.9435220000000002
  0.0000000000000000  0.0000000000000000  0.0000000000000000
  1.4717610000000001  1.4717610000000001  1.4717610000000001
  4.4152830000000005  4.4152830000000005  4.4152830000000005
