Be V  Os
 1.0000000000000000
     0.0000000000000000    2.9215529999999998    2.9215529999999998
     2.9215529999999998    0.0000000000000000    2.9215529999999998
     2.9215529999999998    2.9215529999999998    0.0000000000000000
 Be  V   Os 
   1   1   2
Cartesian
  1.4607764999999999  1.4607764999999999  1.4607764999999999
  4.3823295000000000  4.3823295000000000  4.3823295000000000
  0.0000000000000000  0.0000000000000000  0.0000000000000000
  2.9215529999999998  2.9215529999999998  2.9215529999999998
