Sc Al Si
 1.0000000000000000
     6.6021510000000001    0.0000000000000000    0.0000000000000000
     0.0000000000000000    6.6021510000000001    0.0000000000000000
     0.0000000000000000    0.0000000000000000    4.0094690000000002
 Sc  Al  Si 
   4   2   4
Cartesian
  4.4616280113840006  5.4415984886160000  2.0047345000000001
  2.1405229886160000  1.1605525113840001  2.0047345000000001
  1.1605525113840001  4.4616280113840006  2.0047345000000001
  5.4415984886160000  2.1405229886160000  2.0047345000000001
  0.0000000000000000  0.0000000000000000  0.0000000000000000
  3.3010755000000001  3.3010755000000001  0.0000000000000000
  5.7680880598680000  4.1351384401319997  0.0000000000000000
  0.8340629401320000  2.4670125598679999  0.0000000000000000
  2.4670125598679999  5.7680880598680000  0.0000000000000000
  4.1351384401319997  0.8340629401320000  0.0000000000000000
