Zn Pt F 
 1.0000000000000000
     4.4074689999999999    0.0043770000000000    3.1333609999999998
     1.6142330000000000    4.0985170000000002    3.1369020000000001
     0.0039140000000000   -0.0020050000000000    5.4077460000000004
 Zn  Pt  F  
   1   1   6
Cartesian
  3.0128079999999997  2.0504445000000002  5.8390044999999997
  0.0000000000000000  0.0000000000000000  0.0000000000000000
  1.9071296639319999  0.3768057048590001  5.6305841186779997
  1.6286282313850000  3.1025045674569998  4.8171199561400000
  2.0453760082610000  2.4649922861670004  7.5592536507490005
  4.3969877686150003  0.9983844325430000  6.8608890438600003
  4.1184863360680000  3.7240832951410003  6.0474248813220006
  3.9802399917389994  1.6358967138330001  4.1187553492509998
