Ca Mg As
 1.0000000000000000
     4.3543459999999996   -0.0000000000000000    0.0000000000000000
    -2.1771739999999999    3.7709750000000000    0.0000000000000000
     0.0000000000000000    0.0000000000000000    7.1139570000000001
 Ca  Mg  As 
   1   2   2
Cartesian
  0.0000000000000000  0.0000000000000000  0.0000000000000000
  2.1771748438400000  1.2569904096750000  2.5967934957960002
 -0.0000028438400002  2.5139845903250002  4.5171635042039995
 -0.0000028438400002  2.5139845903250002  1.7854538139030001
  2.1771748438400000  1.2569904096750000  5.3285031860970005
