Th Ni
 1.0000000000000000
     4.9003110000000003    0.0000270000000000    0.0000000000000000
    -2.4501309999999998    4.2437410000000000    0.0000000000000000
     0.0000000000000000    0.0000000000000000    3.9524789999999999
 Th  Ni 
   1   5
Cartesian
  0.0000000000000000  0.0000000000000000  0.0000000000000000
  0.0000383847410002  2.8291710813730000  0.0000000000000000
  2.4501416152590001  1.4145969186270000  0.0000000000000000
  2.4501555000000002  0.0000135000000000  1.9762394999999999
  1.2250900000000002  2.1218840000000001  1.9762394999999999
 -1.2250654999999999  2.1218705000000000  1.9762394999999999
