Ce O 
 1.0000000000000000
     3.0412149999999998    0.0000000000000000    1.7558460000000000
     1.0137389999999999    2.8672840000000002    1.7558460000000000
     0.0000000000000000    0.0000000000000000    3.5116920000000000
 Ce  O  
   1   1
Cartesian
  0.0000000000000000  0.0000000000000000  0.0000000000000000
  2.0274769999999998  1.4336420000000001  3.5116920000000000
