Zr Ni
 1.0000000000000000
     4.5445909999999996    0.0000000000000000    2.6082570000000000
     2.2722980000000002    4.5756860000000001    1.3041280000000000
    -0.0053470000000000    0.0000000000000000    5.2726610000000003
 Zr  Ni 
   4   2
Cartesian
  1.8824098908089999  2.2878430000000001  1.9834774613330000
  3.4057650051559998  3.7924063434620003  4.5925189232060006
  3.4057769948439995  0.7832796565380000  4.5925270767940001
  4.9291321091910003  2.2878430000000001  7.2015685386670008
  1.1361477499999999  0.0000000000000000  0.6520642500000000
  3.4084432499999995  0.0000000000000000  1.9561927500000000
