Tl Cu Se
 1.0000000000000000
     3.7156220000000002    0.0000000000000000   -0.9838580000000000
    -0.2605140000000000    3.7064780000000002   -0.9838580000000000
     0.0392530000000000    0.0421090000000000    7.6563509999999999
 Tl  Cu  Se 
   1   2   2
Cartesian
  0.0000000000000000  0.0000000000000000  0.0000000000000000
  0.7531465000000001  2.8009130000000000  2.8443174999999998
  2.7412145000000003  0.9476740000000000  2.8443174999999998
  2.2356135265590003  2.3982615222930002  0.9348783984450001
  1.2587474734410000  1.3503254777070002  4.7537566015549997
