Rb Lu Se
 1.0000000000000000
     8.0133410000000005   -2.0681300000000000    0.0006790000000000
     8.0133410000000005    2.0681300000000000    0.0006790000000000
     7.4792850000000000    0.0000000000000000    3.5427499999999998
 Rb  Lu  Se 
   1   1   2
Cartesian
  0.0000000000000000  0.0000000000000000  0.0000000000000000
 11.7529835000000009  0.0000000000000000  1.7720540000000000
  5.4178903338300000 -0.0000000000000000  0.8168814529199999
 18.0880766661700001 -0.0000000000000000  2.7272265470799999
