Fe Ni
 1.0000000000000000
     3.5103330000000001    0.0000000000000000    0.0000000000000000
     0.0000000000000000    3.5104639999999998    0.0000000000000000
     0.0000000000000000    0.0000000000000000    3.5104540000000002
 Fe  Ni 
   1   3
Cartesian
  0.0000000000000000  0.0000000000000000  0.0000000000000000
  0.0000000000000000  1.7552319999999999  1.7552270000000001
  1.7551665000000001  1.7552319999999999  0.0000000000000000
  1.7551665000000001  0.0000000000000000  1.7552270000000001
