Ag C  O 
 1.0000000000000000
     3.1675100000000000   -0.0604590000000000    0.0000000000000000
    -0.2451530000000000    4.9090829999999999    0.0000000000000000
     0.0000000000000000    0.0000000000000000    9.6584400000000006
 Ag  C   O  
   4   2   6
Cartesian
  0.7094161537890000  0.9709054519229999  4.1432486158800002
  2.2129408462110001  3.8777185480770000  8.9724686158800004
  2.2129408462110001  3.8777185480770000  5.5151913841199995
  0.7094161537890000  0.9709054519229999  0.6859713841200000
  2.3876445766519998  3.4550230895129999  2.4146100000000001
  0.5347124233480001  1.3936009104870000  7.2438300000000009
  0.7920077969420000  1.9844375810340000  8.3588389473600007
  2.1303492030580000  2.8641864189659998  3.5296189473599999
  2.9110501312450001  4.6457239372799997  2.4146100000000001
  0.0113068687550000  0.2029000627200000  7.2438300000000009
  0.7920077969420000  1.9844375810340000  6.1288210526400002
  2.1303492030580000  2.8641864189659998  1.2996010526400001
