Nb Zn Co
 1.0000000000000000
    -0.0000040000000000    2.9512130000000001    2.9512100000000001
     2.9512130000000001   -0.0000050000000000    2.9512100000000001
     2.9512139999999998    2.9512130000000001   -0.0000040000000000
 Nb  Zn  Co 
   1   1   2
Cartesian
  1.4756057499999999  1.4756052500000001  1.4756040000000001
  4.4268172500000000  4.4268157500000003  4.4268120000000000
  2.9512055975730003  2.9512075487920004  2.9512050487940003
  5.9024229999999998  5.9024210000000004  5.9024160000000006
