Th Sb Rh
 1.0000000000000000
     4.1073069999999996    0.0000000000000000    2.3713540000000002
     1.3691020000000000    3.8724059999999998    2.3713540000000002
    -0.0000000000000000   -0.0000000000000000    4.7427109999999999
 Th  Sb  Rh 
   1   1   1
Cartesian
  0.0000000000000000  0.0000000000000000  0.0000000000000000
  2.7382044999999997  1.9362029999999999  4.7427095000000001
  1.3691022499999999  0.9681014999999999  2.3713547500000001
