Tl Te Pt
 1.0000000000000000
     7.9764889999999999    0.0000000000000000    0.0000000000000000
    -3.9882439999999999    6.9078419999999996    0.0000000000000000
     0.0000000000000000    0.0000000000000000    6.0487010000000003
 Tl  Te  Pt 
   2   6   4
Cartesian
  3.9882486549110001  2.3026116973859998  4.1845094979030000
 -0.0000036549110000  4.6052303026140002  1.8641915020970001
  5.9478206609180004  1.1712522424680001  1.3430959109470000
  3.9882448304460003  4.5653375150639999  1.3430959109470000
  2.0286685086360001  1.1712522424680001  1.3430959109470000
  1.9595764913640001  5.7365897575320002  4.7056050890529999
 -1.9595756609180000  5.7365897575320002  4.7056050890529999
  0.0000001695540001  2.3425044849360002  4.7056050890529999
  0.0000000000000000  0.0000000000000000  0.0000000000000000
 -1.9941220000000000  3.4539209999999998  0.0000000000000000
  3.9882445000000000  0.0000000000000000  0.0000000000000000
  1.9941225000000000  3.4539209999999998  0.0000000000000000
