Zr Os Ru
 1.0000000000000000
     0.0000080000000000    3.2693550000000000    3.2693560000000002
     3.2693639999999999    0.0000060000000000    3.2693580000000000
     3.2693699999999999    3.2693629999999998    0.0000000000000000
 Zr  Os  Ru 
   2   1   1
Cartesian
  0.0000000000080000  0.0000032693550000  0.0000032693560000
  3.2693709999999996  3.2693620000000001  3.2693570000000003
  1.6346854999999998  1.6346810000000001  1.6346785000000001
  4.9040565000000003  4.9040429999999997  4.9040355000000000
