Hf Ta Re
 1.0000000000000000
     0.0000000000000000    3.2238180000000001    3.2238180000000001
     3.2238180000000001    0.0000000000000000    3.2238180000000001
     3.2238180000000001    3.2238180000000001    0.0000000000000000
 Hf  Ta  Re 
   1   1   2
Cartesian
  1.6119090000000000  1.6119090000000000  1.6119090000000000
  4.8357270000000003  4.8357270000000003  4.8357270000000003
  0.0000000000000000  0.0000000000000000  0.0000000000000000
  3.2238180000000001  3.2238180000000001  3.2238180000000001
