Li Pr Ge
 1.0000000000000000
     7.3536900000000003    0.0000000000000000    0.0000000000000000
    -3.6768440000000000    6.3684830000000003    0.0000000000000000
     0.0000000000000000    0.0000000000000000    4.3975619999999997
 Li  Pr  Ge 
   3   3   3
Cartesian
  2.8225198013620001  4.8887468695010003  2.1987809999999999
  1.7086519325700000  0.0000000000000000  2.1987809999999999
 -0.8543257339320001  1.4797361304990002  2.1987809999999999
 -2.1408644800639998  3.7080874376480000  0.0000000000000000
  1.5359803554240001  2.6603955623520004  0.0000000000000000
  4.2817301246400001  0.0000000000000000  0.0000000000000000
 -0.0000030101780001  4.2456574561610001  2.1987809999999999
  3.6768490101780000  2.1228255438390002  2.1987809999999999
  0.0000000000000000  0.0000000000000000  0.0000000000000000
