Mn Au
 1.0000000000000000
     6.5839179999999997    0.0000000000000000    0.0000000000000000
     0.0000000000000000    6.5839179999999997    0.0000000000000000
     0.0000000000000000    0.0000000000000000    4.0349269999999997
 Mn  Au 
   2   8
Cartesian
  0.0000000000000000  0.0000000000000000  0.0000000000000000
  3.2919589999999999  3.2919589999999999  2.0174634999999999
  4.6426892812079998  0.6675631977740000  2.0174634999999999
  0.6675631977740000  1.9412287187919999  2.0174634999999999
  5.9163548022260004  4.6426892812079998  2.0174634999999999
  1.9412287187919999  5.9163548022260004  2.0174634999999999
  1.3507302812080000  3.9595221977739996  0.0000000000000000
  3.9595221977739996  5.2331877187920002  0.0000000000000000
  2.6243958022259997  1.3507302812080000  0.0000000000000000
  5.2331877187920002  2.6243958022259997  0.0000000000000000
