Cd O 
 1.0000000000000000
     2.8916140000000001    0.0000000000000000    1.6694750000000000
     0.9638710000000000    2.7262390000000001    1.6694750000000000
     0.0000000000000000    0.0000000000000000    3.3389479999999998
 Cd  O  
   1   1
Cartesian
  0.0000000000000000  0.0000000000000000  0.0000000000000000
  1.9277425000000001  1.3631195000000000  3.3389489999999999
