Ti Cd
 1.0000000000000000
     2.8661300000000001    0.0000000000000000    0.0000000000000000
     0.0000000000000000    2.8661300000000001    0.0000000000000000
     0.0000000000000000    0.0000000000000000   13.5514390000000002
 Ti  Cd 
   4   2
Cartesian
  1.4330650000000000  1.4330650000000000  2.4123187592680000
  1.4330650000000000  1.4330650000000000 11.1391202407320016
  0.0000000000000000  0.0000000000000000  9.1880382592679997
  0.0000000000000000  0.0000000000000000  4.3634007407319997
  0.0000000000000000  0.0000000000000000  0.0000000000000000
  1.4330650000000000  1.4330650000000000  6.7757195000000001
