Nd Si
 1.0000000000000000
     4.1508950000000002    0.0000000000000000   -1.2046010000000000
    -0.3495770000000000    4.1361489999999996   -1.2046010000000000
    -0.1139130000000000   -0.1239470000000000    7.3614930000000003
 Nd  Si 
   2   4
Cartesian
  3.3850692500000004  2.5541063749999999  0.0334717500000001
  0.3023357500000000  1.4580956249999999  4.9188192500000003
  2.5122733356159999  3.8626908187399995  4.7799516276320002
  1.7936888356160001  0.8225525687400000  2.3038061276320003
  1.8937161643840004  3.1896494312599999  2.6484848723679999
  1.1751316643840000  0.1495111812600000  0.1723393723680001
