Zr Nb Tc
 1.0000000000000000
     0.0000000000000000    3.2268659999999998    3.2268659999999998
     3.2268659999999998    0.0000000000000000    3.2268659999999998
     3.2268659999999998    3.2268659999999998    0.0000000000000000
 Zr  Nb  Tc 
   1   1   2
Cartesian
  4.8402989999999999  4.8402989999999999  4.8402989999999999
  1.6134394537319998  1.6134394537319998  1.6134394537319998
  0.0000000000000000  0.0000000000000000  0.0000000000000000
  3.2268659999999998  3.2268659999999998  3.2268659999999998
