Ta I  Cl
 1.0000000000000000
     7.0146280000000001   -0.0439590000000000   -2.9411939999999999
    -4.4865050000000002    6.0844290000000001   -0.8417550000000000
    -0.0341430000000000    0.0439590000000000    7.6062130000000003
 Ta  I   Cl 
   2   4   4
Cartesian
  0.7382346691070000  1.7638716042300002 -1.1046551545410002
  1.7898883308929996  4.2765983957700007 -2.6782938454590002
 -3.6747940733680005  4.9817114497080004  5.4987670280780003
 -0.8458539266320000  1.1466765502920000  1.2656909719220000
  2.2362825545200002  1.6999229053800000  4.2088686823300003
  0.2576974454799999  4.3845060946200007 -0.3856046823299997
  2.6044025038970000  1.6321228691009999  0.2618469694450002
  5.7422770674390007  1.6321229130600001  2.3588785815570001
 -3.2482970674389997  4.4523060869399993  1.4643854184430003
 -0.1104225038969999  4.4523061308990002  3.5614170305550004
