Li B  C 
 1.0000000000000000
     2.7378279999999999    0.0000000000000000    0.0000000000000000
    -1.3689150000000001    2.3710290000000001    0.0000000000000000
     0.0000000000000000    0.0000000000000000    6.9739969999999998
 Li  B   C  
   2   2   2
Cartesian
  0.0000000000000000  0.0000000000000000  0.0000000000000000
  0.0000000000000000  0.0000000000000000  3.4869984999999999
 -0.0000020355810001  1.5806867903430000  1.7434992499999999
  1.3689150355810000  0.7903422096570000  5.2304977499999996
 -0.0000020355810001  1.5806867903430000  5.2304977499999996
  1.3689150355810000  0.7903422096570000  1.7434992499999999
