Ti Co Si
 1.0000000000000000
     6.0254070000000004    0.0000000000000000    0.0000000000000000
    -3.0127039999999998    5.2181559999999996    0.0000000000000000
     0.0000000000000000    0.0000000000000000    3.7179440000000001
 Ti  Co  Si 
   3   3   3
Cartesian
  1.7022736014960000  2.9484251209919998  1.8589720000000001
  2.6208592319760005  0.0000000000000000  1.8589720000000001
 -1.3104298334719999  2.2697308790079997  1.8589720000000001
  4.5618717921420000  0.0000000000000000  0.0000000000000000
  0.7317674824820002  1.2674587834639999  0.0000000000000000
 -2.2809362746239996  3.9506972165359993  0.0000000000000000
  3.0127063460370005  1.7393835939479998  0.0000000000000000
 -0.0000033460369996  3.4787724060519998  0.0000000000000000
  0.0000000000000000  0.0000000000000000  1.8589720000000001
