Li Ge
 1.0000000000000000
     8.6499279999999992    0.0000000000000000   -3.0582099999999999
    -4.3249630000000003    7.4910560000000004   -3.0582099999999999
     0.0000000000000000    0.0000000000000000    9.1746330000000000
 Li  Ge 
  30   8
Cartesian
  5.6199841158809996  3.5232309131999999 -2.6746977525540001
 -3.6987169481760005  6.8509602469120008  3.4417146618380001
 -0.5645280908680004  6.0686842509440000  3.1319333842880006
  1.9675220481319990  5.8079955021440002  1.1189916207139996
  4.1744558382479990  4.3856237530879998  1.4820012367390003
  2.4036988322949990  4.6079208398880001  3.4417149181820004
  0.4738091163299997  4.9456101533119998  5.7063047171349996
 -0.1505083326480002  3.1054322469120001  3.0111059803950004
 -0.5406198750000004  4.6819100000000002  0.7645536250000000
  2.1624822499999996  1.8727640000000001  3.8227643750000002
 -2.1624812500000004  5.6182920000000003  5.3518701249999996
  7.0280666249999992  0.9363820000000000  3.8227647500000002
  3.7843438749999998  2.8091460000000001 -0.7645517499999999
  2.7031033749999991  6.5546740000000003 -3.8227621249999997
  0.6262462227200000  0.6400957530880000  1.9126084181820002
  4.9271207776679988  5.1678997490560006 -4.6344205196050003
 -2.4413245190950006  6.6286631601120005  1.1189882171350001
  3.3754096640739992  1.2000821533120001  6.1901377484710007
  4.7987814458539999  2.5454458466880001  4.1772053529519999
  3.8733173840839989  5.4285884978560004 -1.5762187638660001
  5.8390344519029993  0.2222970868000000  6.1901408957060005
  6.2924768475559993  1.6830604978560000 -0.4101111470479998
  3.7604439388119997  1.4223717490559999  1.6028243957060000
  1.5140800424809988  7.2687589132000001 -1.4553887515289992
  0.6021563979159996  2.3231562509440002  6.0693077361340002
  1.2950201752309993  3.9678250868000005 -1.1456018381620001
  6.7286626020489999  2.8831351601120003  1.9126187474460001
  1.8836300612229999  0.8623928398880001 -0.4101148792860001
 -0.4516470652680002  2.0624675021440000 -0.0471052632610000
 -0.9495450064020006  6.2909738466880007 -1.4553831157120001
  3.9570791521349986  6.8538592855839999  2.7980783440070001
 -1.4267099743920002  3.7455280000000002 -1.7892394008099999
  4.3249639999999996  0.0000000000000000 -0.7487015423869999
 -0.3678856777430000  0.6371967144160000  4.3271820991899999
  4.3249639999999996  0.0000000000000000  3.8386149576130006
 -2.5303671777430004  4.3827247144160006  2.7980770991899999
  2.8982540256079998  3.7455280000000002 -3.3183444008100000
  1.7945966521349994  3.1083312855840002  1.2689718440070001
