Sc As
 1.0000000000000000
     3.3571819999999999   -0.0000000000000000    1.9382699999999999
     1.1190599999999999    3.1651820000000002    1.9382699999999999
     0.0000000000000000    0.0000000000000000    3.8765390000000002
 Sc  As 
   1   1
Cartesian
  0.0000000000000000  0.0000000000000000  0.0000000000000000
  2.2381210000000000  1.5825910000000001  3.8765394999999998
