Ba Li P 
 1.0000000000000000
     4.5236169999999998   -0.0000000000000000    0.0000000000000000
    -2.2618090000000000    3.9175680000000002    0.0000000000000000
     0.0000000000000000    0.0000000000000000    8.7523839999999993
 Ba  Li  P  
   2   2   2
Cartesian
  0.0000000000000000  0.0000000000000000  0.0000000000000000
  0.0000000000000000  0.0000000000000000  4.3761919999999996
 -0.0000025951420002  2.6117133058560000  2.1880959999999998
  2.2618105951419998  1.3058546941439999  6.5642879999999995
 -0.0000025951420002  2.6117133058560000  6.5642879999999995
  2.2618105951419998  1.3058546941439999  2.1880959999999998
