Hf Ni P 
 1.0000000000000000
     3.5664889999999998    0.0000000000000000    0.0000000000000000
     0.0000000000000000    4.7993850000000000   -1.8617910000000000
     0.0000000000000000    0.0087520000000000    7.4747990000000000
 Hf  Ni  P  
   4   2   2
Cartesian
  2.6748667499999996  0.9973582024839999  2.8182709338500000
  0.8916222499999999  3.8107787975159999  2.7947370661499997
  0.8916222499999999  3.7855146202300003 -0.9110255562190002
  2.6748667499999996  1.0226223797700000  6.5240335562189999
  2.6748667499999996  3.1095879830439999  0.9829387252730000
  0.8916222499999999  1.6985490169559998  4.6300692747270000
  0.8916222499999999  1.6793819381260000  0.9153456814880000
  2.6748667499999996  3.1287550618740001  4.6976623185120001
