Zr Sc Os
 1.0000000000000000
     0.0000010000000000    3.2395870000000002    3.2395870000000002
     3.2395870000000002    0.0000010000000000    3.2395870000000002
     3.2395870000000002    3.2395870000000002    0.0000010000000000
 Zr  Sc  Os 
   1   1   2
Cartesian
  4.8593747708250001  4.8593747708250001  4.8593747708250001
  1.6197937500000001  1.6197937500000001  1.6197937500000001
  0.0000000000000000  0.0000000000000000  0.0000000000000000
  3.2395939791750004  3.2395939791750004  3.2395939791750004
