Sm Ag Au
 1.0000000000000000
     0.0000000000000000    3.4796600000000000    3.4796600000000000
     3.4796600000000000    0.0000000000000000    3.4796600000000000
     3.4796600000000000    3.4796600000000000    0.0000000000000000
 Sm  Ag  Au 
   1   1   2
Cartesian
  5.2194969593199998  5.2194969593199998  5.2194969593199998
  1.7398369593199998  1.7398369593199998  1.7398369593199998
  3.4796600000000000  3.4796600000000000  3.4796600000000000
  0.0000000000000000  0.0000000000000000  0.0000000000000000
