Li Mg In
 1.0000000000000000
     4.0652140000000001    0.0000000000000000    2.3470520000000001
     1.3550709999999999    3.8327200000000001    2.3470520000000001
     0.0000000000000000    0.0000000000000000    4.6941040000000003
 Li  Mg  In 
   2   1   1
Cartesian
  4.0652137499999998  2.8745400000000001  7.0411560000000009
  1.3550712499999999  0.9581800000000000  2.3470520000000001
  2.7101424999999999  1.9163600000000001  4.6941040000000003
  0.0000000000000000  0.0000000000000000  0.0000000000000000
