Ta N 
 1.0000000000000000
     5.2084960000000002    0.0000000000000000    0.0000000000000000
    -2.6042470000000000    4.5106890000000002    0.0000000000000000
     0.0000000000000000    0.0000000000000000    2.9147479999999999
 Ta  N  
   3   3
Cartesian
  0.0000000000000000  0.0000000000000000  0.0000000000000000
 -0.0000019375809999  3.0071275035630003  1.4573739999999999
  2.6042509375810003  1.5035614964370001  1.4573739999999999
  2.0437721624320000  0.0000000000000000  0.0000000000000000
  1.5823625263920003  2.7407307219120001  0.0000000000000000
 -1.0218856888240000  1.7699582780880001  0.0000000000000000
