Ga N 
 1.0000000000000000
     4.2691420000000004    0.0000000000000000    0.0000000000000000
     0.0000000000000000    4.2691420000000004    0.0000000000000000
     0.0000000000000000    0.0000000000000000    4.2691420000000004
 Ga  N  
   4   4
Cartesian
  0.0000000000000000  0.0000000000000000  0.0000000000000000
  0.0000000000000000  2.1345710000000002  2.1345710000000002
  2.1345710000000002  0.0000000000000000  2.1345710000000002
  2.1345710000000002  2.1345710000000002  0.0000000000000000
  0.0000000000000000  0.0000000000000000  2.1345710000000002
  0.0000000000000000  2.1345710000000002  0.0000000000000000
  2.1345710000000002  0.0000000000000000  0.0000000000000000
  2.1345710000000002  2.1345710000000002  2.1345710000000002
