Hf Fe Ir
 1.0000000000000000
     0.0000000000000000    3.2140430000000002    3.2140430000000002
     3.2140430000000002    0.0000000000000000    3.2140430000000002
     3.2140430000000002    3.2140430000000002    0.0000000000000000
 Hf  Fe  Ir 
   2   1   1
Cartesian
  0.0000000000000000  0.0000000000000000  0.0000000000000000
  3.2140430000000002  3.2140430000000002  3.2140430000000002
  1.6070150719140002  1.6070150719140002  1.6070150719140002
  4.8210645000000003  4.8210645000000003  4.8210645000000003
