Cs Au O 
 1.0000000000000000
     2.0381420000000001    4.8159330000000002    0.0000000000000000
     0.0000000000000000    0.0000000000000000    6.0655789999999996
     6.7870640000000000   -0.0330940000000000    0.0000000000000000
 Cs  Au  O  
   2   2   4
Cartesian
  3.2263319532820001  1.4738361142230001  4.5491842499999997
  5.5988740467180005  3.3090028857769997  1.5163947499999999
  2.0652929621220002  4.8044453361930000  1.5163947499999999
  6.7599130378779995 -0.0216063361930000  4.5491842499999997
  5.5670554393780005  0.4832148056370000  0.0280411717170000
  3.2581505606220000  4.2996241943630000  3.0608306717170000
  5.5670554393780005  0.4832148056370000  3.0047483282830001
  3.2581505606220000  4.2996241943630000  6.0375378282829990
