Mg Pd
 1.0000000000000000
     3.9732099999999999    0.0000000000000000    0.0000000000000000
     0.0000000000000000    3.9732099999999999    0.0000000000000000
     0.0000000000000000    0.0000000000000000   15.9414429999999996
 Mg  Pd 
   4  12
Cartesian
  0.0000000000000000  0.0000000000000000  1.9687044447279998
  0.0000000000000000  0.0000000000000000 13.9727385552719987
  1.9866050000000000  1.9866050000000000  9.9394259447280007
  1.9866050000000000  1.9866050000000000  6.0020170552719998
  1.9866050000000000  0.0000000000000000  0.0000000000000000
  0.0000000000000000  1.9866050000000000  0.0000000000000000
  1.9866050000000000  0.0000000000000000  3.9853607499999999
  0.0000000000000000  1.9866050000000000  3.9853607499999999
  1.9866050000000000  1.9866050000000000 13.9423541649139988
  1.9866050000000000  1.9866050000000000  1.9990888350860001
  0.0000000000000000  1.9866050000000000  7.9707214999999998
  1.9866050000000000  0.0000000000000000  7.9707214999999998
  0.0000000000000000  1.9866050000000000 11.9560822499999997
  1.9866050000000000  0.0000000000000000 11.9560822499999997
  0.0000000000000000  0.0000000000000000  5.9716326649139999
  0.0000000000000000  0.0000000000000000  9.9698103350860006
