Cu Ge Se
 1.0000000000000000
     3.8149459999999999    0.0000000000000000   -1.1547190000000001
    -0.6739340000000000    5.0238519999999998   -2.2265359999999998
    -0.0293410000000000   -0.0485850000000000    6.7823089999999997
 Cu  Ge  Se 
   2   1   3
Cartesian
  2.7735135659489996  2.8387846236729999  2.2838472048509995
  0.0168135720390000  4.5319454392629996  0.0555543527010002
  1.7276889746880000  1.3402029503360000 -1.1713280556479999
  2.0940020711220000  3.3530493590079997  0.0389059784189998
  1.0166998117859998  1.6294419401680000  3.3589462628130002
 -0.6691996136500000  4.9885594397000004 -2.2108945846000001
