Sm In Pd
 1.0000000000000000
     3.8831500000000001   -6.7258149999999999    0.0000000000000000
     3.8831500000000001    6.7258149999999999    0.0000000000000000
     0.0000000000000000    0.0000000000000000    3.8948809999999998
 Sm  In  Pd 
   3   3   3
Cartesian
  2.2929690098000002 -3.9715399509800000  1.9474404999999999
  2.2929690098000002  3.9715399509800000  1.9474404999999999
  3.1803619803999998 -0.0000000000000000  1.9474404999999999
  0.9963968742500001 -1.7258104999250001  0.0000000000000000
  0.9963968742500001  1.7258104999250001  0.0000000000000000
  5.7735062514999997  0.0000000000000000  0.0000000000000000
  0.0000000000000000  0.0000000000000000  1.9474404999999999
  3.8831500000000001  2.2419428172100000  0.0000000000000000
  3.8831500000000001 -2.2419428172100000  0.0000000000000000
