Ba Al Fe
 1.0000000000000000
     7.9412609999999999    0.0000020000000000    0.0000000000000000
    -3.9706290000000002    6.8773309999999999    0.0000000000000000
     0.0000000000000000    0.0000000000000000    3.9504869999999999
 Ba  Al  Fe 
   1   9   2
Cartesian
  0.0000000000000000  0.0000000000000000  0.0000000000000000
  3.9706305000000000  0.0000010000000000  0.0000000000000000
  1.9853159999999999  3.4386665000000001  0.0000000000000000
 -1.9853145000000001  3.4386654999999999  0.0000000000000000
  0.0000046256670001  3.0032689884129997  1.9752434999999999
  5.3403474660599999  1.5016392778340000  1.9752434999999999
  2.6009062477170000  1.5016385879080001  1.9752434999999999
  1.3697257522830000  5.3756944120919998  1.9752434999999999
 -1.3697154660599997  5.3756937221659999  1.9752434999999999
  3.9706273743330001  3.8740640115869995  1.9752434999999999
  3.9706349706300004  2.2924427075570000  0.0000000000000000
 -0.0000029706300005  4.5848902924430002  0.0000000000000000
