Ca Si
 1.0000000000000000
     4.2874359999999996    0.0000000000000000    0.0000000000000000
     0.0000000000000000    4.2874359999999996    0.0000000000000000
     0.0000000000000000    0.0000000000000000   13.5294430000000006
 Ca  Si 
   4   8
Cartesian
  0.0000000000000000  3.2155769999999997  8.4559018750000003
  2.1437179999999998  3.2155769999999997 11.8382626250000005
  2.1437179999999998  1.0718589999999999  1.6911803750000001
  0.0000000000000000  1.0718589999999999  5.0735411250000002
  2.1437179999999998  1.0718589999999999  9.6085968891570008
  0.0000000000000000  1.0718589999999999 12.9909576391570010
  2.1437179999999998  1.0718589999999999  7.3032068608429999
  0.0000000000000000  1.0718589999999999 10.6855676108430000
  0.0000000000000000  3.2155769999999997  2.8438753891570001
  2.1437179999999998  3.2155769999999997  6.2262361391570007
  0.0000000000000000  3.2155769999999997  0.5384853608430000
  2.1437179999999998  3.2155769999999997  3.9208461108429997
