Eu Ga
 1.0000000000000000
     4.2696730000000001   -0.0000000000000000    0.0000000000000000
    -2.1348349999999998    3.6976429999999998    0.0000000000000000
     0.0000000000000000    0.0000000000000000    4.5533390000000002
 Eu  Ga 
   1   2
Cartesian
  0.0000000000000000  0.0000000000000000  0.0000000000000000
  2.1348391348360001  1.2325464341190000  2.2766695000000001
 -0.0000011348360000  2.4650965658809998  2.2766695000000001
