Ti Rh
 1.0000000000000000
     4.1304259999999999    0.0000000000000000    0.0000000000000000
     0.0000000000000000    5.4262040000000002    0.0000000000000000
     0.0000000000000000    0.0000000000000000   10.5314990000000002
 Ti  Rh 
   6  10
Cartesian
  0.0000000000000000  0.0000000000000000  0.0000000000000000
  0.0000000000000000  2.7131020000000001  5.2657495000000001
  2.0652130000000000  1.8423373393040001  1.5135343787850002
  2.0652130000000000  3.5838666606960001  9.0179646212150004
  2.0652130000000000  4.5554393393039998  3.7522151212150003
  2.0652130000000000  0.8707646606960001  6.7792838787850007
  0.0000000000000000  0.0000000000000000  5.2657495000000001
  0.0000000000000000  2.7131020000000001  0.0000000000000000
  0.0000000000000000  0.5600602196560001  2.4842437046130001
  0.0000000000000000  4.8661437803440002  8.0472552953870000
  0.0000000000000000  3.2731622196560002  2.7815057953869999
  0.0000000000000000  2.1530417803440001  7.7499932046129993
  2.0652130000000000  1.6997041409600002  4.1385842250279996
  2.0652130000000000  3.7264998590400005  6.3929147749720006
  2.0652130000000000  4.4128061409599999  1.1271652749720000
  2.0652130000000000  1.0133978590400001  9.4043337250279997
