Tm Ga
 1.0000000000000000
     3.8734459999999999   -0.0000000000000000    1.5329120000000001
     1.6230760000000000    5.2381289999999998    1.5589940000000000
    -0.0161530000000000    0.0131020000000000    5.7010870000000002
 Tm  Ga 
   2   4
Cartesian
  4.1368304526030002  1.6333376390090000  3.6975129185910003
  1.3435385473970001  3.6178933609910002  5.0954800814090007
  1.4809465339390000  0.5802604176780000  4.7482770486610004
  3.9994224660610000  4.6709705823220000  4.0447159513390005
  3.0113755470820003  1.5215803330449997  6.5413666491820006
  2.4689934529180002  3.7296506669550000  2.2516263508179999
