Nd Ge Ru
 1.0000000000000000
     4.3101419999999999    0.0000000000000000    0.0000000000000000
     0.0000000000000000    4.3101419999999999    0.0000000000000000
     0.0000000000000000    0.0000000000000000    6.8507850000000001
 Nd  Ge  Ru 
   2   2   2
Cartesian
  3.2326065000000002  3.2326065000000002  2.1312655119300001
  1.0775355000000000  1.0775355000000000  4.7195194880700004
  3.2326065000000002  3.2326065000000002  5.5457789653499994
  1.0775355000000000  1.0775355000000000  1.3050060346499999
  3.2326065000000002  1.0775355000000000  0.0000000000000000
  1.0775355000000000  3.2326065000000002  0.0000000000000000
