Ca Sn Rh
 1.0000000000000000
     0.0000000000000000    3.2744330000000001    3.2744330000000001
     3.2744330000000001    0.0000000000000000    3.2744330000000001
     3.2744330000000001    3.2744330000000001    0.0000000000000000
 Ca  Sn  Rh 
   1   1   2
Cartesian
  1.6372165000000001  1.6372165000000001  1.6372165000000001
  4.9116560488660008  4.9116560488660008  4.9116560488660008
  0.0000000000000000  0.0000000000000000  0.0000000000000000
  3.2744395488660003  3.2744395488660003  3.2744395488660003
