Li Sn Rh
 1.0000000000000000
     0.0000000000000000    3.0751360000000001    3.0751360000000001
     3.0751360000000001    0.0000000000000000    3.0751360000000001
     3.0751360000000001    3.0751360000000001    0.0000000000000000
 Li  Sn  Rh 
   1   1   2
Cartesian
  1.5375680000000000  1.5375680000000000  1.5375680000000000
  4.6127039999999999  4.6127039999999999  4.6127039999999999
  0.0000000000000000  0.0000000000000000  0.0000000000000000
  3.0751360000000001  3.0751360000000001  3.0751360000000001
