Mg Si
 1.0000000000000000
     7.1726130000000001    0.0000000000000000    0.0000000000000000
    -3.5863070000000001    6.2116660000000001    0.0000000000000000
     0.0000000000000000    0.0000000000000000   12.3142359999999993
 Mg  Si 
  18  10
Cartesian
  1.8295897844930000  4.2183051106039997  7.1794581869559995
  4.4342489252400004  3.6936243185820001  1.0223401869559998
  4.5679538592529996  0.5246807920220000  1.0223401869559998
 -0.9816478592529998  5.6869852079780001  7.1794581869559995
 -0.8479429252400000  2.5180416814180000  7.1794581869559995
  1.7567162155069995  1.9933608893960002  1.0223401869559998
  1.7567162155069995  1.9933608893960002  5.1347778130439998
 -0.8479429252400000  2.5180416814180000 11.2918958130439986
 -0.9816478592529998  5.6869852079780001 11.2918958130439986
  4.5679538592529996  0.5246807920220000  5.1347778130439998
  4.4342489252400004  3.6936243185820001  5.1347778130439998
  1.8295897844930000  4.2183051106039997 11.2918958130439986
  2.0828081042520008  4.5076010312219994  3.0785589999999998
  4.3103204885309996  4.0575658295220007  9.2356769999999990
  4.9451006157209996  0.4500352017000000  9.2356769999999990
 -1.3587946157210000  5.7616307982999997  3.0785589999999998
 -0.7240144885310001  2.1541001704780003  3.0785589999999998
  1.5034978957480001  1.7040649687780001  9.2356769999999990
  0.0000000000000000  0.0000000000000000  4.9115945997799999
  0.0000000000000000  0.0000000000000000 11.0687125997799996
  0.0000000000000000  0.0000000000000000  7.4026414002200003
  0.0000000000000000  0.0000000000000000  1.2455234002200000
  3.5863099196400001  2.0705532627780001  3.0785589999999998
 -0.0000039196400002  4.1411127372220005  9.2356769999999990
 -0.0000039196400002  4.1411127372220005  1.0819903461400000
  3.5863099196400001  2.0705532627780001  7.2391083461399992
  3.5863099196400001  2.0705532627780001 11.2322456538599997
 -0.0000039196400002  4.1411127372220005  5.0751276538599992
