Hf Al
 1.0000000000000000
     4.0009610000000002    0.0000000000000000    0.0000000000000000
     0.0000000000000000    4.0009610000000002    0.0000000000000000
     0.0000000000000000    0.0000000000000000   17.1970360000000007
 Hf  Al 
   4  12
Cartesian
  0.0000000000000000  0.0000000000000000  2.0551145901440000
  0.0000000000000000  0.0000000000000000 15.1419214098559998
  2.0004805000000001  2.0004805000000001 10.6536325901440012
  2.0004805000000001  2.0004805000000001  6.5434034098560003
  2.0004805000000001  2.0004805000000001 15.0490058243480007
  0.0000000000000000  2.0004805000000001  0.0000000000000000
  2.0004805000000001  2.0004805000000001  2.1480301756519999
  2.0004805000000001  0.0000000000000000 12.8977770000000014
  0.0000000000000000  2.0004805000000001 12.8977770000000014
  2.0004805000000001  0.0000000000000000  0.0000000000000000
  0.0000000000000000  0.0000000000000000  6.4504878243480004
  2.0004805000000001  0.0000000000000000  8.5985180000000003
  0.0000000000000000  0.0000000000000000 10.7465481756520003
  0.0000000000000000  2.0004805000000001  4.2992590000000002
  2.0004805000000001  0.0000000000000000  4.2992590000000002
  0.0000000000000000  2.0004805000000001  8.5985180000000003
