Zn Pd Se
 1.0000000000000000
     3.9582619999999999    0.0000000000000000    0.0000000000000000
     0.0000000000000000    3.9582619999999999    0.0000000000000000
     0.0000000000000000    0.0000000000000000    7.0095000000000001
 Zn  Pd  Se 
   1   5   1
Cartesian
  1.9791310000000000  1.9791310000000000  0.0000000000000000
  0.0000000000000000  1.9791310000000000  1.9040045040000000
  0.0000000000000000  1.9791310000000000  5.1054954960000005
  1.9791310000000000  0.0000000000000000  1.9040045040000000
  1.9791310000000000  0.0000000000000000  5.1054954960000005
  0.0000000000000000  0.0000000000000000  0.0000000000000000
  0.0000000000000000  0.0000000000000000  3.5047500000000000
