Sc Zn Cu
 1.0000000000000000
     0.0000000000000000    3.0670609999999998    3.0670609999999998
     3.0670609999999998    0.0000000000000000    3.0670609999999998
     3.0670609999999998    3.0670609999999998    0.0000000000000000
 Sc  Zn  Cu 
   1   1   2
Cartesian
  1.5335304999999999  1.5335304999999999  1.5335304999999999
  4.6005915000000002  4.6005915000000002  4.6005915000000002
  3.0670609999999998  3.0670609999999998  3.0670609999999998
  0.0000000000000000  0.0000000000000000  0.0000000000000000
