Rb B  As
 1.0000000000000000
     6.6095230000000003    0.0182200000000000    1.7468260000000000
    -0.2129450000000000    6.6061170000000002    1.7468260000000000
    -0.0116470000000000   -0.0120600000000000    9.6150839999999995
 Rb  B   As 
   6   2   4
Cartesian
  5.5889475209199997  0.9862260040700001  8.9581389999999992
  0.7959834790800000  5.6260509959299991  4.1505969999999994
  1.5221794233679999  2.3004757251550001 10.4724937288859987
  4.1332757183400002  5.0045429217380004  7.4437842711140005
  4.8627515766320002  4.3118012748450010  2.6362422711139999
  2.2516552816600002  1.6077340782620000  5.6649517288859998
  5.1282097242720006  1.4427759283120001  4.1505969999999994
  1.2567212757280000  5.1695010716879999  8.9581389999999992
  5.9120241156650000  2.3122868382239998  5.6126096971420001
  4.2866431412589998  0.6290315665050000  2.6885843028579997
  2.0982878587410001  5.9832454334950000 10.4201516971419998
  0.4729068843350001  4.2999901617759999  7.4961263028579994
