Mo C 
 1.0000000000000000
     4.7568910000000004    0.0000000000000000    0.0000000000000000
     0.0000000000000000    5.2396830000000003    0.0000000000000000
     0.0000000000000000    0.0000000000000000    6.0731529999999996
 Mo  C  
   8   4
Cartesian
  1.1707136871190000  0.4172935938030000  0.7429045138779999
  3.5491591871190002  4.8223894061970007  2.2936719861219999
  1.2077318128810000  3.0371350938030002  2.2936719861219999
  3.5861773128810004  2.2025479061970001  0.7429045138779999
  1.1707136871190000  3.0371350938030002  5.3302484861219996
  3.5491591871190002  2.2025479061970001  3.7794810138780002
  1.2077318128810000  0.4172935938030000  3.7794810138780002
  3.5861773128810004  4.8223894061970007  5.3302484861219996
  2.3784455000000002  3.9297622500000005  0.7472225256609999
  0.0000000000000000  1.3099207500000001  2.2893539743389999
  2.3784455000000002  1.3099207500000001  5.3259304743389997
  0.0000000000000000  3.9297622500000005  3.7837990256609992
