Ga Ir Rh
 1.0000000000000000
    -0.0000190000000000    3.0171130000000002    3.0171130000000002
     3.0171130000000002   -0.0000190000000000    3.0171130000000002
     3.0171130000000002    3.0171130000000002   -0.0000190000000000
 Ga  Ir  Rh 
   2   1   1
Cartesian
  0.0000000000000000  0.0000000000000000  0.0000000000000000
  3.0171095342070005  3.0171095342070005  3.0171095342070005
  1.5085457157930000  1.5085457157930000  1.5085457157930000
  4.5256552499999998  4.5256552499999998  4.5256552499999998
