Al Ru
 1.0000000000000000
     4.7402350000000002    0.0000000000000000    0.0000000000000000
     0.0000000000000000    8.8410259999999994    0.0000000000000000
     0.0000000000000000    0.0000000000000000    8.0584600000000002
 Al  Ru 
  16   8
Cartesian
  4.1477056250000004  7.7358977499999995  1.6444657568200001
  1.7775881250000001  7.7358977499999995  0.3701492431800000
  0.5925293750000000  1.1051282499999999  6.4139942431800003
  2.9626468749999999  1.1051282499999999  7.6883107568200000
  4.1477056250000004  3.3153847499999998  5.6736957568199999
  1.7775881250000001  3.3153847499999998  4.3993792431800003
  0.5925293750000000  5.5256412499999996  2.3847642431800002
  2.9626468749999999  5.5256412499999996  3.6590807568199999
  1.7775881250000001  7.7358977499999995  5.6736957568199999
  4.1477056250000004  7.7358977499999995  4.3993792431800003
  2.9626468749999999  1.1051282499999999  2.3847642431800002
  0.5925293750000000  1.1051282499999999  3.6590807568199999
  1.7775881250000001  3.3153847499999998  1.6444657568200001
  4.1477056250000004  3.3153847499999998  0.3701492431800000
  2.9626468749999999  5.5256412499999996  6.4139942431800003
  0.5925293750000000  5.5256412499999996  7.6883107568200000
  4.1477056250000004  7.7358977499999995  7.0511525000000006
  0.5925293750000000  1.1051282499999999  1.0073075000000000
  4.1477056250000004  3.3153847499999998  3.0219225000000001
  0.5925293750000000  5.5256412499999996  5.0365374999999997
  1.7775881250000001  7.7358977499999995  3.0219225000000001
  2.9626468749999999  1.1051282499999999  5.0365374999999997
  1.7775881250000001  3.3153847499999998  7.0511525000000006
  2.9626468749999999  5.5256412499999996  1.0073075000000000
