Ti Si Os
 1.0000000000000000
     0.0000000000000000    3.0054889999999999    3.0054889999999999
     3.0054889999999999    0.0000000000000000    3.0054889999999999
     3.0054889999999999    3.0054889999999999    0.0000000000000000
 Ti  Si  Os 
   1   1   2
Cartesian
  4.5082274890219995  4.5082274890219995  4.5082274890219995
  1.5027444999999999  1.5027444999999999  1.5027444999999999
  0.0000000000000000  0.0000000000000000  0.0000000000000000
  3.0054889999999999  3.0054889999999999  3.0054889999999999
