Be Mo
 1.0000000000000000
     7.2188299999999996    0.0000000000000000    0.0000000000000000
     0.0000000000000000    7.2188299999999996    0.0000000000000000
     0.0000000000000000    0.0000000000000000    4.2049760000000003
 Be  Mo 
  24   2
Cartesian
  5.4141224999999995  5.4141224999999995  3.1537320000000002
  5.4141224999999995  1.8047074999999999  3.1537320000000002
  5.4141224999999995  1.8047074999999999  1.0512440000000001
  5.4141224999999995  5.4141224999999995  1.0512440000000001
  0.0000000000000000  4.6859374614100000  0.0000000000000000
  4.6859374614100000  0.0000000000000000  0.0000000000000000
  2.5328925385899996  0.0000000000000000  0.0000000000000000
  0.0000000000000000  2.5328925385899996  0.0000000000000000
  0.0000000000000000  1.5264143846700000  2.1024880000000001
  1.5264143846700000  0.0000000000000000  2.1024880000000001
  5.6924156153299998  0.0000000000000000  2.1024880000000001
  0.0000000000000000  5.6924156153299998  2.1024880000000001
  1.8047074999999999  1.8047074999999999  1.0512440000000001
  1.8047074999999999  5.4141224999999995  1.0512440000000001
  1.8047074999999999  5.4141224999999995  3.1537320000000002
  1.8047074999999999  1.8047074999999999  3.1537320000000002
  3.6094149999999998  1.0765224614100000  2.1024880000000001
  1.0765224614100000  3.6094149999999998  2.1024880000000001
  6.1423075385899999  3.6094149999999998  2.1024880000000001
  3.6094149999999998  6.1423075385899999  2.1024880000000001
  3.6094149999999998  5.1358293846700001  0.0000000000000000
  5.1358293846700001  3.6094149999999998  0.0000000000000000
  2.0830006153300000  3.6094149999999998  0.0000000000000000
  3.6094149999999998  2.0830006153300000  0.0000000000000000
  0.0000000000000000  0.0000000000000000  0.0000000000000000
  3.6094149999999998  3.6094149999999998  2.1024880000000001
