Zn Sn P 
 1.0000000000000000
     5.1554399999999996    0.0000000000000000   -2.3055829999999999
    -1.0310880000000000    5.0512779999999999   -2.3055829999999999
     0.0053570000000000    0.0065610000000000    6.9287250000000000
 Zn  Sn  P  
   2   2   4
Cartesian
  0.5182224999999999  3.7917389999999997  1.1587795000000001
  0.0000000000000000  0.0000000000000000  0.0000000000000000
  3.6114864999999998  1.2661000000000000  1.1587795000000001
  2.0621760000000000  2.5256390000000000 -2.3055829999999999
  1.4377634091200000  1.8958694999999999  0.0522804477909999
 -0.0180238181760000  3.2699506698060001  3.4180700522090000
  3.1193233181759998  0.5283493301940001  3.5166429477910000
  3.7203550908799992  4.4215085000000007 -2.3518754477909996
