Er Mg In
 1.0000000000000000
     0.0000000000000000    3.7061009999999999    3.7061009999999999
     3.7061009999999999    0.0000000000000000    3.7061009999999999
     3.7061009999999999    3.7061009999999999    0.0000000000000000
 Er  Mg  In 
   2   1   1
Cartesian
  0.0000000000000000  0.0000000000000000  0.0000000000000000
  3.7061084122020000  3.7061084122020000  3.7061084122020000
  5.5591514999999996  5.5591514999999996  5.5591514999999996
  1.8530504999999999  1.8530504999999999  1.8530504999999999
