Na Ga H 
 1.0000000000000000
     4.6930589999999999   -0.0775090000000000    0.0000000000000000
    -0.3996560000000000    4.6766529999999999    0.0000000000000000
     0.0000000000000000    0.0000000000000000    7.0488850000000003
 Na  Ga  H  
   2   2   8
Cartesian
  1.4675237860269998  1.5720288114959999  1.7622212500000001
  2.8258792139729998  3.0271151885039997  5.2866637500000007
  3.6147404943870001  3.8721527087759999  1.7622212500000001
  0.6786625056129999  0.7269912912240000  5.2866637500000007
  0.5738038832730000  3.8455300929550003  5.2866637500000007
  3.7195991167269997  0.7536139070450000  1.7622212500000001
  3.7970392266380002  0.8365686673730001  5.2866637500000007
  0.4963637733620000  3.7625753326269997  1.7622212500000001
  2.9627228477920000  3.1737037052160000  3.0243875492150001
  1.3306801522080001  1.4254402947839999  6.5488300492149998
  2.9627228477920000  3.1737037052160000  0.5000549507850001
  1.3306801522080001  1.4254402947839999  4.0244974507850007
