Ca P  Ru
 1.0000000000000000
     3.7793250000000000    0.0000000000000000   -1.4462510000000000
    -0.5534440000000000    3.7385809999999999   -1.4462510000000000
     0.0260400000000000    0.0301800000000000    5.7292149999999999
 Ca  P   Ru 
   1   2   2
Cartesian
  0.0000000000000000  0.0000000000000000  0.0000000000000000
  2.0577958913110002  2.3848486122310000 -0.2837546159769999
  1.1941251086889999  1.3839123877689998  3.1204676159770002
  0.5427682500000000  2.8190257499999998  1.4183565000000000
  2.7091527499999999  0.9497352500000000  1.4183565000000000
