Li V  Rh
 1.0000000000000000
     0.0000060000000000    2.9355549999999999    2.9355519999999999
     2.9355590000000000    0.0000050000000000    2.9355530000000001
     2.9355609999999999    2.9355570000000002    0.0000040000000000
 Li  V   Rh 
   1   1   2
Cartesian
  1.4677815000000001  1.4677792500000000  1.4677772499999999
  4.4033444999999993  4.4033377499999995  4.4033317500000004
  2.9355639355629997  2.9355570000080000  0.0000128066540000
  2.9355659355610002  2.9355614355570001  2.9355545000040002
