Sn S 
 1.0000000000000000
     3.6743060000000001    0.0000000000000000    0.0000000000000000
    -1.8371530000000000    3.1820420000000000    0.0000000000000000
     0.0000000000000000    0.0000000000000000    6.2288319999999997
 Sn  S  
   1   2
Cartesian
  0.0000000000000000  0.0000000000000000  0.0000000000000000
 -0.0000018371530001  2.1213623940140001  1.4616141152959998
  1.8371548371530002  1.0606796059860000  4.7672178847039994
