Ir Ru
 1.0000000000000000
    -1.9170480000000001    1.9170480000000001    3.8375580000000000
     1.9170480000000001   -1.9170480000000001    3.8375580000000000
     1.9170480000000001    1.9170480000000001   -3.8375580000000000
 Ir  Ru 
   3   1
Cartesian
 -0.0000019170480000  1.9170422488560002  1.9187828375579998
  1.9170422488560002 -0.0000019170480000  1.9187828375579998
 -0.0000000000000000  0.0000000000000000  3.8375503248840004
  0.0000000000000000  0.0000000000000000  0.0000000000000000
