Pr Re B 
 1.0000000000000000
     5.3359319999999997    3.4062310000000000    0.0001840000000000
    -5.3359319999999997    3.4062310000000000    0.0001840000000000
     0.0000000000000000    0.1376810000000000    7.6305740000000002
 Pr  Re  B  
   4   6  12
Cartesian
  1.8623629944360003  5.0391352023099998  2.4930028002700002
  1.8623629944359996  1.8421672976899999  1.3226521997300000
 -1.8623629944359998  1.9110077976900000  5.1379391997299999
 -1.8623629944360003  5.1079757023100010  6.3082898002699999
 -0.8852631343920002  3.4406512500000006  1.9078275000000000
  0.8852631343920003  3.5094917500000000  5.7231145000000003
 -0.9847249068720000  0.7151936896680000  0.6661107890520001
 -0.9847249068720000  6.1661088103319992  3.1495442109480001
  0.9847249068719995  6.2349493103320004  6.9648312109480006
  0.9847249068719999  0.7840341896680000  4.4813977890520000
 -0.4811890118279999  5.4940286308899999  1.0102404174099999
 -0.4811890118280001  1.3872738691100002  2.8054145825900001
  0.4811890118279999  1.4561143691100003  6.6207015825899997
  0.4811890118279997  5.5628691308900002  4.8255274174100000
 -2.2757002949519998  4.3489560751119996  3.6612281501680002
 -2.2757002949519998  2.5323464248880003  0.1544268498320000
  2.2757002949519998  2.6011869248880002  3.9697138498320004
  2.2757002949519998  4.4177965751120007  7.4765151501679998
 -0.4834887985200000  4.1972250598010001  4.0668837640339994
 -0.4834887985200002  2.8217584401989999  7.3793452359660003
  0.4834887985200000  2.7529179401990000  3.5640582359660002
  0.4834887985199997  4.1283845598009998  0.2515967640340000
