Na H  Pt
 1.0000000000000000
     3.6293160000000002    3.6293160000000002    0.0000000000000000
     0.0000000000000000    3.6293160000000002    3.6293160000000002
     3.6293160000000002    0.0000000000000000    3.6293160000000002
 Na  H   Pt 
   2   6   1
Cartesian
  5.4439740000000008  5.4439740000000008  5.4439740000000008
  1.8146580000000001  1.8146580000000001  1.8146580000000001
  3.6293160000000002  3.6293160000000002  5.6215491732480007
  3.6293160000000002  1.6370828267519999  3.6293160000000002
  1.6370828267519999  3.6293160000000002  3.6293160000000002
  3.6293160000000002  3.6293160000000002  1.6370828267519999
  3.6293160000000002  5.6215491732480007  3.6293160000000002
  5.6215491732480007  3.6293160000000002  3.6293160000000002
  0.0000000000000000  0.0000000000000000  0.0000000000000000
