Ce S  F 
 1.0000000000000000
     3.9662760000000001    0.0000000000000000    0.0000000000000000
     0.0000000000000000    3.9662760000000001    0.0000000000000000
     0.0000000000000000    0.0000000000000000    6.9793070000000004
 Ce  S   F  
   2   2   2
Cartesian
  2.9747070000000000  2.9747070000000000  5.3658936215030000
  0.9915690000000000  0.9915690000000000  1.6134133784970000
  0.9915690000000000  0.9915690000000000  4.5328086414480007
  2.9747070000000000  2.9747070000000000  2.4464983585520002
  0.9915690000000000  2.9747070000000000  0.0000000000000000
  2.9747070000000000  0.9915690000000000  0.0000000000000000
