Cr Ru
 1.0000000000000000
     4.6326869999999998    0.0000000000000000    0.0000000000000000
     0.0000000000000000    4.6326869999999998    0.0000000000000000
     0.0000000000000000    0.0000000000000000    4.6326869999999998
 Cr  Ru 
   6   2
Cartesian
  1.1581717499999999  0.0000000000000000  2.3163434999999999
  3.4745152499999996  0.0000000000000000  2.3163434999999999
  0.0000000000000000  2.3163434999999999  1.1581717499999999
  0.0000000000000000  2.3163434999999999  3.4745152499999996
  2.3163434999999999  3.4745152499999996  0.0000000000000000
  2.3163434999999999  1.1581717499999999  0.0000000000000000
  0.0000000000000000  0.0000000000000000  0.0000000000000000
  2.3163434999999999  2.3163434999999999  2.3163434999999999
