Al Au
 1.0000000000000000
     3.2821889999999998    0.0000000000000000    0.0000000000000000
     0.0000000000000000    6.8914289999999996    0.0000000000000000
     0.0000000000000000    0.0000000000000000    9.0627350000000000
 Al  Au 
   4   8
Cartesian
  2.4616417500000001  2.5199337109979996  6.5389989336100003
  0.8205472500000000  4.3714952890019996  2.5237360663900001
  0.8205472500000000  0.9257807890020000  2.0076314336099998
  2.4616417500000001  5.9656482109980002  7.0551035663899997
  2.4616417500000001  5.8577422157159997  0.6833755326750000
  2.4616417500000001  2.8740291158760001  1.0603943714099999
  0.8205472500000000  4.0173998841240000  8.0023406285899998
  0.8205472500000000  0.5716853841239999  5.5917618714100001
  2.4616417500000001  2.4120277157159999  3.8479919673250000
  0.8205472500000000  4.4794012842840001  5.2147430326750008
  2.4616417500000001  6.3197436158759990  3.4709731285899998
  0.8205472500000000  1.0336867842839998  8.3793594673249991
