Ca Bi
 1.0000000000000000
     4.6781189999999997    0.0000670000000000   -1.2837870000000000
    -0.3522100000000000    4.6648410000000000   -1.2837879999999999
     0.0019710000000000    0.0021260000000000    9.1732230000000001
 Ca  Bi 
   4   2
Cartesian
  2.9171929047999998  3.1457983368300000  1.4648587999600002
  2.3390594999999998  0.0000335000000000 -0.6418935000000000
  1.4106914211089998  1.5212403280780000  5.1407866324649998
 -0.1761050000000000  2.3324205000000000 -0.6418940000000000
  0.5899032576849998  0.6361310573240000  2.1498575890330001
  3.7379767423150003  4.0309029426760006  4.4557904109670003
