Mg Ta Os
 1.0000000000000000
     0.0000000000000000    3.1314099999999998    3.1314099999999998
     3.1314099999999998    0.0000000000000000    3.1314099999999998
     3.1314099999999998    3.1314099999999998    0.0000000000000000
 Mg  Ta  Os 
   1   1   2
Cartesian
  1.5656987371800000  1.5656987371800000  1.5656987371800000
  4.6971150000000002  4.6971150000000002  4.6971150000000002
  0.0000000000000000  0.0000000000000000  0.0000000000000000
  3.1314099999999998  3.1314099999999998  3.1314099999999998
