Li Pm Si
 1.0000000000000000
     0.0000000000000000    3.6148099999999999    3.6148099999999999
     3.6148099999999999    0.0000000000000000    3.6148099999999999
     3.6148099999999999    3.6148099999999999    0.0000000000000000
 Li  Pm  Si 
   1   2   1
Cartesian
  1.8074049999999999  1.8074049999999999  1.8074049999999999
  0.0000000000000000  0.0000000000000000  0.0000000000000000
  3.6148172296199998  3.6148172296199998  3.6148172296199998
  5.4222149999999996  5.4222149999999996  5.4222149999999996
