Sn Ir
 1.0000000000000000
     8.6751850000000008    0.0000000000000000    0.0000000000000000
     0.0000000000000000    8.6751850000000008    0.0000000000000000
     0.0000000000000000    0.0000000000000000    6.5578070000000004
 Sn  Ir 
  14  10
Cartesian
  1.8643493076100004  1.8643493076100004  3.3429142541270003
  6.8108356923900004  1.8643493076100004  3.3429142541270003
  1.8643493076100004  6.8108356923900004  3.3429142541270003
  6.8108356923900004  6.8108356923900004  3.3429142541270003
  4.3375925000000004  0.0000000000000000  6.0089513431350010
  0.0000000000000000  0.0000000000000000  5.9110629580460001
  4.3375925000000004  0.0000000000000000  2.7300478431349999
  6.2019418076100008  6.2019418076100008  0.0640107541270000
  2.4732431923900005  6.2019418076100008  0.0640107541270000
  6.2019418076100008  2.4732431923900005  0.0640107541270000
  2.4732431923900005  2.4732431923900005  0.0640107541270000
  0.0000000000000000  4.3375925000000004  2.7300478431349999
  4.3375925000000004  4.3375925000000004  2.6321594580460004
  0.0000000000000000  4.3375925000000004  6.0089513431350010
  6.5635235184100003  0.0000000000000000  1.1677290190690002
  0.0000000000000000  6.5635235184100003  1.1677290190690002
  0.0000000000000000  2.1116614815900001  1.1677290190690002
  2.1116614815900001  0.0000000000000000  1.1677290190690002
  0.0000000000000000  0.0000000000000000  3.2835005227070000
  2.2259310184099999  4.3375925000000004  4.4466325190690004
  4.3375925000000004  2.2259310184099999  4.4466325190690004
  4.3375925000000004  6.4492539815900010  4.4466325190690004
  6.4492539815900010  4.3375925000000004  4.4466325190690004
  4.3375925000000004  4.3375925000000004  0.0045970227070000
