Li O 
 1.0000000000000000
     3.1775560000000000    0.0000000000000000    0.0000000000000000
    -1.5887780000000000    2.7518440000000002    0.0000000000000000
     0.0000000000000000    0.0000000000000000    7.7018310000000003
 Li  O  
   4   4
Cartesian
  0.0000000000000000  0.0000000000000000  0.0000000000000000
  0.0000000000000000  0.0000000000000000  3.8509155000000002
 -0.0000015887780000  1.8345635839480001  1.9254577500000001
  1.5887795887780001  0.9172804160520001  5.7763732500000007
 -0.0000015887780000  1.8345635839480001  5.0012301708360010
  1.5887795887780001  0.9172804160520001  1.1503146708359999
  1.5887795887780001  0.9172804160520001  2.7006008291640002
 -0.0000015887780000  1.8345635839480001  6.5515163291639995
