Ti Rh
 1.0000000000000000
     3.8616600000000001    0.0000000000000000    0.0000000000000000
     0.0000000000000000    3.8616600000000001    0.0000000000000000
     0.0000000000000000    0.0000000000000000    3.8616600000000001
 Ti  Rh 
   1   3
Cartesian
  0.0000000000000000  0.0000000000000000  0.0000000000000000
  1.9308300000000000  1.9308300000000000  0.0000000000000000
  1.9308300000000000  0.0000000000000000  1.9308300000000000
  0.0000000000000000  1.9308300000000000  1.9308300000000000
