Mg Hg
 1.0000000000000000
     3.4470610000000002    0.0000000000000000    0.0000000000000000
     0.0000000000000000    3.4470610000000002    0.0000000000000000
     0.0000000000000000    0.0000000000000000    3.4470610000000002
 Mg  Hg 
   1   1
Cartesian
  1.7235305000000001  1.7235305000000001  1.7235305000000001
  0.0000000000000000  0.0000000000000000  0.0000000000000000
