Th S 
 1.0000000000000000
     3.5043970000000000   -0.0000000000000000    2.0232640000000002
     1.1681310000000000    3.3039760000000000    2.0232640000000002
    -0.0000000000000000    0.0000000000000000    4.0465289999999996
 Th  S  
   1   1
Cartesian
  2.3362639999999999  1.6519880000000000  4.0465285000000000
  0.0000000000000000  0.0000000000000000  0.0000000000000000
