Tb Si Ni
 1.0000000000000000
     3.6901830000000002    0.0000000000000000   -1.4141239999999999
    -0.5419100000000000    3.6501760000000001   -1.4141239999999999
    -0.0066390000000000   -0.0076960000000000    5.5045370000000000
 Tb  Si  Ni 
   1   2   2
Cartesian
  0.0000000000000000  0.0000000000000000  0.0000000000000000
  1.9751148872020001  2.2899913973440000 -0.3677526222220002
  1.1665191127979999  1.3524886026559999  3.0440416222220001
  2.6288402500000001  0.9086960000000001  1.3381445000000001
  0.5127937500000000  2.7337840000000000  1.3381445000000001
