Nd Fe B 
 1.0000000000000000
     7.0554189999999997    0.0000000000000000    0.0000000000000000
     0.0000000000000000    7.0554189999999997    0.0000000000000000
     0.0000000000000000    0.0000000000000000    3.8089400000000002
 Nd  Fe  B  
   2   8   8
Cartesian
  0.0000000000000000  0.0000000000000000  0.0000000000000000
  3.5277094999999998  3.5277094999999998  1.9044700000000001
  0.9315269705700000  2.7397320844039998  3.3996922506400002
  6.1238920294299994  4.3156869155960003  3.3996922506400002
  6.2674415844039997  2.5961825294300001  1.4952222506400001
  0.7879774155960000  4.4592364705699996  1.4952222506400001
  2.5961825294300001  0.7879774155960000  2.3137177493599999
  4.4592364705699996  6.2674415844039997  2.3137177493599999
  4.3156869155960003  0.9315269705700000  0.4092477493600000
  2.7397320844039998  6.1238920294299994  0.4092477493600000
  4.6932294417049993  5.6321646022249992  0.4023421411400001
  2.3621895582949999  1.4232543977749998  0.4023421411400001
  2.1044551022250002  5.8898990582949997  2.3068121411400004
  4.9509638977749999  1.1655199417050000  2.3068121411400004
  5.8898990582949997  4.9509638977749999  1.5021278588600002
  1.1655199417050000  2.1044551022250002  1.5021278588600002
  1.4232543977749998  4.6932294417049993  3.4065978588600001
  5.6321646022249992  2.3621895582949999  3.4065978588600001
