Zr Co P 
 1.0000000000000000
     3.6827770000000002    0.0000000000000000    0.0000000000000000
     0.0000000000000000    6.3182770000000001    0.0000000000000000
     0.0000000000000000    0.0000000000000000    7.1070750000000000
 Zr  Co  P  
   4   4   4
Cartesian
  0.9206942500000000  3.2697525754390004  2.2440162888000001
  0.9206942500000000  0.1106140754390000  1.3095212112000001
  2.7620827500000003  6.2076629245610002  5.7975537888000002
  2.7620827500000003  3.0485244245610001  4.8630587111999999
  2.7620827500000003  2.2931680909340000  0.4304471044500000
  0.9206942500000000  0.8659704090660001  3.9839846044500002
  2.7620827500000003  5.4523065909339996  3.1230903955499998
  0.9206942500000000  4.0251089090660006  6.6766278955500002
  0.9206942500000000  4.9032356830800001  4.3442990928000000
  0.9206942500000000  1.7440971830800001  6.3163134072000000
  2.7620827500000003  1.4150413169200000  2.7627759072000000
  2.7620827500000003  4.5741798169200001  0.7907615928000000
