Rb Mn Cl
 1.0000000000000000
     6.0556270000000003   -0.0000400000000000    3.4962510000000000
     2.0185010000000001    5.7093179999999997    3.4962559999999998
    -0.0000030000000000    0.0000050000000000    6.9925069999999998
 Rb  Mn  Cl 
   2   1   6
Cartesian
  2.0185312500000001  1.4273207499999998  3.4962534999999999
  6.0555937500000008  4.2819622500000003 10.4887604999999997
  0.0000000000000000  0.0000000000000000  0.0000000000000000
  2.9508043113569999  4.3908426743209992  8.8739612263039991
  5.1233206886429992  1.3184403256790000  5.1110527736959996
  5.1233150371180010  1.3184487257019999  8.8739515431319997
  6.2095689281700013  4.3908355861099997  6.9925070000000007
  1.8645560718300003  1.3184474138900000  6.9925069999999998
  2.9508099628819999  4.3908342742979993  5.1110624568679999
