Mn Co
 1.0000000000000000
     2.8536000000000001    0.0000000000000000    0.0000000000000000
     0.0000000000000000    2.8536000000000001    0.0000000000000000
     0.0000000000000000    0.0000000000000000    2.8536000000000001
 Mn  Co 
   1   1
Cartesian
  0.0000000000000000  0.0000000000000000  0.0000000000000000
  1.4268000000000001  1.4268000000000001  1.4268000000000001
