Si Rh
 1.0000000000000000
     3.9258980000000001    0.0000000000000000    0.0000000000000000
     0.0000000000000000    5.4574360000000004    0.0000000000000000
     0.0000000000000000    0.0000000000000000    7.3760770000000004
 Si  Rh 
   4   8
Cartesian
  0.9814745000000000  4.2390743278720002  2.9042196775950000
  2.9444235000000001  1.2183616721280002  4.4718573224050004
  0.9814745000000000  1.5103563278720000  0.7838188224050000
  2.9444235000000001  3.9470796721280004  6.5922581775950002
  2.9444235000000001  0.1471597617400000  2.2395318748170001
  0.9814745000000000  5.3102762382600002  5.1365451251829999
  2.9444235000000001  2.8758777617400004  1.4485066251830001
  0.9814745000000000  2.5815582382600000  5.9275703748170008
  0.9814745000000000  1.8607291765080001  3.1722884440060004
  2.9444235000000001  3.5967068234920005  4.2037885559940005
  0.9814745000000000  4.5894471765080000  0.5157500559940000
  2.9444235000000001  0.8679888234920000  6.8603269440060002
