Li Al H 
 1.0000000000000000
     5.5565129999999998    0.0012270000000000   -0.1368940000000000
    -0.1403390000000000    5.5547409999999999   -0.1368940000000000
     0.0011960000000000    0.0012270000000000    5.5581990000000001
 Li  Al  H  
   6   2  12
Cartesian
  4.0845213503500002  3.1528265630719998  0.1585188621560000
  0.2341884580290000  4.1635216829599999  3.0428613580289996
  1.3328486496499998  2.4043684369280003  5.1258921378439997
  5.1831815419710008  1.3936733170400002  2.2415496419709999
  3.1451800565209993  0.3401883091180000  4.0793227232850002
  2.2721899434789998  5.2170066908819992  1.2050882767150002
  2.7086850000000000  2.7785975000000001  2.6422055000000002
  0.0000000000000000  0.0000000000000000  0.0000000000000000
  0.3609888466140000  5.2871236540370008  1.4973117366489999
  5.0563811533859990  0.2700713459630000  3.7870992633510001
  1.0803737618630000  2.3711082986229997  3.0783962217660004
  3.1356514319080002  1.1404329356809999  2.2656096340850000
  2.2912492244189999  3.1636891561609999  1.0035599400060000
  4.3369962381370000  3.1860867013769996  2.2060147782340001
  2.2817185680919994  4.4167620643189993  3.0188013659149999
  3.1261207755809997  2.3935058438389998  4.2808510599940002
  3.7894367047999999  5.0616210111069995  0.0470291785770000
  5.2470427150759997  1.6400310469849999  0.3236783613950001
  1.6279332951999996  0.4955739888930000  5.2373818214230008
  0.1703272849240000  3.9171639530149998  4.9607326386050001
