Hf W 
 1.0000000000000000
     7.6268490000000000    0.0000960000000000    0.0000970000000000
     0.0000970000000000    7.6268500000000001    0.0000950000000000
     0.0000970000000000    0.0000950000000000    7.6268490000000000
 Hf  W  
   8  16
Cartesian
  0.9534032561290001  0.9534030061230001  0.9534030061230000
  6.6735427438710007  2.8601654938770005  2.8601659938770001
  0.9535002561290001  4.7668755061229993  4.7668750061229996
  6.6736397438709991  6.6736379938770005  6.6736379938770005
  4.7668762561289997  0.9534985061230000  4.7668760061229998
  2.8601667438710003  2.8601649938770004  6.6735419938770004
  4.7668762561289997  4.7668760061229998  0.9534990061230000
  2.8601667438710003  6.6735424938770000  2.8601649938770004
  0.0000970000000000  1.9067837500000000  5.7201605000000004
  5.7201610000000001  1.9067845000000001  0.0000965000000000
  3.8134245000000000  0.0000480000000000  0.0000485000000000
  1.9067850000000000  0.0000952500000000  5.7201610000000001
  0.0000970000000000  5.7201612500000003  1.9067835000000000
  5.7202580000000003  5.7202570000000001  3.8135685000000001
  3.8135215000000002  3.8135205000000001  3.8135205000000001
  1.9067850000000000  3.8134727499999999  1.9067840000000000
  3.8134730000000001  1.9067842500000001  1.9067845000000001
  1.9067850000000000  1.9067840000000000  3.8134725000000000
  0.0000485000000000  0.0000475000000000  3.8134245000000000
  5.7201610000000001  0.0000957500000000  1.9067850000000000
  3.8135700000000003  5.7202567500000008  5.7202564999999996
  1.9067850000000000  5.7201614999999997  0.0000955000000000
  0.0000485000000000  3.8134250000000001  0.0000475000000000
  5.7202580000000003  3.8135682499999999  5.7202570000000001
