Tb Ni
 1.0000000000000000
     4.8370490000000004    0.0001480000000000    0.0000000000000000
    -2.4183960000000000    4.1890679999999998    0.0000000000000000
     0.0000000000000000    0.0000000000000000    3.9105910000000002
 Tb  Ni 
   1   5
Cartesian
  0.0000000000000000  0.0000000000000000  0.0000000000000000
  0.0001050150340001  2.7927669194479998  0.0000000000000000
  2.4185479849660001  1.3964490805520000  0.0000000000000000
  2.4185245000000002  0.0000740000000000  1.9552955000000001
  1.2093265000000002  2.0946080000000000  1.9552955000000001
 -1.2091980000000000  2.0945339999999999  1.9552955000000001
