Zr Al Co
 1.0000000000000000
     3.6998890000000002    0.0000000000000000    2.1361330000000001
     1.2332959999999999    3.4882890000000000    2.1361330000000001
     0.0000000000000000    0.0000000000000000    4.2722639999999998
 Zr  Al  Co 
   1   1   2
Cartesian
  2.4665925000000000  1.7441445000000000  4.2722650000000000
  0.0000000000000000  0.0000000000000000  0.0000000000000000
  1.2332962500000000  0.8720722500000000  2.1361325000000000
  3.6998887499999999  2.6162167500000000  6.4083974999999995
