Ti O 
 1.0000000000000000
    11.7584999999999997    0.0000000000000000   -3.5943920000000000
     0.0000000000000000    3.7617319999999999    0.0000000000000000
    -0.0002320000000000    0.0000000000000000    6.6291909999999996
 Ti  O  
   8  16
Cartesian
  9.4764789302399990  0.0000000000000000  1.8624308061499997
  1.1833047615520000  0.0000000000000000  4.3457129717580001
  2.2817890697599998  0.0000000000000000  1.1723681938499997
 10.5749632384479995  0.0000000000000000 -1.3109139717580005
  3.5972289302400000  1.8808659999999999  3.6596268061499995
  7.0625547615519988  1.8808659999999999  2.5485169717580001
  8.1610390697599993  1.8808659999999999 -0.6248278061500004
  4.6957132384479996  1.8808659999999999  0.4862820282419998
  0.6827538216480000  0.0000000000000000  2.2426484909019999
  1.6306224180240001  1.8808659999999999  4.1861309191079998
  1.5591645206839999  0.0000000000000000 -0.4531587070500000
 11.0755141783519999  0.0000000000000000  0.7921505090980001
  2.7735381690880003  1.8808659999999999  1.4474453472869999
 10.1991034793159994  0.0000000000000000  3.4879577070499996
  8.9847298306799992  1.8808659999999999  1.5873602819040000
 10.1276455819759992  1.8808659999999999 -1.1513319191080003
  6.5620038216480001  1.8808659999999999  0.4454524909019998
  7.5098724180239991  0.0000000000000000  2.3889349191079994
  7.4384145206839998  1.8808659999999999 -2.2503547070500001
  5.1962641783519992  1.8808659999999999  2.5893465090980001
  8.6527881690879997  0.0000000000000000 -0.3497506527130003
  4.3198534793159995  1.8808659999999999  5.2851537070499992
  3.1054798306800002  0.0000000000000000  3.3845562819039996
  4.2483955819760002  0.0000000000000000  0.6458640808919998
