Y  Fe Si
 1.0000000000000000
     3.9641320000000002    0.0000000000000000    0.0000000000000000
     0.0000000000000000    3.9641320000000002    0.0000000000000000
     0.0000000000000000    0.0000000000000000    9.5430229999999998
 Y   Fe  Si 
   2   4   4
Cartesian
  0.0000000000000000  0.0000000000000000  0.0000000000000000
  1.9820660000000001  1.9820660000000001  4.7715114999999999
  1.9820660000000001  0.0000000000000000  7.1572672500000003
  0.0000000000000000  1.9820660000000001  7.1572672500000003
  0.0000000000000000  1.9820660000000001  2.3857557500000000
  1.9820660000000001  0.0000000000000000  2.3857557500000000
  1.9820660000000001  1.9820660000000001  1.2843000353400000
  1.9820660000000001  1.9820660000000001  8.2587229646599987
  0.0000000000000000  0.0000000000000000  6.0558115353400002
  0.0000000000000000  0.0000000000000000  3.4872114646600001
