Yb Ga Hg
 1.0000000000000000
     0.0000000000000000    3.5687169999999999    3.5687169999999999
     3.5687169999999999    0.0000000000000000    3.5687169999999999
     3.5687169999999999    3.5687169999999999    0.0000000000000000
 Yb  Ga  Hg 
   2   1   1
Cartesian
  1.7843585000000000  1.7843585000000000  1.7843585000000000
  5.3530755000000001  5.3530755000000001  5.3530755000000001
  3.5687169999999999  3.5687169999999999  3.5687169999999999
  0.0000000000000000  0.0000000000000000  0.0000000000000000
