Sr Zn
 1.0000000000000000
     4.5491130000000002    0.0000000000000000    0.0000000000000000
     0.0000000000000000    6.2329100000000004    0.0000000000000000
     0.0000000000000000    0.0000000000000000    8.8833900000000003
 Sr  Zn 
   4   4
Cartesian
  1.1372782500000000  2.4451518942700003  6.0262696912499996
  3.4118347500000001  3.7877581057300000  2.8571203087499999
  3.4118347500000001  5.5616068942700005  7.2988153087500010
  1.1372782500000000  0.6713031057300000  1.5845746912500001
  1.1372782500000000  5.6786484782500004  4.6532884664100003
  3.4118347500000001  0.5542615217500001  4.2301015335900001
  3.4118347500000001  2.5621934782500002  8.6717965335899994
  1.1372782500000000  3.6707165217500006  0.2115934664100000
