Rb Na In F 
 1.0000000000000000
     0.0000000000000000    4.4303010000000000    4.4303010000000000
     4.4303010000000000    0.0000000000000000    4.4303010000000000
     4.4303010000000000    4.4303010000000000    0.0000000000000000
 Rb  Na  In  F  
   2   1   1   6
Cartesian
  6.6454515000000001  6.6454515000000001  6.6454515000000001
  2.2151505000000000  2.2151505000000000  2.2151505000000000
  4.4303010000000000  4.4303010000000000  4.4303010000000000
  0.0000000000000000  0.0000000000000000  0.0000000000000000
  2.1114017111820003  4.4303010000000000  4.4303010000000000
  4.4303010000000000  4.4303010000000000  2.1114017111820003
  6.7492002888179998  4.4303010000000000  4.4303010000000000
  4.4303010000000000  2.1114017111820003  4.4303010000000000
  4.4303010000000000  6.7492002888179998  4.4303010000000000
  4.4303010000000000  4.4303010000000000  6.7492002888179998
