Pr Mn Si
 1.0000000000000000
     3.9038949999999999   -0.0000000000000000   -1.3923399999999999
    -0.4965840000000000    3.8721839999999998   -1.3923399999999999
    -0.0272180000000000   -0.0309320000000000    6.0928060000000004
 Pr  Mn  Si 
   1   2   2
Cartesian
  0.0000000000000000  0.0000000000000000  0.0000000000000000
  0.5899267499999999  2.8886719999999997  1.6540630000000003
  2.7901662499999995  0.9525800000000000  1.6540630000000003
  2.0900911353430001  2.3752504625319997 -0.3088416751459998
  1.2900018646570000  1.4660015374679998  3.6169676751460003
