Pm Ag Au
 1.0000000000000000
     0.0000000000000000    3.4917129999999998    3.4917129999999998
     3.4917129999999998    0.0000000000000000    3.4917129999999998
     3.4917129999999998    3.4917129999999998    0.0000000000000000
 Pm  Ag  Au 
   1   1   2
Cartesian
  5.2375694999999993  5.2375694999999993  5.2375694999999993
  1.7458634834259998  1.7458634834259998  1.7458634834259998
  3.4917129999999998  3.4917129999999998  3.4917129999999998
  0.0000000000000000  0.0000000000000000  0.0000000000000000
