Sc Ta Ru
 1.0000000000000000
     0.0000000000000000    3.1699380000000001    3.1699380000000001
     3.1699380000000001    0.0000000000000000    3.1699380000000001
     3.1699380000000001    3.1699380000000001    0.0000000000000000
 Sc  Ta  Ru 
   1   1   2
Cartesian
  1.5849626601240001  1.5849626601240001  1.5849626601240001
  4.7549006601240000  4.7549006601240000  4.7549006601240000
  0.0000000000000000  0.0000000000000000  0.0000000000000000
  3.1699380000000001  3.1699380000000001  3.1699380000000001
