Sr Cu Ge
 1.0000000000000000
     3.9601549999999999    0.0000000000000000   -1.5218710000000000
    -0.5848480000000000    3.9167299999999998   -1.5218710000000000
     0.0068550000000000    0.0079540000000000    5.9312519999999997
 Sr  Cu  Ge 
   1   2   2
Cartesian
  0.0000000000000000  0.0000000000000000  0.0000000000000000
  2.8273317499999999  0.9831595000000000  1.4437549999999999
  0.5548302500000000  2.9415244999999999  1.4437549999999999
  2.1179841006259998  2.4577235079640003 -0.4020822387640000
  1.2641778993740000  1.4669604920360000  3.2895922387640000
