Sc Si Ni
 1.0000000000000000
     3.5697890000000001    0.0000000000000000   -1.3181410000000000
    -0.4867220000000000    3.5364510000000000   -1.3181410000000000
    -0.0140260000000000   -0.0160890000000000    5.4549390000000004
 Sc  Si  Ni 
   1   2   2
Cartesian
  0.0000000000000000  0.0000000000000000  0.0000000000000000
  1.9144316859150001  2.1959605666530000 -0.3082575986439999
  1.1546093140850002  1.3244014333470002  3.1269145986440008
  2.5486482499999998  0.8760682500000000  1.4093285000000002
  0.5203927500000000  2.6442937500000001  1.4093285000000002
