Eu Hg
 1.0000000000000000
     3.8709699999999998    0.0000000000000000    0.0000000000000000
     0.0000000000000000    3.8709699999999998    0.0000000000000000
     0.0000000000000000    0.0000000000000000    3.8709699999999998
 Eu  Hg 
   1   1
Cartesian
  0.0000000000000000  0.0000000000000000  0.0000000000000000
  1.9354849999999999  1.9354849999999999  1.9354849999999999
