Hf Si Mo
 1.0000000000000000
     3.5076749999999999    0.0000000000000000    0.0000000000000000
     0.0000000000000000    6.9528790000000003    0.0000000000000000
     0.0000000000000000    0.0000000000000000    8.2017489999999995
 Hf  Si  Mo 
   4   4   4
Cartesian
  0.8769187500000000  3.7787576317989999  6.8288172261449995
  2.6307562500000001  3.1741213682010003  1.3729317738549998
  0.8769187500000000  0.3023181317990000  5.4738062738549997
  2.6307562500000001  6.6505608682010005  2.7279427261449998
  0.8769187500000000  5.2634684605800004  1.1260673307039999
  2.6307562500000001  1.6894105394200001  7.0756816692959994
  0.8769187500000000  1.7870289605800003  2.9748071692960001
  2.6307562500000001  5.1658500394200004  5.2269418307039999
  2.6307562500000001  6.0180991828449999  7.6878438111579994
  0.8769187500000000  0.9347798171550001  0.5139051888420000
  2.6307562500000001  2.5416596828450002  4.6147796888419998
  0.8769187500000000  4.4112193171550000  3.5869693111579997
