Rh O 
 1.0000000000000000
     3.0899690000000000    0.0000000000000000    0.0000000000000000
     0.0000000000000000    4.4873170000000000    0.0000030000000000
     0.0000000000000000    0.0000030000000000    4.4873170000000000
 Rh  O  
   2   4
Cartesian
  0.0000000000000000  0.0000000000000000  0.0000000000000000
  1.5449845000000000  2.2436600000000002  2.2436600000000002
  0.0000000000000000  1.3763777143200000  1.3763777143200000
  1.5449845000000000  0.8672796387220001  3.6200403612779999
  1.5449845000000000  3.6200403612779999  0.8672796387220000
  0.0000000000000000  3.1109422856799998  3.1109422856799998
