Be N 
 1.0000000000000000
     6.6360809999999999    0.0000000000000000   -2.3462100000000001
    -3.3180390000000002    5.7470129999999999   -2.3462100000000001
     0.0000000000000000    0.0000000000000000    7.0386270000000000
 Be  N  
  24  16
Cartesian
  0.9518076110730000  4.4034533128079998  0.7039693328609995
  3.3915133243919997  5.5692406468710001  0.5658567219479999
 -0.8098396338420000  4.3948327933079998  2.7598774685879999
  2.5519451245530003  1.3774325818140001  5.1060914419709995
  3.9911061183509999  4.2256867066920005  3.0089268746249993
  4.0056915119459999  1.4960739181859999  3.0501692466719996
 -1.6394655771390001  5.5945045160189997  0.7039647200550003
  1.7762440926299998  3.0260149839810002  2.9120619367320000
  3.3230150391089999  3.0512788531289998  0.6627135894090003
  1.5759479634090003  5.7217548778650000  2.7598720703190001
  2.6399933884199998  4.2170661871919997 -1.6834862271060000
  4.7863770370979992  2.8987646221350003 -1.7803611760739999
  2.3662343889270003  1.3435596871919999  1.6422376671390000
 -0.0734713243920000  0.1777723531290000  1.7803502780520000
  4.1278816338419988  1.3521802066919999 -0.4136704685879999
  0.7660968754469996  4.3695804181860005 -2.7598844419710002
 -0.6730641183510001  1.5213262933080001 -0.6627198746250000
 -0.6876495119459999  4.2509390818139998 -0.7039622466720002
  4.9575075771390003  0.1525084839810000  1.6422422799449998
  1.5417979073699997  2.7209980160190002 -0.5658549367320000
 -0.0049730391090002  2.6957341468710001  1.6834934105910000
  1.7420940365910000  0.0252581221350000 -0.4136650703190000
  0.6780486115800000  1.5299468128080000  4.0296932271059998
 -1.4683350370980002  2.8482483778650001  4.1265681760740005
  0.8999956024769999  1.3146694528409999  5.7658409856689996
  0.0704859162059999  2.9955902971590000  3.4196316719399995
  0.9704815186829999  4.3102597500000002 -1.0734247356690001
 -1.7295039162060002  5.6249292028409998 -1.0734246719400002
  5.6656009813170005  1.4367532500000000 -1.2727867643310002
  4.0770658975229992  1.5588370471590001  1.2727845143310001
  2.4180463975229993  4.4323435471590003 -3.4196339856689999
  3.2475560837940001  2.7514227028409999 -1.0734246719400002
  2.3475604813169997  1.4367532500000000  3.4196317356689998
  5.0475459162060003  0.1220837971590000  3.4196316719399995
 -2.3475589813170004  4.3102597500000002  3.6189937643310000
 -0.7590238975230001  4.1881759528410001  1.0734224856689996
  1.6590209999999999  2.8735065000000000  1.1731034999999999
  0.0000000000000000  0.0000000000000000  3.5193135000000000
  3.3180404999999999  0.0000000000000000 -1.1731050000000001
 -1.6590195000000001  2.8735065000000000 -1.1731050000000001
