Ca Br
 1.0000000000000000
     4.3657719999999998    0.0000000000000000    0.0000000000000000
     0.0000000000000000    6.6549719999999999    0.0000000000000000
     0.0000000000000000    0.0000000000000000    6.9055280000000003
 Ca  Br 
   2   4
Cartesian
  0.0000000000000000  0.0000000000000000  0.0000000000000000
  2.1828859999999999  3.3274859999999999  3.4527640000000002
  0.0000000000000000  1.8331120373999998  2.2613670652160001
  0.0000000000000000  4.8218599626000005  4.6441609347840007
  2.1828859999999999  5.1605980373999998  1.1913969347839999
  2.1828859999999999  1.4943739625999999  5.7141310652159998
