Ti Al C 
 1.0000000000000000
     3.0685090000000002    0.0000000000000000    0.0000000000000000
    -1.5342549999999999    2.6574059999999999    0.0000000000000000
     0.0000000000000000    0.0000000000000000   13.7394829999999999
 Ti  Al  C  
   4   2   2
Cartesian
 -0.0000018675879999  1.7716048858019999  1.1467109906630000
  1.5342558675880003  0.8858011141980000  8.0164524906629993
  1.5342558675880003  0.8858011141980000 12.5927720093370006
 -0.0000018675879999  1.7716048858019999  5.7230305093369997
 -0.0000018675879999  1.7716048858019999 10.3046122499999999
  1.5342558675880003  0.8858011141980000  3.4348707500000000
  0.0000000000000000  0.0000000000000000  0.0000000000000000
  0.0000000000000000  0.0000000000000000  6.8697414999999999
