Li Ni N 
 1.0000000000000000
     6.4470539999999996    0.0000000000000000    0.0000000000000000
    -3.2235260000000001    5.5833130000000004    0.0000000000000000
     0.0000000000000000    0.0000000000000000    3.4502579999999998
 Li  Ni  N  
   5   3   3
Cartesian
  3.2235305568599997  1.8611024722290002  1.7251289999999999
 -0.0000025568600002  3.7222105277710003  1.7251289999999999
 -0.8490122778800000  1.4705329779400000  1.7251289999999999
  1.6980250825199998  0.0000000000000000  1.7251289999999999
  2.3745151953600003  4.1127800220600008  1.7251289999999999
 -2.0375940081260002  3.5292177306130004  0.0000000000000000
  1.1859327276719998  2.0540952693870000  0.0000000000000000
  4.0751892804539995  0.0000000000000000  0.0000000000000000
 -2.0429289436559999  3.5384581136280002  1.7251289999999999
  4.0858591548240000  0.0000000000000000  1.7251289999999999
  1.1805977888320001  2.0448548863720002  1.7251289999999999
