La Ta N 
 1.0000000000000000
     3.9992559999999999   -0.0000000000000000   -0.7801290000000000
    -0.1521790000000000    3.9963600000000001   -0.7801290000000000
    -0.0317970000000000   -0.0330300000000000   10.4779780000000002
 La  Ta  N  
   3   2   6
Cartesian
  0.6821582014170000  0.7086291597000000  3.4970249537019997
  3.1331217985829998  3.2547008403000004  5.4206950462980004
  0.0000000000000000  0.0000000000000000  0.0000000000000000
  2.3054811088499996  2.3949437850000002  1.1778667131000000
  1.5097988911500000  1.5683862150000001  7.7398532869000007
  2.3241033173600001  0.3370664913300000  1.2733194782000001
  0.2483858173600000  2.3352464913300000  1.2733194782000001
  1.4911766826399999  3.6262635086700001  7.6444005217999997
  3.5668941826399996  1.6280835086700001  7.6444005217999997
  2.6715633887609997  2.7752317854300004  3.0545451822060006
  1.1437166112390000  1.1880982145699999  5.8631748177940004
