Zr Ga
 1.0000000000000000
     3.7041979999999999    0.0000000000000000    0.0000000000000000
     0.0000000000000000    7.3337180000000002    0.0000000000000000
     0.0000000000000000    0.0000000000000000    7.3337180000000002
 Zr  Ga 
   6   4
Cartesian
  0.0000000000000000  0.0000000000000000  0.0000000000000000
  0.0000000000000000  3.6668590000000001  3.6668590000000001
  1.8520989999999999  1.2947019094380001  4.9615609094380000
  1.8520989999999999  2.3721570905620002  1.2947019094380001
  1.8520989999999999  4.9615609094380000  6.0390160905620007
  1.8520989999999999  6.0390160905620007  2.3721570905620002
  0.0000000000000000  2.7646210093320001  6.4314800093320006
  0.0000000000000000  0.9022379906680000  2.7646210093320001
  0.0000000000000000  6.4314800093320006  4.5690969906680001
  0.0000000000000000  4.5690969906680001  0.9022379906680000
