Bi Te Pt
 1.0000000000000000
     6.7215550000000004    0.0012530000000000   -0.0003910000000000
     0.0012530000000000    6.7217570000000002   -0.0014880000000000
    -0.0003860000000000   -0.0015380000000000    6.7214489999999998
 Bi  Te  Pt 
   4   4   4
Cartesian
  2.4804257262219997  2.4794972614260002  2.4792123126519998
  0.8815571027990001  4.2408278589149999  5.8394514846679995
  5.8404209185920006  0.8809708983940000  4.2408205620109998
  4.2428637115100010  5.8416480648180009  0.8796354516889999
  4.2116175235019995  4.2107401616680002  4.2093804891230002
  5.8712806058410001  2.5109718777970000  0.8497626933330000
  0.8506826910770000  5.8717242279789996  2.5095084173859998
  2.5103961148820000  0.8496218192560000  5.8705825255870003
  0.0303718972280000  0.0302063867600000  0.0299288802360000
  3.3315293030739999  6.6911523158980000  3.3895379959319998
  3.3912476963530005  3.3299937774850004  6.6903619590360002
  6.6921118201940013  3.3914639010779997  3.3292372328869999
