Zr Ni Sb
 1.0000000000000000
     4.1937819999999997    0.0000000000000000    0.0000000000000000
    -2.0968909999999998    3.6319219999999999    0.0000000000000000
     0.0000000000000000    0.0000000000000000    8.2971760000000003
 Zr  Ni  Sb 
   2   4   2
Cartesian
  2.0968930968910002  1.2106394560259999  6.2228820000000002
 -0.0000020968910001  2.4212825439739998  2.0742940000000001
  2.0968930968910002  1.2106394560259999  3.3482755917440001
 -0.0000020968910001  2.4212825439739998  7.4968635917440007
  2.0968930968910002  1.2106394560259999  0.8003124082560000
 -0.0000020968910001  2.4212825439739998  4.9489004082559997
  0.0000000000000000  0.0000000000000000  0.0000000000000000
  0.0000000000000000  0.0000000000000000  4.1485880000000002
