Pr Zn Sb O 
 1.0000000000000000
     4.2095029999999998    0.0000000000000000    0.0000000000000000
     0.0000000000000000    4.2095029999999998    0.0000000000000000
     0.0000000000000000    0.0000000000000000    9.6690050000000003
 Pr  Zn  Sb  O  
   2   2   2   2
Cartesian
  2.1047514999999999  0.0000000000000000  1.1384189796949999
  0.0000000000000000  2.1047514999999999  8.5305860203049999
  0.0000000000000000  0.0000000000000000  4.8345025000000001
  2.1047514999999999  2.1047514999999999  4.8345025000000001
  2.1047514999999999  0.0000000000000000  6.5879572187399997
  0.0000000000000000  2.1047514999999999  3.0810477812600001
  0.0000000000000000  0.0000000000000000  0.0000000000000000
  2.1047514999999999  2.1047514999999999  0.0000000000000000
