Fe Sn Rh
 1.0000000000000000
    -2.9208799999999999   -2.9208799999999999    0.0000000000000000
    -2.9208799999999999    2.9208799999999999    0.0000000000000000
     2.9208799999999999    0.0000000000000000   -3.5111089999999998
 Fe  Sn  Rh 
   1   1   2
Cartesian
  0.0000000000000000  0.0000000000000000  0.0000000000000000
 -2.9208799999999999  0.0000000000000000  0.0000000000000000
 -1.4604400000000000 -1.4604399999999997 -1.7555544999999999
 -1.4604400000000000  1.4604400000000000 -1.7555544999999999
