Li Ho Ge
 1.0000000000000000
     7.0069939999999997    0.0000000000000000    0.0000000000000000
    -3.5034969999999999    6.0682340000000003    0.0000000000000000
     0.0000000000000000    0.0000000000000000    4.2120889999999997
 Li  Ho  Ge 
   3   3   3
Cartesian
  1.6305555317759999  0.0000000000000000  2.1060444999999999
  2.6882192341119997  4.6561316752640005  2.1060444999999999
 -0.8152777658879999  1.4121023247360001  2.1060444999999999
 -2.0190583141059997  3.4971111177320000  0.0000000000000000
  4.0381166282119993  0.0000000000000000  0.0000000000000000
  1.4844386858940000  2.5711228822680003  0.0000000000000000
 -0.0000035034970002  4.0454913560780001  2.1060444999999999
  3.5035005034969995  2.0227426439220002  2.1060444999999999
  0.0000000000000000  0.0000000000000000  0.0000000000000000
