Sm S 
 1.0000000000000000
     3.9883679999999999    0.0000000000000000    0.0000000000000000
     0.0000000000000000    7.4345549999999996    0.0000000000000000
     0.0000000000000000    0.0000000000000000   15.4743750000000002
 Sm  S  
   8  12
Cartesian
  0.9970920000000000  4.7829614828099993  4.5750608662499994
  2.9912760000000000  2.6515935171899998 10.8993141337499999
  0.9970920000000000  1.0656839828100000  3.1621266337500002
  2.9912760000000000  6.3688710171900000 12.3122483662499995
  0.9970920000000000  1.9736215776299997 14.7975413118750012
  2.9912760000000000  5.4609334223700001  0.6768336881250000
  0.9970920000000000  5.6908990776299992  8.4140211881250000
  2.9912760000000000  1.7436559223699999  7.0603538118750002
  0.9970920000000000  6.5027153108549998 14.4323151131250000
  2.9912760000000000  0.9318396891450000  1.0420598868750000
  0.9970920000000000  2.7854378108550000  8.7792473868749994
  2.9912760000000000  4.6491171891449996  6.6951276131249999
  0.9970920000000000  4.8174875562299997 11.1210000299999994
  2.9912760000000000  2.6170674437699999  4.3533749700000008
  0.9970920000000000  1.1002100562299999 12.0905624700000001
  2.9912760000000000  6.3343449437699997  3.3838125300000002
  2.9912760000000000  7.3616220154500001  9.4171939706250001
  0.9970920000000000  0.0729329845500000  6.0571810293750001
  2.9912760000000000  3.6443445154499998 13.7943685293750011
  0.9970920000000000  3.7902104845499998  1.6800064706250000
