Ni Se
 1.0000000000000000
     4.2060089999999999   -0.0000430000000000   -0.0514600000000000
    -0.0520920000000000    4.2056860000000000   -0.0514600000000000
    -0.0000430000000000   -0.0000430000000000    4.2063220000000001
 Ni  Se 
   3   2
Cartesian
  0.9986880999719999  3.1678298432120000 -0.0514600000000000
 -0.0128872358280000  1.0378131567880000  3.1556206202960002
  3.1680731358559999 -0.0000430000000000  0.9992413797040000
  1.0712176426160001  1.0845569504000001  1.0582017213679999
  3.0826563573839998  3.1210430495999999  3.0452002786320000
