Zr Co Si
 1.0000000000000000
     3.7917320000000001    0.0000000000000000    0.8828940000000000
     1.8349480000000000    4.9344250000000001    0.7030650000000001
     0.0096370000000000   -0.0302920000000000    8.5421659999999999
 Zr  Co  Si 
   4   2   4
Cartesian
  3.5852764210000001  1.3593739781129999  1.7695414818270001
  2.0510405789999999  3.5447590218869998  8.3585835181730008
  4.3956981927680001  1.5944423036019999  6.8726318126180006
  1.2406188072320001  3.3096906963980004  3.2554931873820001
  1.1855625808830001  0.3462269121550000  3.4919780829929996
  4.4507544191169996  4.5579060878449997  6.6361469170070002
  2.9650435255460001  1.3690709942399999  4.4332416787540003
  2.6712734744540003  3.5350620057600000  5.6948833212460004
  3.5076616506620004  4.2138357494340006  2.1028768957580000
  2.1286553493380000  0.6902972505660000  8.0252481042419994
