Pb F 
 1.0000000000000000
     3.8857309999999998    0.0000000000000000   -1.8262700000000001
    -0.8583350000000000    3.7897470000000002   -1.8262700000000001
    -0.0370490000000000   -0.0463790000000000    4.9681179999999996
 Pb  F  
   1   4
Cartesian
  0.0000000000000000  0.0000000000000000  0.0000000000000000
  2.2465677585940003  2.8122924113170003 -0.2669519865120000
 -0.4291675000000000  1.8948735000000001 -0.9131350000000000
  1.9428654999999999  0.0000000000000000 -0.9131350000000000
  0.7437792414059999  0.9310755886830000  1.5825299865119997
