Pm Ag Ge
 1.0000000000000000
     0.0000000000000000    3.6667230000000002    3.6667230000000002
     3.6667230000000002    0.0000000000000000    3.6667230000000002
     3.6667230000000002    3.6667230000000002    0.0000000000000000
 Pm  Ag  Ge 
   2   1   1
Cartesian
  0.0000000000000000  0.0000000000000000  0.0000000000000000
  3.6667156665540004  3.6667156665540004  3.6667156665540004
  1.8333615000000001  1.8333615000000001  1.8333615000000001
  5.5000844999999998  5.5000844999999998  5.5000844999999998
