Ga Cu I 
 1.0000000000000000
     5.7648099999999998    0.0003810000000000   -2.7099280000000001
    -1.2740849999999999    5.6224299999999996   -2.7095620000000000
    -0.1365170000000000   -0.1713910000000000    7.1962479999999998
 Ga  Cu  I  
   1   1   4
Cartesian
  0.4173802500000000  4.1312222499999995  0.8884704999999999
  2.2453624999999997  2.8114054999999998 -2.7097449999999998
  2.6134758089640000  3.4396677263459998  2.0569053472059999
  4.5425684149359995  2.1425709438530003 -1.6741068372660004
  0.9810130068959998  4.7732561403000000 -1.5480133519740005
  0.5713517303089999  0.5473508115499999  4.7187308424000003
