Cs Br
 1.0000000000000000
     4.3256220000000001    0.0000000000000000    0.0000000000000000
     0.0000000000000000    4.3256220000000001    0.0000000000000000
     0.0000000000000000    0.0000000000000000    4.3256220000000001
 Cs  Br 
   1   1
Cartesian
  0.0000000000000000  0.0000000000000000  0.0000000000000000
  2.1628110000000000  2.1628110000000000  2.1628110000000000
