Cs Pu O 
 1.0000000000000000
    -2.1836579999999999    2.1836579999999999    7.4451809999999998
     2.1836579999999999   -2.1836579999999999    7.4451809999999998
     2.1836579999999999    2.1836579999999999   -7.4451809999999998
 Cs  Pu  O  
   2   1   4
Cartesian
 -0.0000000000000000  0.0000000000000000  5.1461984493720001
  0.0000000000000001 -0.0000000000000001  9.7441635506280004
  0.0000000000000000  0.0000000000000000  0.0000000000000000
 -0.0000000000000000  0.0000000000000000  1.8928479270780001
  0.0000000000000001 -0.0000000000000001 12.9975140729219998
  0.0000000000000000  2.1836579999999999  0.0000000000000000
  2.1836579999999999  0.0000000000000000  0.0000000000000000
