Nd Tl
 1.0000000000000000
     3.8865949999999998    0.0000000000000000    0.0000000000000000
     0.0000000000000000    3.8865949999999998    0.0000000000000000
     0.0000000000000000    0.0000000000000000    3.8865949999999998
 Nd  Tl 
   1   1
Cartesian
  0.0000000000000000  0.0000000000000000  0.0000000000000000
  1.9432974999999999  1.9432974999999999  1.9432974999999999
