Nd Tl Pd
 1.0000000000000000
     7.9323730000000001    0.0000000000000000    0.0000000000000000
    -3.9661870000000001    6.8696370000000000    0.0000000000000000
     0.0000000000000000    0.0000000000000000    3.8932829999999998
 Nd  Tl  Pd 
   3   3   3
Cartesian
  4.7365627010140008  0.0000000000000000  1.9466414999999999
  1.5979049480520000  2.7676530938340003  1.9466414999999999
 -2.3682816490660001  4.1019839061660006  1.9466414999999999
  2.0952411394740000  0.0000000000000000  0.0000000000000000
  2.9185655623319997  5.0551048220940000  0.0000000000000000
 -1.0476207018060000  1.8145321779060000  0.0000000000000000
 -0.0000042995200003  4.5797602898790002  0.0000000000000000
  3.9661902995200000  2.2898767101209998  0.0000000000000000
  0.0000000000000000  0.0000000000000000  1.9466414999999999
