La In
 1.0000000000000000
     4.7740499999999999    0.0000000000000000    0.0000000000000000
     0.0000000000000000    4.7740499999999999    0.0000000000000000
     0.0000000000000000    0.0000000000000000    4.7740499999999999
 La  In 
   1   3
Cartesian
  0.0000000000000000  0.0000000000000000  0.0000000000000000
  2.3870250000000000  0.0000000000000000  2.3870250000000000
  0.0000000000000000  2.3870250000000000  2.3870250000000000
  2.3870250000000000  2.3870250000000000  0.0000000000000000
