Ba P  Ru
 1.0000000000000000
     3.8482780000000001   -0.0000710000000000   -1.2190350000000001
    -0.3862200000000000    3.8288489999999999   -1.2190350000000001
     0.0318020000000000    0.0351700000000000    6.7842240000000000
 Ba  P   Ru 
   1   2   2
Cartesian
  3.8482780000000001 -0.0000710000000000 -1.2190350000000001
  2.2889188280719996  2.5313733480959999  0.5421279971220000
  1.2049411719279999  1.3325746519039998  3.8040260028779995
  0.6882208100400000  2.8892805784000002  2.1730770000000001
  2.8056391899600004  0.9746674216000000  2.1730770000000001
