Pr P 
 1.0000000000000000
     3.6515719999999998    0.0000000000000000    2.1082360000000002
     1.2171909999999999    3.4427349999999999    2.1082360000000002
    -0.0000000000000000   -0.0000000000000000    4.2164729999999997
 Pr  P  
   1   1
Cartesian
  2.4343814999999998  1.7213674999999999  4.2164725000000001
  0.0000000000000000  0.0000000000000000  0.0000000000000000
