Sc Al Cu
 1.0000000000000000
     6.2188480000000004    0.0000000000000000    0.0000000000000000
     0.0000000000000000    6.2188480000000004    0.0000000000000000
     0.0000000000000000    0.0000000000000000    6.2188480000000004
 Sc  Al  Cu 
   4   4   8
Cartesian
  3.1094240000000002  0.0000000000000000  0.0000000000000000
  3.1094240000000002  3.1094240000000002  3.1094240000000002
  0.0000000000000000  0.0000000000000000  3.1094240000000002
  0.0000000000000000  3.1094240000000002  0.0000000000000000
  0.0000000000000000  0.0000000000000000  0.0000000000000000
  0.0000000000000000  3.1094240000000002  3.1094240000000002
  3.1094240000000002  0.0000000000000000  3.1094240000000002
  3.1094240000000002  3.1094240000000002  0.0000000000000000
  1.5547120000000001  1.5547120000000001  4.6641360000000001
  4.6641360000000001  1.5547120000000001  4.6641360000000001
  1.5547120000000001  4.6641360000000001  1.5547120000000001
  4.6641360000000001  4.6641360000000001  1.5547120000000001
  4.6641360000000001  1.5547120000000001  1.5547120000000001
  1.5547120000000001  1.5547120000000001  1.5547120000000001
  4.6641360000000001  4.6641360000000001  4.6641360000000001
  1.5547120000000001  4.6641360000000001  4.6641360000000001
