Sc Al Os
 1.0000000000000000
     0.0000010000000000    3.2794550000000000    3.2794539999999999
     3.2794520000000000   -0.0000010000000000    3.2794560000000001
     3.2794479999999999    3.2794539999999999    0.0000030000000000
 Sc  Al  Os 
   2   1   1
Cartesian
  3.2794497205469999  3.2794507205460000  6.5589034410900000
  3.2794505000000003  3.2794539999999999  3.2794565000000002
  1.6397186910990000  1.6397204410920001  1.6397216910870001
  4.9191691910989999  4.9191744410920002  4.9191781910870001
