Be F 
 1.0000000000000000
     8.2862109999999998    0.0000000000000000    0.0000000000000000
     0.0000000000000000    8.2862109999999998    0.0000000000000000
     0.0000000000000000    0.0000000000000000    8.2862109999999998
 Be  F  
  12  24
Cartesian
  0.0000000000000000  6.2146582499999994  4.1431054999999999
  0.0000000000000000  4.1431054999999999  2.0715527499999999
  2.0715527499999999  4.1431054999999999  0.0000000000000000
  4.1431054999999999  0.0000000000000000  6.2146582499999994
  4.1431054999999999  0.0000000000000000  2.0715527499999999
  4.1431054999999999  2.0715527499999999  0.0000000000000000
  0.0000000000000000  2.0715527499999999  4.1431054999999999
  4.1431054999999999  6.2146582499999994  0.0000000000000000
  0.0000000000000000  4.1431054999999999  6.2146582499999994
  6.2146582499999994  0.0000000000000000  4.1431054999999999
  6.2146582499999994  4.1431054999999999  0.0000000000000000
  2.0715527499999999  0.0000000000000000  4.1431054999999999
  0.4544821009280000  5.3267575965059999  5.3267575965059999
  3.6886233990719997  7.1025589034939998  1.1836520965060000
  0.4544821009280000  2.9594534034940003  2.9594534034940003
  7.1025589034939998  1.1836520965060000  3.6886233990719997
  5.3267575965059999  5.3267575965059999  0.4544821009280000
  1.1836520965060000  7.1025589034939998  3.6886233990719997
  5.3267575965059999  7.8317288990720000  2.9594534034940003
  2.9594534034940003  7.8317288990720000  5.3267575965059999
  5.3267575965059999  0.4544821009280000  5.3267575965059999
  7.1025589034939998  7.1025589034939998  4.5975876009279997
  1.1836520965060000  1.1836520965060000  4.5975876009279997
  7.1025589034939998  3.6886233990719997  1.1836520965060000
  7.1025589034939998  4.5975876009279997  7.1025589034939998
  3.6886233990719997  1.1836520965060000  7.1025589034939998
  1.1836520965060000  4.5975876009279997  1.1836520965060000
  4.5975876009279997  1.1836520965060000  1.1836520965060000
  2.9594534034940003  0.4544821009280000  2.9594534034940003
  1.1836520965060000  3.6886233990719997  7.1025589034939998
  7.8317288990720000  5.3267575965059999  2.9594534034940003
  5.3267575965059999  2.9594534034940003  7.8317288990720000
  7.8317288990720000  2.9594534034940003  5.3267575965059999
  2.9594534034940003  5.3267575965059999  7.8317288990720000
  4.5975876009279997  7.1025589034939998  7.1025589034939998
  2.9594534034940003  2.9594534034940003  0.4544821009280000
