Te Os
 1.0000000000000000
     6.4390049999999999    0.0000000000000000    0.0000000000000000
     0.0000000000000000    6.4390049999999999    0.0000000000000000
     0.0000000000000000    0.0000000000000000    6.4390049999999999
 Te  Os 
   8   4
Cartesian
  2.4012208665900001  0.8182816334099999  5.6207233665900000
  0.8182816334099999  5.6207233665900000  2.4012208665900001
  5.6207233665900000  2.4012208665900001  0.8182816334099999
  4.0377841334099998  4.0377841334099998  4.0377841334099998
  2.4012208665900001  2.4012208665900001  2.4012208665900001
  0.8182816334099999  4.0377841334099998  5.6207233665900000
  5.6207233665900000  0.8182816334099999  4.0377841334099998
  4.0377841334099998  5.6207233665900000  0.8182816334099999
  0.0000000000000000  3.2195024999999999  3.2195024999999999
  3.2195024999999999  3.2195024999999999  0.0000000000000000
  3.2195024999999999  0.0000000000000000  3.2195024999999999
  0.0000000000000000  0.0000000000000000  0.0000000000000000
