Cd P 
 1.0000000000000000
     5.1720649999999999    0.0000000000000000    0.0000000000000000
     0.0000000000000000    5.2193160000000001   -0.8576500000000000
     0.0000000000000000    0.0115930000000000    7.6504640000000004
 Cd  P  
   2   8
Cartesian
  2.5860325000000000  0.0057965000000000  3.8252320000000002
  0.0000000000000000  0.0000000000000000  0.0000000000000000
  3.1098385549400001  3.1421344292509996  6.3649246672340007
  0.5238060549400000  2.0945710707490002  4.2531213327659998
  1.4966869976349999  3.8524366839569999  5.0873877070180002
  4.0827194976349999  1.3842688160429999  5.5306582929820003
  3.6753780023649996  1.3784723160429999  1.7054262929820001
  1.0893455023650001  3.8466401839569997  1.2621557070180001
  4.6482589450599994  3.1363379292509999  2.5396926672340001
  2.0622264450600003  2.0887745707490004  0.4278893327660000
