U  Fe Si
 1.0000000000000000
     3.7048280000000000   -0.0000000000000000   -1.4151440000000000
    -0.5405470000000000    3.6651820000000002   -1.4151440000000000
    -0.0587970000000000   -0.0681030000000000    5.4032380000000000
 U   Fe  Si 
   1   2   2
Cartesian
  0.0000000000000000  0.0000000000000000  0.0000000000000000
  2.6140857500000001  0.8822440000000000  1.2864750000000000
  0.4913982500000000  2.7148350000000003  1.2864750000000000
  1.9869598950640002  2.3014930990720002 -0.3553319480640000
  1.1185241049360000  1.2955859009280000  2.9282819480639999
