Th Se
 1.0000000000000000
     3.6369850000000001    0.0000000000000000    2.0998150000000000
     1.2123280000000001    3.4289849999999999    2.0998150000000000
     0.0000000000000000    0.0000000000000000    4.1996300000000000
 Th  Se 
   1   1
Cartesian
  2.4246565000000002  1.7144925000000000  4.1996300000000000
  0.0000000000000000  0.0000000000000000  0.0000000000000000
