Zn Sn N 
 1.0000000000000000
     5.8542730000000001    0.0000000000000000    0.0000000000000000
     0.0000000000000000    6.7374539999999996    0.0000000000000000
     0.0000000000000000    0.0000000000000000    5.4805830000000002
 Zn  Sn  N  
   4   4   8
Cartesian
  3.4134099781990002  5.8949016900299993  5.4740720673960004
  2.4408630218009999  0.8425523099700000  2.7337805673959998
  5.3679995218009999  2.5261746900299995  2.7337805673959998
  0.4862734781990000  4.2112793099700001  5.4740720673960004
  3.4446542332000001  2.5269697096019996  5.4766095773250001
  2.4096187668000000  4.2104842903979991  2.7363180773250004
  5.3367552668000000  5.8956967096020003  2.7363180773250004
  0.5175177332000001  0.8417572903980000  5.4766095773250001
  3.4095051781080001  2.5222804416179998  2.0736059809650000
  2.4447678218919999  4.2151735583819994  4.8138974809650001
  5.3719043218920000  5.8910074416180001  4.8138974809650001
  0.4823686781080000  0.8464465583819999  2.0736059809650000
  3.3938157264680000  5.9005678888439990  2.0473211048970001
  2.4604572735320001  0.8368861111560000  4.7876126048970002
  5.3875937735320001  2.5318408888440000  4.7876126048970002
  0.4666792264680000  4.2056131111560004  2.0473211048970001
