Hf Al Ni
 1.0000000000000000
     3.6926100000000002    0.0000000000000000    2.1319300000000001
     1.2308699999999999    3.4814259999999999    2.1319300000000001
     0.0000000000000000    0.0000000000000000    4.2638590000000001
 Hf  Al  Ni 
   1   1   2
Cartesian
  2.4617399999999998  1.7407130000000000  4.2638595000000006
  0.0000000000000000  0.0000000000000000  0.0000000000000000
  1.2308699999999999  0.8703565000000000  2.1319297500000003
  3.6926100000000002  2.6110695000000002  6.3957892500000000
