Pd Se O 
 1.0000000000000000
     3.9153989999999999   -0.0055610000000000   -0.0001330000000000
    -0.6949860000000000    6.1307450000000001   -0.0002100000000000
    -0.0002120000000000   -0.0002430000000000    6.4450839999999996
 Pd  Se  O  
   2   2   6
Cartesian
  3.2204097793749997  6.1251778745729997 -0.0003365545730000
 -0.0001060000000000 -0.0001215000000000  3.2225419999999998
  1.2422106898749998  4.1250230824839997  4.8335426221989994
  1.9779863947259997  1.9999179230770001  1.6111983779339998
  0.9801649001210001  1.7479696622390000  0.2603587703730000
  0.4639838104690000  5.7616642665809996  4.8335453969129993
  2.2400296594769999  4.3769590878790003  6.1843693401449995
  2.2402497470169997  4.3771465752080001  3.4828156975570002
  2.7562164945449998  0.3632828641640000  1.6111956028769998
  0.9799623039820000  1.7478005386109998  2.9619317469179998
