Ga Ag Se
 1.0000000000000000
     5.3904579999999997    0.0000000000000000   -2.5999110000000001
    -1.2539819999999999    5.2425730000000001   -2.5999110000000001
     0.0434090000000000    0.0550170000000000    6.9780410000000002
 Ga  Ag  Se 
   2   2   4
Cartesian
  2.0682380000000000  2.6212865000000001 -2.5999110000000001
  3.7510524999999997  1.3381517500000000  0.8891095000000000
  0.4288325000000000  3.9594382500000003  0.8891095000000000
  0.0000000000000000  0.0000000000000000  0.0000000000000000
  3.4597254397959998  4.6010056250000000 -2.7230780157819998
  3.2051717674839995  0.8624488995740001  3.2013415157820004
  1.7325740602039996  1.9797191250000001 -0.2876789842179999
 -0.0377012674839999  3.1520063504259999  3.3658534842180003
