Hf Mg Ir
 1.0000000000000000
     0.0000000000000000    3.1699500000000000    3.1699500000000000
     3.1699500000000000    0.0000000000000000    3.1699500000000000
     3.1699500000000000    3.1699500000000000    0.0000000000000000
 Hf  Mg  Ir 
   1   1   2
Cartesian
  1.5849750000000000  1.5849750000000000  1.5849750000000000
  4.7549250000000001  4.7549250000000001  4.7549250000000001
  0.0000000000000000  0.0000000000000000  0.0000000000000000
  3.1699500000000000  3.1699500000000000  3.1699500000000000
