Fe Ni
 1.0000000000000000
     3.5527579999999999    0.0000000000000000    0.0000000000000000
     0.0000000000000000    3.5527579999999999    0.0000000000000000
     0.0000000000000000    0.0000000000000000    3.5307590000000002
 Fe  Ni 
   2   2
Cartesian
  0.0000000000000000  0.0000000000000000  0.0000000000000000
  1.7763789999999999  1.7763789999999999  0.0000000000000000
  0.0000000000000000  1.7763789999999999  1.7653795000000001
  1.7763789999999999  0.0000000000000000  1.7653795000000001
