Li Ca Al F 
 1.0000000000000000
     2.5415890000000001   -4.4021619999999997    0.0000000000000000
     2.5415890000000001    4.4021619999999997    0.0000000000000000
     0.0000000000000000    0.0000000000000000    9.7495550000000009
 Li  Ca  Al  F  
   2   2   2  12
Cartesian
  2.5415890000000001  1.4673902681079998  2.4373887500000002
  2.5415890000000001 -1.4673902681079998  7.3121662500000006
  0.0000000000000000  0.0000000000000000  0.0000000000000000
  0.0000000000000000  0.0000000000000000  4.8747775000000004
  2.5415890000000001 -1.4673902681079998  2.4373887500000002
  2.5415890000000001  1.4673902681079998  7.3121662500000006
  1.0347876286380000 -1.5165183960280000  1.3954440575950002
  3.2524409442320001  0.1378933224879999  6.2702215575949998
  3.3375384271300002  2.7477502814839996  6.2702215575949998
  1.0347876286380000  1.5165183960279998  6.2702215575949998
  4.0483903713620002 -1.5165183960280000  3.4793334424050002
  3.3375384271300002 -2.7477502814839996  1.3954440575950002
  3.2524409442320001 -0.1378933224880001  1.3954440575950002
  1.7456395728700000 -2.7477502814840000  3.4793334424050002
  1.7456395728700000  2.7477502814840000  8.3541109424050006
  1.8307370557680001 -0.1378933224879999  3.4793334424050002
  4.0483903713620002  1.5165183960279995  8.3541109424050006
  1.8307370557680001  0.1378933224879998  8.3541109424050006
