Zn Ga Ir
 1.0000000000000000
     0.0000000000000000    3.0122149999999999    3.0122149999999999
     3.0122149999999999    0.0000000000000000    3.0122149999999999
     3.0122149999999999    3.0122149999999999    0.0000000000000000
 Zn  Ga  Ir 
   1   1   2
Cartesian
  4.5183164755699998  4.5183164755699998  4.5183164755699998
  1.5061135244299997  1.5061135244299997  1.5061135244299997
  0.0000000000000000  0.0000000000000000  0.0000000000000000
  3.0122149999999999  3.0122149999999999  3.0122149999999999
