Er Pd
 1.0000000000000000
     4.0686629999999999    0.0000000000000000    0.0000000000000000
     0.0000000000000000    4.0686619999999998    0.0000000000000000
     0.0000000000000000    0.0000000000000000    4.0686619999999998
 Er  Pd 
   1   3
Cartesian
  0.0000000000000000  0.0000000000000000  0.0000000000000000
  2.0343315000000000  0.0000000000000000  2.0343309999999999
  0.0000000000000000  2.0343309999999999  2.0343309999999999
  2.0343315000000000  2.0343309999999999  0.0000000000000000
