Cu Se
 1.0000000000000000
     4.3178900000000002   -0.0000010000000000    0.0000010000000000
    -0.0000010000000000    6.3250390000000003   -0.0000040000000000
     0.0000020000000000   -0.0000070000000000    6.3250400000000004
 Cu  Se 
   6   4
Cartesian
  4.3178856821079998  0.0000116500790000  0.0000009999910000
  4.3178861821140000  3.1625023499160005  3.1625253250470005
  3.2815408360550000  0.9101255830270000  2.2533526097750003
  1.0363554064140001  2.2533268612350006  5.4148971841900000
  1.0363536945040002  4.0716920086730006  0.9101266457660000
  3.2815406988049998  5.4149175470699999  4.0716912352310004
  1.1425700197680000  1.7007125546470001  1.4613490807490002
  3.1753214046170006  1.4613501324850000  4.6243314308150003
  3.1753242601330007  4.8636803967400004  1.7007060399600000
  1.1425706333720000  4.6243189161270006  4.8636874484770010
