Tm Pd
 1.0000000000000000
     3.4394740000000001    0.0000000000000000    0.0000000000000000
     0.0000000000000000    3.4394740000000001    0.0000000000000000
     0.0000000000000000    0.0000000000000000    3.4394740000000001
 Tm  Pd 
   1   1
Cartesian
  1.7197370000000001  1.7197370000000001  1.7197370000000001
  0.0000000000000000  0.0000000000000000  0.0000000000000000
