Ce Co C 
 1.0000000000000000
     2.6682150000000000    2.6617459999999999    0.0162590000000000
    -2.6685400000000001    2.6620750000000002    0.0161260000000000
     0.0000800000000000    1.4031920000000000    7.2212120000000004
 Ce  Co  C  
   2   2   4
Cartesian
 -2.3017046297500001  2.6606902585130001  0.0200577648200000
  2.3014386544400001  3.3620486059560002  3.6308653137720004
 -0.3749662974650000  3.3382608368480002  5.0349754143469996
  0.3747063827199999  2.6364823446569998  1.4240699116020001
 -0.4068643710349999  3.3591442796650002  3.1029843331030000
  0.4068066100399999  4.0608088540980001  6.7133733139559997
 -0.9718514078600000  3.9606850790829999  1.9986395374300001
  0.9713464514800001  4.6620484342879998  5.6090552590520000
