Mg Pd Rh
 1.0000000000000000
    -0.0011350000000000    3.1092730000000000    3.1092730000000000
     3.1092730000000000   -0.0011350000000000    3.1092730000000000
     3.1092730000000000    3.1092730000000000   -0.0011350000000000
 Mg  Pd  Rh 
   2   1   1
Cartesian
  3.1088858049189994  3.1088858049189998  3.1088858049189998
  6.2172244776700003  6.2172244776700003  6.2172244776699994
  1.5543403151780000  1.5543403151780000  1.5543403151780000
  4.6630769022329996  4.6630769022329996  4.6630769022329996
