Er H 
 1.0000000000000000
     3.1208079999999998    0.0000000000000000    1.8017989999999999
     1.0402700000000000    2.9423270000000001    1.8017989999999999
     0.0000000000000000    0.0000000000000000    3.6036000000000001
 Er  H  
   1   2
Cartesian
  0.0000000000000000  0.0000000000000000  0.0000000000000000
  3.1208084999999999  2.2067452500000000  5.4053985000000004
  1.0402695000000000  0.7355817500000000  1.8017995000000000
