Tb S 
 1.0000000000000000
     3.3906559999999999    0.0000000000000000    1.9575959999999999
     1.1302179999999999    3.1967400000000001    1.9575959999999999
     0.0000000000000000    0.0000000000000000    3.9151910000000001
 Tb  S  
   1   1
Cartesian
  2.2604370000000000  1.5983700000000001  3.9151914999999997
  0.0000000000000000  0.0000000000000000  0.0000000000000000
