Li Sc Au
 1.0000000000000000
     0.0000060000000000    3.2680370000000001    3.2680400000000001
     3.2680340000000001    0.0000040000000000    3.2680430000000000
     3.2680330000000000    3.2680380000000002    0.0000040000000000
 Li  Sc  Au 
   1   1   2
Cartesian
  1.6340182500000000  1.6340197500000002  1.6340217499999998
  4.9020514819600001  4.9020559819590002  4.9020587139170004
  3.2680299639270003  3.2680329639210002  3.2680369639130000
  3.2680297319669998  3.2680347319620000  0.0000039999960000
