Ho Al Si
 1.0000000000000000
     3.7904019999999998   -0.0000000000000000    1.4776750000000001
     1.1546909999999999    4.7513899999999998    2.6383290000000001
     0.0173840000000000    0.0655670000000000    5.5556450000000002
 Ho  Al  Si 
   2   1   2
Cartesian
  3.8255434992000001  3.4219662527999999  6.9877713096000003
  1.1369335008000001  1.3949907472000000  2.6838776904000001
  0.0000000000000000  0.0000000000000000  0.0000000000000000
  2.2417773738430000  1.4218737815269999  5.4500683011160005
  2.7206996261570002  3.3950832184730002  4.2215806988839999
