Nb Sn
 1.0000000000000000
     5.7252570000000000    0.0000000000000000    0.0000000000000000
     0.0000000000000000    9.9348779999999994    0.0000000000000000
     0.0000000000000000    0.0000000000000000   19.3361920000000005
 Nb  Sn 
  16  32
Cartesian
  1.4313142500000000  2.4837194999999999  7.2908852193279996
  4.2939427500000003  2.4837194999999999 12.0453067806720000
  0.0000000000000000  4.9674389999999997  7.2112587806720008
  2.8626285000000000  4.9674389999999997  2.4568372193280004
  1.4313142500000000  7.4511585000000000 16.9589812193280025
  4.2939427500000003  7.4511585000000000  2.3772107806719998
  0.0000000000000000  0.0000000000000000 16.8793547806719992
  2.8626285000000000  0.0000000000000000 12.1249332193280015
  4.2939427500000003  2.4837194999999999 16.9589812193280025
  1.4313142500000000  2.4837194999999999  2.3772107806719998
  2.8626285000000000  4.9674389999999997 16.8793547806719992
  0.0000000000000000  4.9674389999999997 12.1249332193280015
  4.2939427500000003  7.4511585000000000  7.2908852193279996
  1.4313142500000000  7.4511585000000000 12.0453067806720000
  2.8626285000000000  0.0000000000000000  7.2112587806720008
  0.0000000000000000  0.0000000000000000  2.4568372193280004
  1.4313142500000000  4.1589982376279995  4.8340480000000001
  4.2939427500000003  5.7758797623719991  4.8340480000000001
  0.0000000000000000  3.2921602623719997  9.6680960000000002
  2.8626285000000000  1.6752787376279998  9.6680960000000002
  4.2939427500000003  2.4837194999999999  3.2347708958719998
  4.2939427500000003  2.4837194999999999  6.4333251041279995
  2.8626285000000000  4.9674389999999997 11.2673731041280014
  2.8626285000000000  4.9674389999999997  8.0688188958720009
  1.4313142500000000  9.1264372376280001 14.5021440000000013
  4.2939427500000003  0.8084407623720000 14.5021440000000013
  0.0000000000000000  8.2595992623719994  0.0000000000000000
  2.8626285000000000  6.6427177376279998  0.0000000000000000
  4.2939427500000003  7.4511585000000000 12.9028668958720001
  4.2939427500000003  7.4511585000000000 16.1014211041280006
  2.8626285000000000  0.0000000000000000  1.5992771041280001
  2.8626285000000000  0.0000000000000000 17.7369148958720011
  4.2939427500000003  4.1589982376279995 14.5021440000000013
  1.4313142500000000  5.7758797623719991 14.5021440000000013
  2.8626285000000000  3.2921602623719997  0.0000000000000000
  0.0000000000000000  1.6752787376279998  0.0000000000000000
  1.4313142500000000  2.4837194999999999 12.9028668958720001
  1.4313142500000000  2.4837194999999999 16.1014211041280006
  0.0000000000000000  4.9674389999999997  1.5992771041280001
  0.0000000000000000  4.9674389999999997 17.7369148958720011
  4.2939427500000003  9.1264372376280001  4.8340480000000001
  1.4313142500000000  0.8084407623720000  4.8340480000000001
  2.8626285000000000  8.2595992623719994  9.6680960000000002
  0.0000000000000000  6.6427177376279998  9.6680960000000002
  1.4313142500000000  7.4511585000000000  3.2347708958719998
  1.4313142500000000  7.4511585000000000  6.4333251041279995
  0.0000000000000000  0.0000000000000000 11.2673731041280014
  0.0000000000000000  0.0000000000000000  8.0688188958720009
