As Pd Pb
 1.0000000000000000
     5.8528900000000004    0.0000000000000000    0.0000000000000000
     0.0000000000000000    5.9871960000000000   -3.4850639999999999
     0.0000000000000000   -0.0380080000000000    6.9275359999999999
 As  Pd  Pb 
   2   6   4
Cartesian
  4.1236068263800005  4.1956767353759998  2.4278102629439999
  1.1971618263800001  1.7535112646240001  1.0146617370560000
  5.8394576174499999  3.9780002005999999  0.6193786126879995
  2.9130126174500002  1.9711877994000002  2.8230933873119999
  0.1190828999400000  5.6397350369919996  3.2634083764480000
  3.0455278999400002  0.3094529630080000  0.1790636235520000
  5.8394576174499999  2.5193043374039998  3.1402586600880005
  2.9130126174500002  3.4298836625960001  0.3022133399120001
  1.8135296722800003  0.0542826818160000  4.5039119753760000
  4.7399746722800007  5.8949053181839997 -1.0614399753760002
  4.7399746722800007  2.0172708051079997  5.6397865940239997
  1.8135296722800003  3.9319171948919998 -2.1973145940239998
