Pu Ge
 1.0000000000000000
     4.2602050000000000    0.0000000000000000    0.0000000000000000
     0.0000000000000000    4.2602039999999999    0.0000000000000000
     0.0000000000000000    0.0000000000000000    4.2602039999999999
 Pu  Ge 
   1   3
Cartesian
  0.0000000000000000  0.0000000000000000  0.0000000000000000
  0.0000000000000000  2.1301019999999999  2.1301019999999999
  2.1301025000000000  2.1301019999999999  0.0000000000000000
  2.1301025000000000  0.0000000000000000  2.1301019999999999
