Dy Fe Si
 1.0000000000000000
     4.0392229999999998    0.0000000000000000    0.0000000000000000
     0.0000000000000000    4.0392229999999998    0.0000000000000000
     0.0000000000000000    0.0000000000000000    6.3843959999999997
 Dy  Fe  Si 
   2   2   2
Cartesian
  1.0098057499999999  1.0098057499999999  4.3920303090720001
  3.0294172499999998  3.0294172499999998  1.9923656909280001
  3.0294172499999998  1.0098057499999999  0.0000000000000000
  1.0098057499999999  3.0294172499999998  0.0000000000000000
  3.0294172499999998  3.0294172499999998  5.2431596774160001
  1.0098057499999999  1.0098057499999999  1.1412363225839999
