Zr Fe P 
 1.0000000000000000
     4.5599410000000002   -7.8981260000000004   -0.0000000000000000
     4.5599629999999998    7.8982630000000000   -0.0000000000000000
    -0.0000000000000000    0.0000000000000000    3.4676730000000000
 Zr  Fe  P  
   2  12   7
Cartesian
  4.5599501199480006 -7.8980944070849999  0.0000000000000000
  4.5599511059189997  2.6322286971959992  1.7338365000000000
  2.2241335901529999  2.3855014013320002  0.0000000000000000
  5.5142973303349994  4.7792882263039997  0.0000000000000000
  5.9416640764519997  0.7331364841189987  3.4676730000000000
  6.5385401098499996 -1.7394159305079995  0.0000000000000000
  4.3437032810379996 -4.7928593023980000  3.4676730000000000
  2.7975058507249999 -1.3652793678349999  3.4676730000000000
  3.7912386527129995  5.6873493567889994  1.7338365000000000
  7.5890941006019998  1.7711893422930001  1.7338365000000000
  2.2995023270539998  0.4398849950220001  1.7338365000000000
  5.9843072884510002 -3.5886522290720007  1.7338365000000000
  3.0197368541210006 -3.3881300119810001  1.7338365000000000
  4.6757415789430006 -0.9205670060829998  1.7338365000000000
  3.2886616794240000  4.3492375930660003  3.4676730000000000
  6.6820892658830005  2.8753038172909995  3.4676730000000000
  3.7091570936120002  0.6733925967839998  0.0000000000000000
  7.0146100717020001 -0.4088157479450003  1.7338365000000000
  5.2583323920870004 -5.8707042679569996  1.7338365000000000
  1.4069253361139999 -1.6183663072270000  1.7338365000000000
  4.5598343348670003 -2.6324234231460002  3.4676730000000000
