Nb Co
 1.0000000000000000
     6.7436509999999998    0.0000000000000000    0.0000000000000000
     0.0000000000000000    6.7436509999999998    0.0000050000000000
     0.0000000000000000    0.0000050000000000    6.7436520000000000
 Nb  Co 
   8  16
Cartesian
  2.5288691249999999  2.5288710000000001  2.5288713750000000
  0.8429563750000000  0.8429595000000000  4.2147831250000003
  2.5288691249999999  5.9006989999999995  5.9006998749999999
  0.8429563750000000  4.2147825000000001  0.8429596250000000
  5.9006946249999999  2.5288735000000000  5.9006973750000000
  4.2147818749999999  0.8429570000000000  0.8429571250000000
  5.9006946249999999  5.9006964999999996  2.5288738749999999
  4.2147818749999999  4.2147850000000000  4.2147856250000002
  1.6859127500000000  1.6859127500000000  0.0000012500000000
  3.3718254999999999  3.3718254999999999  0.0000025000000000
  1.6859127500000000  3.3718292499999998  5.0577414999999997
  0.0000000000000000  1.6859139999999999  1.6859142499999999
  1.6859127500000000  5.0577407499999998  3.3718297499999998
  3.3718254999999999  0.0000025000000000  3.3718260000000000
  1.6859127500000000  0.0000012500000000  1.6859130000000000
  0.0000000000000000  5.0577420000000002  5.0577427500000001
  5.0577382499999999  1.6859152499999999  3.3718272499999999
  0.0000000000000000  3.3718279999999998  3.3718284999999999
  5.0577382499999999  3.3718267499999999  1.6859154999999999
  3.3718254999999999  1.6859165000000000  5.0577402500000002
  5.0577382499999999  5.0577382499999999  0.0000037500000000
  0.0000000000000000  0.0000000000000000  0.0000000000000000
  5.0577382499999999  0.0000037500000000  5.0577389999999998
  3.3718254999999999  5.0577395000000003  1.6859167500000001
