In Hg Te
 1.0000000000000000
     5.7985350000000002    0.0000780000000000   -2.5935630000000001
    -1.1600900000000001    5.6813359999999999   -2.5934910000000002
    -0.0195730000000000   -0.0240720000000000    7.7350320000000004
 In  Hg  Te 
   2   1   4
Cartesian
  0.5697797500000000  4.2489854999999999  1.2740070000000001
  2.3192225000000000  2.8407070000000001 -2.5935269999999999
  0.0000000000000000  0.0000000000000000  0.0000000000000000
  3.9459215090390001  5.1386946151879993 -2.4686355208830006
  1.9515229614140002  2.0847481334660003  0.0964244227439998
 -0.1501867093540000  3.3281328572060001  3.8456787733140003
  3.4904931975259998  0.7631027128820000  3.6224883247530002
