Ho Cu Sn
 1.0000000000000000
     2.2459129999999998   -3.8900350000000001    0.0000000000000000
     2.2459129999999998    3.8900350000000001    0.0000000000000000
     0.0000000000000000    0.0000000000000000    7.2485770000000000
 Ho  Cu  Sn 
   2   2   2
Cartesian
  0.0000000000000000  0.0000000000000000  7.1940024637670001
  0.0000000000000000  0.0000000000000000  3.5697139637670001
  2.2459129999999998 -1.2966809266899999  2.3089254746950001
  2.2459129999999998  1.2966809266900001  5.9332139746950006
  2.2459129999999998 -1.2966809266899999  5.2406776795379999
  2.2459129999999998  1.2966809266900001  1.6163891795380001
