Hf Cu Te
 1.0000000000000000
     3.9970599999999998    0.0000000000000000   -0.8026590000000000
    -0.1993990000000000    7.2327610000000000   -0.9929600000000000
     0.0073340000000000   -0.1487880000000000   10.3900780000000008
 Hf  Cu  Te 
   2   4   6
Cartesian
  2.5752938112079997  0.3380663580360000  2.4708444795400002
  1.2297011887919997  6.7459066419639999  6.1236145204600003
  2.7722565917440005  2.9974116231779999  3.4516441560960005
  1.0327384082560001  4.0865613768219999  5.1428148439039996
  0.1665048434120000  1.0611781186459999  0.8291463399310002
  3.6384901565880003  6.0227948813539998  7.7653126600690001
  2.8472753579170003  5.5844625184789995  3.8252212944970010
  3.6439696728469997  1.1627962554470002  7.7925877997650010
  2.2650843119299999  2.5838943168599999  0.9260409331030002
  0.9577196420829999  1.4995104815210001  4.7692377055030004
  1.5399106880700000  4.5000786831399999  7.6684180668970008
  0.1610253271530000  5.9211767445529997  0.8018712002350001
