Si Ni
 1.0000000000000000
     3.2984270000000002    0.0000000000000000    1.9043479999999999
     1.0994750000000000    3.1097880000000000    1.9043479999999999
     0.0000000000000000    0.0000000000000000    3.8086970000000000
 Si  Ni 
   2   1
Cartesian
  3.2984265000000001  2.3323410000000000  5.7130447499999999
  1.0994755000000000  0.7774470000000000  1.9043482500000000
  0.0000000000000000  0.0000000000000000  0.0000000000000000
