Rb I 
 1.0000000000000000
     7.4928660000000002    0.0000000000000000    0.0000000000000000
     0.0000000000000000    7.4928660000000002    0.0000000000000000
     0.0000000000000000    0.0000000000000000    7.4928660000000002
 Rb  I  
   4   4
Cartesian
  0.0000000000000000  0.0000000000000000  0.0000000000000000
  0.0000000000000000  3.7464330000000001  3.7464330000000001
  3.7464330000000001  0.0000000000000000  3.7464330000000001
  3.7464330000000001  3.7464330000000001  0.0000000000000000
  0.0000000000000000  0.0000000000000000  3.7464330000000001
  0.0000000000000000  3.7464330000000001  0.0000000000000000
  3.7464330000000001  0.0000000000000000  0.0000000000000000
  3.7464330000000001  3.7464330000000001  3.7464330000000001
