Sc Re
 1.0000000000000000
     5.3044440000000002    0.0000000000000000    0.0000000000000000
    -2.6522220000000001    4.5937830000000002    0.0000000000000000
     0.0000000000000000    0.0000000000000000    8.6047100000000007
 Sc  Re 
   4   8
Cartesian
 -0.0000026522220000  3.0625235312610002  3.7644487637700004
  2.6522246522220003  1.5312594687390000  8.0668037637700003
  2.6522246522220003  1.5312594687390000  4.8402612362300008
 -0.0000026522220000  3.0625235312610002  0.5379062362300000
  1.2850095156660002  3.8044194857610001  6.4535325000000006
  1.3672124843340001  0.7893635142390001  2.1511775000000002
  3.9372262112220002  0.7893635142390001  2.1511775000000002
  0.0000026522220000  1.5787224346950000  6.4535325000000006
 -1.2850042112219999  3.8044194857610001  6.4535325000000006
  2.6522193477780003  3.0150605653050002  2.1511775000000002
  0.0000000000000000  0.0000000000000000  4.3023550000000004
  0.0000000000000000  0.0000000000000000  0.0000000000000000
