Os
 1.0000000000000000
     2.7599529999999999    0.0000000000000000    0.0000000000000000
    -1.3799770000000000    2.3901900000000000    0.0000000000000000
     0.0000000000000000    0.0000000000000000    4.3545069999999999
 Os 
   2
Cartesian
  1.3799777133100000  0.7967292032700000  3.2658802499999999
 -0.0000017133100001  1.5934607967300001  1.0886267500000000
