Cd Pt
 1.0000000000000000
     3.0062400000000000    0.0000000000000000    0.0000000000000000
     0.0000000000000000    3.0062400000000000    0.0000000000000000
     0.0000000000000000    0.0000000000000000    3.9061480000000000
 Cd  Pt 
   1   1
Cartesian
  0.0000000000000000  0.0000000000000000  0.0000000000000000
  1.5031200000000000  1.5031200000000000  1.9530740000000000
