Li Hg
 1.0000000000000000
     6.5558319999999997    0.0000000000000000    0.0000000000000000
     0.0000000000000000    6.5558319999999997    0.0000000000000000
     0.0000000000000000    0.0000000000000000    6.5558319999999997
 Li  Hg 
  12   4
Cartesian
  4.9168740000000000  1.6389579999999999  1.6389579999999999
  0.0000000000000000  0.0000000000000000  3.2779159999999998
  1.6389579999999999  4.9168740000000000  4.9168740000000000
  4.9168740000000000  4.9168740000000000  4.9168740000000000
  0.0000000000000000  3.2779159999999998  0.0000000000000000
  1.6389579999999999  1.6389579999999999  1.6389579999999999
  1.6389579999999999  1.6389579999999999  4.9168740000000000
  3.2779159999999998  0.0000000000000000  0.0000000000000000
  4.9168740000000000  4.9168740000000000  1.6389579999999999
  1.6389579999999999  4.9168740000000000  1.6389579999999999
  3.2779159999999998  3.2779159999999998  3.2779159999999998
  4.9168740000000000  1.6389579999999999  4.9168740000000000
  0.0000000000000000  0.0000000000000000  0.0000000000000000
  0.0000000000000000  3.2779159999999998  3.2779159999999998
  3.2779159999999998  0.0000000000000000  3.2779159999999998
  3.2779159999999998  3.2779159999999998  0.0000000000000000
