Rb N 
 1.0000000000000000
     5.3111509999999997   -0.0313250000000000   -2.4039000000000001
    -3.0933440000000001    4.8356450000000004   -1.0229290000000000
    -0.0196290000000000    0.0306750000000000    5.8307190000000002
 Rb  N  
   2   6
Cartesian
 -2.3347328237150000  3.6497448049700005  3.6058356463519998
 -0.7782401762850001  1.2165751950300001  1.2019543536480000
  2.6457609999999998 -0.0003250000000000  1.7134095000000000
  1.1089034999999998  2.4021600000000003 -1.7134145000000001
  2.1053097704759995  3.0395444673150003 -1.7134230385700000
  2.2380665161149995  0.6370014158300000  0.8043484829280000
 -0.0398885161150004  4.1979935841700007  1.5995415170719998
  0.0928682295240000  1.7954505326850001  4.1173130385699999
