Sr Si
 1.0000000000000000
     6.5434150000000004    0.0000000000000000    0.0000000000000000
     0.0000000000000000    6.5434150000000004    0.0000000000000000
     0.0000000000000000    0.0000000000000000    6.5434150000000004
 Sr  Si 
   4   8
Cartesian
  4.0896343750000002  2.4537806250000003  5.7254881250000000
  2.4537806250000003  5.7254881250000000  4.0896343750000002
  5.7254881250000000  4.0896343750000002  2.4537806250000003
  0.8179268750000001  0.8179268750000001  0.8179268750000001
  5.4181962697700010  5.4181962697700010  5.4181962697700010
  3.7823425197700007  6.0327799802299999  0.5106350197700000
  6.0327799802299999  0.5106350197700000  3.7823425197700007
  0.5106350197700000  3.7823425197700007  6.0327799802299999
  2.7610724802300002  2.7610724802300002  2.7610724802300002
  1.1252187302300001  2.1464887697699999  4.3969262302300001
  4.3969262302300001  1.1252187302300001  2.1464887697699999
  2.1464887697699999  4.3969262302300001  1.1252187302300001
