Nd Si Ni
 1.0000000000000000
     3.7702960000000001    0.0000000000000000   -1.4571590000000001
    -0.5631690000000000    3.7279990000000001   -1.4571590000000001
    -0.0144580000000000   -0.0168080000000000    5.5688540000000000
 Nd  Si  Ni 
   1   2   2
Cartesian
  0.0000000000000000  0.0000000000000000  0.0000000000000000
  2.0228013274679997  2.3513255783379998 -0.3724171939539999
  1.1698676725320001  1.3598654216619999  3.0269531939539998
  2.6797007499999999  0.9235957500000000  1.3272679999999999
  0.5129682500000000  2.7875952499999999  1.3272679999999999
