Pr Ag Hg
 1.0000000000000000
     0.0000000000000000    3.8063449999999999    3.8063449999999999
     3.8063449999999999    0.0000000000000000    3.8063449999999999
     3.8063449999999999    3.8063449999999999    0.0000000000000000
 Pr  Ag  Hg 
   2   1   1
Cartesian
  0.0000000000000000  0.0000000000000000  0.0000000000000000
  3.8063373873100002  3.8063373873100002  3.8063373873100002
  1.9031724999999999  1.9031724999999999  1.9031724999999999
  5.7095251126899997  5.7095251126899997  5.7095251126899997
