Dy Co B 
 1.0000000000000000
     5.0229749999999997    0.0000300000000000    0.0000000000000000
    -2.5114619999999999    4.3499900000000000    0.0000000000000000
     0.0000000000000000    0.0000000000000000    2.9284479999999999
 Dy  Co  B  
   1   3   2
Cartesian
  0.0000000000000000  0.0000000000000000  0.0000000000000000
  2.5114874999999999  0.0000150000000000  1.4642240000000000
  1.2557564999999999  2.1750099999999999  1.4642240000000000
 -1.2557309999999999  2.1749950000000000  1.4642240000000000
  0.0000898332990002  2.9000308838000000  0.0000000000000000
  2.5114231667009999  1.4499891162000000  0.0000000000000000
