Er Fe Si
 1.0000000000000000
     3.6258650000000001    0.0000000000000000   -1.3264410000000000
    -0.4852490000000000    3.5932469999999999   -1.3264410000000000
    -0.0047510000000000   -0.0054360000000000    5.6059359999999998
 Er  Fe  Si 
   1   2   2
Cartesian
  0.0000000000000000  0.0000000000000000  0.0000000000000000
  0.5401540000000000  2.6922172499999997  1.4765269999999999
  2.5957110000000001  0.8955937500000000  1.4765269999999999
  1.9689927408690004  2.2527673033140001 -0.2366191973640001
  1.1668722591309999  1.3350436966860000  3.1896731973639998
