Hf Tc W 
 1.0000000000000000
     0.0000000000000000    3.1728660000000000    3.1728660000000000
     3.1728660000000000    0.0000000000000000    3.1728660000000000
     3.1728660000000000    3.1728660000000000    0.0000000000000000
 Hf  Tc  W  
   1   2   1
Cartesian
  3.1728660000000000  3.1728660000000000  3.1728660000000000
  1.5864330000000000  1.5864330000000000  1.5864330000000000
  4.7592990000000004  4.7592990000000004  4.7592990000000004
  0.0000000000000000  0.0000000000000000  0.0000000000000000
