Li Hf Pt
 1.0000000000000000
     0.0000000000000000    3.1684640000000002    3.1684640000000002
     3.1684640000000002    0.0000000000000000    3.1684640000000002
     3.1684640000000002    3.1684640000000002    0.0000000000000000
 Li  Hf  Pt 
   1   1   2
Cartesian
  4.7526896630720001  4.7526896630720001  4.7526896630720001
  1.5842320000000001  1.5842320000000001  1.5842320000000001
  0.0000000000000000  0.0000000000000000  0.0000000000000000
  3.1684576630720005  3.1684576630720005  3.1684576630720005
