Li Cu Si
 1.0000000000000000
     5.7699350000000003    0.0000000000000000    0.0000000000000000
     0.0000000000000000    5.7699350000000003    0.0000000000000000
     0.0000000000000000    0.0000000000000000    5.7699350000000003
 Li  Cu  Si 
   4   8   4
Cartesian
  0.0000000000000000  0.0000000000000000  2.8849675000000001
  0.0000000000000000  2.8849675000000001  0.0000000000000000
  2.8849675000000001  0.0000000000000000  0.0000000000000000
  2.8849675000000001  2.8849675000000001  2.8849675000000001
  4.3274512500000002  1.4424837500000001  1.4424837500000001
  1.4424837500000001  1.4424837500000001  1.4424837500000001
  4.3274512500000002  4.3274512500000002  4.3274512500000002
  1.4424837500000001  4.3274512500000002  4.3274512500000002
  1.4424837500000001  1.4424837500000001  4.3274512500000002
  4.3274512500000002  1.4424837500000001  4.3274512500000002
  1.4424837500000001  4.3274512500000002  1.4424837500000001
  4.3274512500000002  4.3274512500000002  1.4424837500000001
  0.0000000000000000  0.0000000000000000  0.0000000000000000
  0.0000000000000000  2.8849675000000001  2.8849675000000001
  2.8849675000000001  0.0000000000000000  2.8849675000000001
  2.8849675000000001  2.8849675000000001  0.0000000000000000
