Li Ca Al
 1.0000000000000000
     0.0000000000000000    3.8097539999999999    3.8097539999999999
     3.8097539999999999    0.0000000000000000    3.8097539999999999
     3.8097539999999999    3.8097539999999999    0.0000000000000000
 Li  Ca  Al 
   1   2   1
Cartesian
  5.7146309999999998  5.7146309999999998  5.7146309999999998
  3.8097539999999999  3.8097539999999999  3.8097539999999999
  0.0000000000000000  0.0000000000000000  0.0000000000000000
  1.9048693804919998  1.9048693804919998  1.9048693804919998
