Rb As F 
 1.0000000000000000
     4.9184359999999998   -0.0213430000000000   -0.6037420000000000
    -0.6797990000000000    4.8712799999999996   -0.6037320000000000
    -0.0186510000000000   -0.0213520000000000    4.9553180000000001
 Rb  As  F  
   1   1   6
Cartesian
  2.1099929999999998  2.4142924999999997  1.8739220000000001
  0.0000000000000000  0.0000000000000000  0.0000000000000000
  0.7726144659209999  1.3788942686360002  4.2768518339180002
  0.7855407497650000  4.4837446463399999  0.2621217250680000
 -0.1760944508600001  3.8782787947909996  2.9987558409020001
  3.4344452502349996  0.3448403536600000  3.4857222749320003
  3.4473715340790001  3.4496907313639995 -0.5290078339180000
  4.3960804508600004  0.9503062052090000  0.7490881590980001
