Rb Hg F 
 1.0000000000000000
     4.3722180000000002    0.0000000000000000   -1.3745590000000001
    -0.4321400000000000    4.3508120000000003   -1.3745590000000001
    -0.0103840000000000   -0.0114650000000000    7.6078640000000002
 Rb  Hg  F  
   2   1   4
Cartesian
  1.4075888216360002  1.5543241857790002  4.4772908564839993
  2.5221051783640003  2.7850228142210005  0.3814551435159997
  0.0000000000000000  0.0000000000000000  0.0000000000000000
  0.6421436593259999  0.7090845032970000  2.0425494568740001
  3.2875503406739996  3.6302624967030002  2.8161965431260003
  2.1861090000000001  0.0000000000000000 -0.6872795000000000
 -0.2160700000000000  2.1754060000000002 -0.6872795000000000
