Sm Hg
 1.0000000000000000
     6.6979839999999999   -0.0000010000000000    0.0000000000000000
    -3.3489930000000001    5.8006229999999999    0.0000000000000000
     0.0000000000000000    0.0000000000000000    4.9961359999999999
 Sm  Hg 
   2   6
Cartesian
  0.0000026823249998  3.8670836002070001  3.7471019999999999
  3.3489916666660005  1.9335442004150001  1.2490290038640000
 -0.0000003272780000  1.8984161305550000  1.2490290038640000
  1.7049107089839999  4.8514083795589995  1.2490290038640000
 -1.7049056837200001  4.8514088886400000  1.2490290038640000
  3.3489812803010004  3.9022116700689997  3.7471019999999999
  1.6440769420229999  0.9492194210640000  3.7471019999999999
  5.0538933347270003  0.9492189119830000  3.7471019999999999
