Mn Sb
 1.0000000000000000
     4.0378460000000000    0.0000000000000000    0.0000000000000000
     0.0000000000000000    4.0378460000000000    0.0000000000000000
     0.0000000000000000    0.0000000000000000    6.7910570000000003
 Mn  Sb 
   4   2
Cartesian
  1.0094615000000000  3.0283845000000000  0.0000000000000000
  3.0283845000000000  1.0094615000000000  0.0000000000000000
  1.0094615000000000  1.0094615000000000  2.0624575930140003
  3.0283845000000000  3.0283845000000000  4.7285994069860005
  1.0094615000000000  1.0094615000000000  4.8374260954110007
  3.0283845000000000  3.0283845000000000  1.9536309045890001
