Ac Tl Te
 1.0000000000000000
     0.0000000000000000    4.0739690000000000    4.0739690000000000
     4.0739690000000000    0.0000000000000000    4.0739690000000000
     4.0739690000000000    4.0739690000000000    0.0000000000000000
 Ac  Tl  Te 
   1   1   2
Cartesian
  2.0369845000000000  2.0369845000000000  2.0369845000000000
  6.1109534999999999  6.1109534999999999  6.1109534999999999
  4.0739690000000000  4.0739690000000000  4.0739690000000000
  0.0000000000000000  0.0000000000000000  0.0000000000000000
