Nb Co Sb
 1.0000000000000000
     5.9835219999999998    0.0000000000000000    0.0000000000000000
     0.0000000000000000    5.9835219999999998    0.0000000000000000
     0.0000000000000000    0.0000000000000000    5.9835219999999998
 Nb  Co  Sb 
   4   4   4
Cartesian
  0.0000000000000000  0.0000000000000000  0.0000000000000000
  0.0000000000000000  2.9917609999999999  2.9917609999999999
  2.9917609999999999  0.0000000000000000  2.9917609999999999
  2.9917609999999999  2.9917609999999999  0.0000000000000000
  1.4958804999999999  4.4876414999999996  1.4958804999999999
  1.4958804999999999  1.4958804999999999  4.4876414999999996
  4.4876414999999996  4.4876414999999996  4.4876414999999996
  4.4876414999999996  1.4958804999999999  1.4958804999999999
  0.0000000000000000  0.0000000000000000  2.9917609999999999
  0.0000000000000000  2.9917609999999999  0.0000000000000000
  2.9917609999999999  0.0000000000000000  0.0000000000000000
  2.9917609999999999  2.9917609999999999  2.9917609999999999
