Sc Ru C 
 1.0000000000000000
     3.3189030000000002    0.0000000000000000    0.0000000000000000
     0.0000000000000000    4.5144409999999997    0.0000000000000000
     0.0000000000000000    0.0000000000000000   12.4301709999999996
 Sc  Ru  C  
   6   2   8
Cartesian
  0.0000000000000000  0.0000000000000000 10.0752253833659999
  0.0000000000000000  0.0000000000000000  2.3549456166340001
  0.0000000000000000  2.2572204999999999  0.0000000000000000
  1.6594515000000001  2.2572204999999999  3.8601398833659997
  1.6594515000000001  2.2572204999999999  8.5700311166340004
  1.6594515000000001  0.0000000000000000  6.2150854999999998
  1.6594515000000001  0.0000000000000000  0.0000000000000000
  0.0000000000000000  2.2572204999999999  6.2150854999999998
  1.6594515000000001  2.9716488460139998  1.6059532328580000
  1.6594515000000001  1.5427921539859999 10.8242177671419988
  1.6594515000000001  2.9716488460139998 10.8242177671419988
  1.6594515000000001  1.5427921539859999  1.6059532328580000
  0.0000000000000000  0.7144283460140000  7.8210387328579998
  0.0000000000000000  3.8000126539859997  4.6091322671419999
  0.0000000000000000  0.7144283460140000  4.6091322671419999
  0.0000000000000000  3.8000126539859997  7.8210387328579998
