Ir
 1.0000000000000000
     3.8766159999999998    0.0000000000000000    0.0000000000000000
     0.0000000000000000    3.8766159999999998    0.0000000000000000
     0.0000000000000000    0.0000000000000000    3.8766159999999998
 Ir 
   4
Cartesian
  0.0000000000000000  0.0000000000000000  0.0000000000000000
  0.0000000000000000  1.9383079999999999  1.9383079999999999
  1.9383079999999999  0.0000000000000000  1.9383079999999999
  1.9383079999999999  1.9383079999999999  0.0000000000000000
