Fe As
 1.0000000000000000
     3.3939919999999999    0.0000000000000000    0.0000000000000000
     0.0000000000000000    5.5794150000000000   -0.0031150000000000
     0.0000000000000000   -0.0033870000000000    6.0236200000000002
 Fe  As 
   4   4
Cartesian
  2.5454939999999997  5.5284701790569999  4.8873624893500001
  0.8484980000000000  0.0475410725370000  1.1331605908550002
  2.5454939999999997  2.7445658948160001  4.1436024335349995
  0.8484980000000000  2.8314342352050001  1.8768543930799999
  2.5454939999999997  4.4971826991119990  2.5255655913900004
  0.8484980000000000  1.0789736646899999  3.4948730771450003
  2.5454939999999997  1.7087995174350001  0.4794897537450000
  0.8484980000000000  3.8671391611200003  5.5411056503950000
