Li Ac Si
 1.0000000000000000
     0.0000000000000000    3.8988559999999999    3.8988559999999999
     3.8988559999999999    0.0000000000000000    3.8988559999999999
     3.8988559999999999    3.8988559999999999    0.0000000000000000
 Li  Ac  Si 
   1   2   1
Cartesian
  1.9494279999999999  1.9494279999999999  1.9494279999999999
  3.8988482022880002  3.8988482022880002  3.8988482022880002
  0.0000000000000000  0.0000000000000000  0.0000000000000000
  5.8482839999999996  5.8482839999999996  5.8482839999999996
