Zr Ag
 1.0000000000000000
     3.1468250000000002    0.0000000000000000   -0.8239630000000000
    -0.2157460000000000    3.1394210000000000   -0.8239630000000000
     0.0109990000000000    0.0117810000000000    6.4630640000000001
 Zr  Ag 
   2   1
Cartesian
  1.9458781235910003  2.0841918022690002  1.0105025765859998
  0.9961998764090001  1.0670101977310000  3.8046354234139996
  0.0000000000000000  0.0000000000000000  0.0000000000000000
