Sr Cu O 
 1.0000000000000000
    -1.9256620000000000    1.9256620000000000    6.1388980000000002
     1.9256620000000000   -1.9256620000000000    6.1388980000000002
     1.9256620000000000    1.9256620000000000   -6.1388980000000002
 Sr  Cu  O  
   2   1   4
Cartesian
 -0.0000000000000000  0.0000000000000000  4.4079988755119999
  0.0000000000000000 -0.0000000000000000  7.8697971244880005
  0.0000000000000000  0.0000000000000000  0.0000000000000000
  0.0000000000000000  1.9256620000000000  0.0000000000000000
 -0.0000000000000000  0.0000000000000000  1.9152256758360000
  0.0000000000000000 -0.0000000000000000 10.3625703241640004
  1.9256620000000000  0.0000000000000000  0.0000000000000000
