Ba Mg U  O 
 1.0000000000000000
     0.0000000000000000    4.2391340000000000    4.2391340000000000
     4.2391340000000000    0.0000000000000000    4.2391340000000000
     4.2391340000000000    4.2391340000000000    0.0000000000000000
 Ba  Mg  U   O  
   2   1   1   6
Cartesian
  2.1195670000000000  2.1195670000000000  2.1195670000000000
  6.3587009999999999  6.3587009999999999  6.3587009999999999
  0.0000000000000000  0.0000000000000000  0.0000000000000000
  4.2391340000000000  4.2391340000000000  4.2391340000000000
  4.2391340000000000  6.3361064157799998  4.2391340000000000
  4.2391340000000000  4.2391340000000000  2.1421615842199997
  4.2391340000000000  4.2391340000000000  6.3361064157799998
  2.1421615842199997  4.2391340000000000  4.2391340000000000
  4.2391340000000000  2.1421615842199997  4.2391340000000000
  6.3361064157799998  4.2391340000000000  4.2391340000000000
