Ho Si Ni
 1.0000000000000000
     3.9269930000000000    0.0000000000000000    0.0000000000000000
     0.0000000000000000    3.8570980000000001   -0.9269200000000000
     0.0000000000000000   -0.0190130000000000    8.4094180000000005
 Ho  Si  Ni 
   2   4   2
Cartesian
  0.9817482500000000  3.4332747871899998  5.7980193985840005
  2.9452447500000001  0.4048102128100000  1.6844786014160003
  0.9817482500000000  0.9545579700530001  3.9720965352020001
  2.9452447500000001  2.8835270299470004  3.5104014647980000
  2.9452447500000001  1.7554860927359999  7.3049257843080007
  0.9817482500000000  2.0825989072639999  0.1775722156920001
  2.9452447500000001  1.2324565632050002  5.1284876948580003
  0.9817482500000000  2.6056284367950004  2.3540103051419998
