Co Sn S 
 1.0000000000000000
     4.6233890000000004   -0.0161310000000000    2.6529699999999998
     1.5288770000000000    4.3631739999999999    2.6528719999999999
    -0.0227820000000000   -0.0162170000000000    5.3303200000000004
 Co  Sn  S  
   3   2   2
Cartesian
  2.3116945000000002 -0.0080655000000000  1.3264849999999999
  0.7644385000000000  2.1815869999999999  1.3264359999999999
 -0.0113910000000000 -0.0081085000000000  2.6651600000000002
  3.0647420000000003  2.1654130000000000  5.3180810000000003
  0.0000000000000000  0.0000000000000000  0.0000000000000000
  4.4103503649620004  3.1162071291339997  7.6531068394219997
  1.7191336350380002  1.2146188708660002  2.9830551605780000
