Mo Rh
 1.0000000000000000
     2.7660890000000000    0.0000000000000000    0.0000000000000000
     0.0000000000000000    4.4455869999999997    0.0000000000000000
     0.0000000000000000    0.0000000000000000    4.8480590000000001
 Mo  Rh 
   2   2
Cartesian
  0.0000000000000000  3.3341902499999998  4.0191815047109998
  0.0000000000000000  1.1113967499999999  0.8288774952890001
  1.3830445000000000  3.3341902499999998  1.5784601375739999
  1.3830445000000000  1.1113967499999999  3.2695988624259997
