Ta Mn S 
 1.0000000000000000
     3.3408820000000001   -5.7865570000000002   -0.0000030000000000
     3.3408820000000001    5.7865570000000002    0.0000020000000000
    -0.0000030000000000    0.0000050000000000   12.5582379999999993
 Ta  Mn  S  
   8   2  16
Cartesian
  3.3408830906960003 -0.0769863905750003  9.4194565774929995
  1.7371610046050001  2.8547586397460001  3.1387944208540000
  4.9445981548760001  2.8547528531940003  3.1388064990609998
  1.7371127318880000 -2.8547767859690003  9.4194556174099997
  4.9446467677400001 -2.8547767859690003  9.4194551373669988
  3.3408812501800003  0.0770434695980001  3.1388055390049998
 -0.0000022502460000  0.0000037504100000  9.4197082755159993
  6.6817599093669999  0.0000070361419998  3.1385161662490000
 -0.0000014999910000  0.0000024999850000  6.2790813252859996
  3.3408819999940000 -5.7865569999900002  0.0000221164760000
  3.3408808815339999 -3.8363234032939997  4.6819852502060000
  4.9928067134900003 -0.9751140021879998  4.6819862391219997
  1.6889483678140000 -0.9751140021880000  4.6819867335809997
  4.9926047600510000  0.9752359624130005 10.9632786569459988
  1.6888774463200000  0.9750784961290001  7.8758488972559997
  3.3408793810150001  3.8360981700990004 10.9632801401399984
  1.6891573428610001  0.9752417489700002 10.9632791513459988
  3.3408816188920003 -3.8360815968299997  1.5953461652430001
  1.6891595807349999 -0.9752367488100001  1.5953602066670001
  4.9928827908039999  0.9750784961289997  7.8758484027749995
  3.3408816320770001  1.9288568042430003  1.5401551998929999
  3.3408801316420003 -1.9288530771080001  7.8210934777329992
  3.3408793678690003 -1.9288518041530003 11.0183078483909984
  3.3408808684119999  1.9288580770180002  4.7369174739829996
  4.9925969752790005 -0.9752367488099998  1.5953597122710002
  3.3408834594440000  3.8364152014889998  7.8758498862149997
