Na Co O 
 1.0000000000000000
     4.8951589999999996    0.0000000000000000    0.0000000000000000
     0.0000000000000000    6.0886259999999996    0.0000000000000000
     0.0000000000000000    0.0000000000000000   11.4008400000000005
 Na  Co  O  
   4   8  16
Cartesian
  3.1318101395430000  1.5221564999999999  2.8502100000000001
  1.7633488604570000  4.5664695000000002  8.5506300000000000
  0.0310450983780000  4.5664695000000002  2.8502100000000001
  4.8641139016219999  1.5221564999999999  8.5506300000000000
  2.4475794999999998  0.0000000000000000  5.7004200000000003
  2.4475794999999998  3.0443129999999998  0.0000000000000000
  2.4475794999999998  3.0443129999999998  5.7004200000000003
  2.4475794999999998  0.0000000000000000  0.0000000000000000
  4.8502850774469994  4.5664695000000002  5.8476846502799997
  4.8502850774469994  4.5664695000000002 11.2535753497200002
  0.0448739225530000  1.5221564999999999  5.5531553497199999
  0.0448739225530000  1.5221564999999999  0.1472646502800000
  3.9609619612809994  6.0547549735619999  4.6432885118400007
  3.9609619612809994  3.0781840264379996  1.0571314881600000
  0.9341970387190000  3.0104419735620001  6.7575514881600007
  0.9341970387190000  0.0338710264380000 10.3437085118400010
  0.9341970387190000  0.0338710264380000  6.7575514881600007
  0.9341970387190000  3.0104419735620001 10.3437085118400010
  3.9609619612809994  3.0781840264379996  4.6432885118400007
  3.9609619612809994  6.0547549735619999  1.0571314881600000
  3.2888762112169996  1.5221564999999999  6.6140947184400005
  3.2888762112169996  1.5221564999999999 10.4871652815600012
  1.6062827887830000  4.5664695000000002  4.7867452815600000
  1.6062827887830000  4.5664695000000002  0.9136747184400000
  1.5509821775599999  1.5221564999999999  1.1532975735600000
  1.5509821775599999  1.5221564999999999  4.5471224264400005
  3.3441768224399997  4.5664695000000002 10.2475424264400008
  3.3441768224399997  4.5664695000000002  6.8537175735600000
