Ce Al
 1.0000000000000000
     4.7340510000000000    0.0000000000000000    0.0000000000000000
     0.0000000000000000    4.7340190000000000    0.0000000000000000
     0.0000000000000000    0.0000000000000000    4.7340939999999998
 Ce  Al 
   3   1
Cartesian
  2.3670255000000000  2.3670095000000000  0.0000000000000000
  2.3670255000000000  0.0000000000000000  2.3670469999999999
  0.0000000000000000  2.3670095000000000  2.3670469999999999
  0.0000000000000000  0.0000000000000000  0.0000000000000000
