Na Ag O 
 1.0000000000000000
     4.9630929999999998    0.0000000000000000   -2.1813560000000001
    -1.1251800000000001    5.1558419999999998   -2.5600489999999998
    -0.0055000000000000    0.0013490000000000    6.7242620000000004
 Na  Ag  O  
   6   2   4
Cartesian
  3.7595954275670000  0.0546276712090000  1.8171884818830002
  2.2002514999999998  1.2889605000000000 -1.7306902499999999
  3.1970054275669999  2.6325486712089998  0.5371639818830005
  0.0728175724329999  5.1025633287909997  0.1656685181170003
  1.6376614999999999  3.8668814999999999 -3.0107147500000000
  0.6354075724329999  2.5246423287910003  1.4456930181170002
 -0.5625900000000000  2.5779209999999999 -1.2800244999999999
  0.0000000000000000  0.0000000000000000  0.0000000000000000
  0.2760258150840000  1.8795862658619999  3.6640852944080002
  1.8822600626060000  0.6996837341380000  0.5818679141120002
  3.5563871849159994  3.2776047341379999 -1.6812282944079995
  1.9501529373940001  4.4575072658619996  1.4009890858880001
