Be Al B 
 1.0000000000000000
     3.0295950000000000    0.0000000000000000    1.7491369999999999
     1.0098640000000001    2.8563299999999998    1.7491369999999999
     0.0000000000000000    0.0000000000000000    3.4982760000000002
 Be  Al  B  
   1   1   1
Cartesian
  2.0197295000000000  1.4281649999999999  3.4982750000000000
  0.0000000000000000  0.0000000000000000  0.0000000000000000
  1.0098647500000000  0.7140825000000000  1.7491375000000000
