Ba Nb O 
 1.0000000000000000
     4.1335730000000002    0.0000000000000000    0.0000000000000000
     0.0000000000000000    4.1335730000000002    0.0000000000000000
     0.0000000000000000    0.0000000000000000    4.1335730000000002
 Ba  Nb  O  
   1   1   3
Cartesian
  0.0000000000000000  0.0000000000000000  0.0000000000000000
  2.0667865000000001  2.0667865000000001  2.0667865000000001
  2.0667865000000001  0.0000000000000000  2.0667865000000001
  2.0667865000000001  2.0667865000000001  0.0000000000000000
  0.0000000000000000  2.0667865000000001  2.0667865000000001
