Ca Hg
 1.0000000000000000
     3.8074550000000000    0.0000000000000000    0.0000000000000000
     0.0000000000000000    3.8074550000000000    0.0000000000000000
     0.0000000000000000    0.0000000000000000    3.8074550000000000
 Ca  Hg 
   1   1
Cartesian
  0.0000000000000000  0.0000000000000000  0.0000000000000000
  1.9037275000000000  1.9037275000000000  1.9037275000000000
