Pd S  O 
 1.0000000000000000
     3.1801330000000001    3.7426290000000000    0.1375570000000000
    -3.1801330000000001    3.7426290000000000    0.1375570000000000
     0.0000000000000000    1.1621760000000001    7.6903210000000000
 Pd  S   O  
   2   2   8
Cartesian
 -1.5900665000000000  2.4524024999999998  3.9139390000000001
  1.5900665000000000  1.8713145000000000  0.0687785000000000
 -2.7079341316279999  4.6142609999999999  5.9052977499999999
  2.7079341316279999  4.0331729999999997  2.0601372499999999
 -0.3441794343239999  7.1307527551740000  6.3072189628349999
 -0.3441794343240001  2.0977692448259999  5.5033765371649999
  0.3441794343240000  1.5166812448260001  1.6582160371650001
  0.3441794343239999  6.5496647551739997  2.4620584628350004
  1.8585714894560001  4.3285360950719998  3.2572438544579998
  1.8585746695890002  3.7378136475570001  0.8630307830989999
 -1.8585746695890000  4.3189016475570003  4.7081912830990005
 -1.8585746695890000  4.9096203524430004  7.1024042169009993
