Tl Cu S 
 1.0000000000000000
     3.6282890000000001   -0.0000000000000000   -0.9857840000000000
    -0.2678320000000000    3.6183900000000002   -0.9857840000000000
     0.0299430000000000    0.0322410000000000    7.2802619999999996
 Tl  Cu  S  
   1   2   2
Cartesian
  0.0000000000000000  0.0000000000000000  0.0000000000000000
  0.7211697500000001  2.7299130000000003  2.6543469999999996
  2.6692302500000000  0.9207180000000000  2.6543469999999996
  2.1864016701700000  2.3542195766490002  0.8772502897459997
  1.2039983298300001  1.2964114233510002  4.4314437102539994
