Zr Cd Au
 1.0000000000000000
     0.0000000000000000    3.3668439999999999    3.3668439999999999
     3.3668439999999999    0.0000000000000000    3.3668439999999999
     3.3668439999999999    3.3668439999999999    0.0000000000000000
 Zr  Cd  Au 
   1   1   2
Cartesian
  5.0502727336879998  5.0502727336879998  5.0502727336879998
  1.6834287336879998  1.6834287336879998  1.6834287336879998
  3.3668439999999999  3.3668439999999999  3.3668439999999999
  0.0000000000000000  0.0000000000000000  0.0000000000000000
