Fe Sb
 1.0000000000000000
     3.2936899999999998    0.0000000000000000    0.0000000000000000
     0.0000000000000000    5.7751279999999996    0.0000000000000000
     0.0000000000000000    0.0000000000000000    6.5066660000000001
 Fe  Sb 
   2   4
Cartesian
  0.0000000000000000  0.0000000000000000  0.0000000000000000
  1.6468449999999999  2.8875639999999998  3.2533330000000000
  0.0000000000000000  1.1413674222799999  2.3094109633800000
  0.0000000000000000  4.6337605777199995  4.1972550366200005
  1.6468449999999999  1.7461965777199999  5.5627439633800000
  1.6468449999999999  4.0289314222799995  0.9439220366200001
