Cr Si
 1.0000000000000000
     9.0770579999999992    0.0000000000000000    0.0000000000000000
     0.0000000000000000    9.0770579999999992    0.0000000000000000
     0.0000000000000000    0.0000000000000000    4.5825779999999998
 Cr  Si 
  20  12
Cartesian
  4.5385289999999996  0.0000000000000000  3.4369334999999999
  4.5385289999999996  0.0000000000000000  1.1456445000000000
  0.6914630472659999  2.0704950839159997  0.0000000000000000
  7.0065629160839995  0.6914630472659999  0.0000000000000000
  2.0704950839159997  8.3855949527339995  0.0000000000000000
  8.3855949527339995  7.0065629160839995  0.0000000000000000
  7.0065629160839995  8.3855949527339995  2.2912889999999999
  2.0704950839159997  0.6914630472659999  2.2912889999999999
  8.3855949527339995  2.0704950839159997  2.2912889999999999
  0.6914630472659999  7.0065629160839995  2.2912889999999999
  0.0000000000000000  4.5385289999999996  1.1456445000000000
  0.0000000000000000  4.5385289999999996  3.4369334999999999
  5.2299920472660002  6.6090240839159993  2.2912889999999999
  2.4680339160839995  5.2299920472660002  2.2912889999999999
  6.6090240839159993  3.8470659527339999  2.2912889999999999
  3.8470659527339999  2.4680339160839995  2.2912889999999999
  2.4680339160839995  3.8470659527339999  0.0000000000000000
  6.6090240839159993  5.2299920472660002  0.0000000000000000
  3.8470659527339999  6.6090240839159993  0.0000000000000000
  5.2299920472660002  2.4680339160839995  0.0000000000000000
  0.0000000000000000  0.0000000000000000  1.1456445000000000
  0.0000000000000000  0.0000000000000000  3.4369334999999999
  1.5192453515759998  6.0577743515759988  0.0000000000000000
  3.0192836484239995  1.5192453515759998  0.0000000000000000
  1.5192453515759998  3.0192836484239995  2.2912889999999999
  3.0192836484239995  7.5578126484240000  2.2912889999999999
  4.5385289999999996  4.5385289999999996  3.4369334999999999
  4.5385289999999996  4.5385289999999996  1.1456445000000000
  6.0577743515759988  1.5192453515759998  2.2912889999999999
  7.5578126484240000  6.0577743515759988  2.2912889999999999
  6.0577743515759988  7.5578126484240000  0.0000000000000000
  7.5578126484240000  3.0192836484239995  0.0000000000000000
