Sm Ta O 
 1.0000000000000000
     5.2027229999999998    0.0012530000000000    0.0000000000000000
    -0.6289800000000000    5.3571809999999997    0.0000000000000000
     0.0000000000000000    0.0000000000000000    5.5392710000000003
 Sm  Ta  O  
   2   2   8
Cartesian
 -0.4717350000000000  4.0178857499999996  4.2349388576300004
 -0.1572450000000000  1.3392952499999999  1.3043321423700001
  2.4441164999999998  1.3399217500000000  3.8274590043280003
  2.1296265000000001  4.0185122499999997  1.7118119956719999
  3.7817588804489994  0.0559627300750000  3.1090432519830005
  1.1064741195509999  2.6238807699250000  3.1090432519830005
  0.7919841195509999  5.3024712699250003  2.4302277480169998
  3.4672688804489997  2.7345532300749995  2.4302277480169998
  0.9447075497550002  3.2460424051089998  0.4866304966210000
  3.3145454502450002  4.7909820948909996  0.4866304966210000
  3.6290354502450000  2.1123915948909997  5.0526405033790001
  1.2591975497550001  0.5674519051090000  5.0526405033790001
