Cd Se
 1.0000000000000000
     6.2086209999999999    0.0000000000000000    0.0000000000000000
     0.0000000000000000    6.2086209999999999    0.0000000000000000
     0.0000000000000000    0.0000000000000000    6.2086209999999999
 Cd  Se 
   4   4
Cartesian
  0.0000000000000000  0.0000000000000000  0.0000000000000000
  0.0000000000000000  3.1043105000000000  3.1043105000000000
  3.1043105000000000  0.0000000000000000  3.1043105000000000
  3.1043105000000000  3.1043105000000000  0.0000000000000000
  4.6564657499999997  1.5521552500000000  1.5521552500000000
  4.6564657499999997  4.6564657499999997  4.6564657499999997
  1.5521552500000000  1.5521552500000000  4.6564657499999997
  1.5521552500000000  4.6564657499999997  1.5521552500000000
