Ba Zn Ge
 1.0000000000000000
     4.4341010000000001    0.0000000000000000    0.0000000000000000
    -2.2170500000000000    3.8400449999999999    0.0000000000000000
     0.0000000000000000    0.0000000000000000    9.8078690000000002
 Ba  Zn  Ge 
   2   2   2
Cartesian
  0.0000000000000000  0.0000000000000000  4.9039345000000001
  0.0000000000000000  0.0000000000000000  0.0000000000000000
  2.2170528837169998  1.2800137199849999  2.4519672500000000
 -0.0000018837170001  2.5600312800150000  7.3559017500000001
 -0.0000018837170001  2.5600312800150000  2.4519672500000000
  2.2170528837169998  1.2800137199849999  7.3559017500000001
