Ba Zr S 
 1.0000000000000000
     7.0635610000000000    0.0000000000000000    0.0000000000000000
     0.0000000000000000    7.1344890000000003    0.0000000000000000
     0.0000000000000000    0.0000000000000000   10.0418240000000001
 Ba  Zr  S  
   4   4  12
Cartesian
  0.0618061587500000  0.3069756582030000  2.5104560000000000
  3.5935866587500001  3.2602688417970001  7.5313680000000005
  3.4699743412499999  3.8742201582030003  2.5104560000000000
  7.0017548412499995  6.8275133417970002  7.5313680000000005
  3.5317805000000000  0.0000000000000000  0.0000000000000000
  0.0000000000000000  3.5672445000000002  0.0000000000000000
  0.0000000000000000  3.5672445000000002  5.0209120000000000
  3.5317805000000000  0.0000000000000000  5.0209120000000000
  3.9619301742169997  7.0928093152620004  2.5104560000000000
  0.4301496742170000  3.6089241847380005  7.5313680000000005
  6.6334113257830003  3.5255648152619998  2.5104560000000000
  3.1016308257830003  0.0416796847380000  7.5313680000000005
  5.5563242266980000  1.5214725861840002  9.7222831184959997
  2.0245437266980000  2.0457719138160000  0.3195408815040000
  5.0390172733020000  5.0887170861840003  5.3404528815039995
  1.5072367733020000  5.6130164138160001  4.7013711184960005
  1.5072367733020000  5.6130164138160001  0.3195408815040000
  5.0390172733020000  5.0887170861840003  9.7222831184959997
  2.0245437266980000  2.0457719138160000  4.7013711184960005
  5.5563242266980000  1.5214725861840002  5.3404528815039995
