Cs Na Sc F 
 1.0000000000000000
    -4.4964480000000000   -4.4964480000000000    0.0000000000000000
    -4.4964480000000000    0.0000000000000000   -4.4964480000000000
     0.0000000000000000   -4.4964480000000000   -4.4964480000000000
 Cs  Na  Sc  F  
   2   1   1   6
Cartesian
 -2.2482240000000000 -2.2482240000000000 -2.2482240000000000
 -6.7446719999999996 -6.7446719999999996 -6.7446719999999996
 -4.4964480000000000 -4.4964480000000000 -4.4964480000000000
  0.0000000000000000  0.0000000000000000  0.0000000000000000
 -6.9375156618240004 -4.4964480000000000 -4.4964480000000000
 -4.4964480000000000 -4.4964480000000000 -6.9375156618240004
 -2.0553803381760001 -4.4964480000000000 -4.4964480000000000
 -4.4964480000000000 -6.9375156618240004 -4.4964480000000000
 -4.4964480000000000 -2.0553803381760001 -4.4964480000000000
 -4.4964480000000000 -4.4964480000000000 -2.0553803381760001
