Er Co C 
 1.0000000000000000
     3.4941659999999999    0.0000000000000000    0.0000000000000000
     0.0000000000000000    3.5639210000000001   -1.0437120000000000
     0.0000000000000000    0.0087670000000000    3.7135959999999999
 Er  Co  C  
   1   1   2
Cartesian
  0.0000000000000000  3.5328845055799998 -1.0021807011599999
  1.7470829999999999  2.1687505848559998  0.8232269222880000
  1.7470829999999999  1.6208972787539999  2.7057386364320002
  1.7470829999999999  0.5185872686099999  1.8819779668399998
