Ti Mn Ir
 1.0000000000000000
     0.0000050000000000    3.0342730000000002    3.0342739999999999
     3.0342730000000002    0.0000050000000000    3.0342750000000001
     3.0342730000000002    3.0342730000000002    0.0000050000000000
 Ti  Mn  Ir 
   2   1   1
Cartesian
  6.0685510000000003  6.0685510000000003  6.0685539999999998
  3.0342694314540006  3.0342724657220002  3.0342739657200002
  4.5514193185460003  4.5514162842779999  4.5514185342799998
  1.5171377500000001  1.5171377500000001  1.5171384999999999
