Al F 
 1.0000000000000000
     1.4997710000000000    4.0163180000000001    7.6555210000000002
    -2.7702680000000002    4.0051860000000001    5.0207069999999998
    -1.4791380000000001   -4.0045659999999996   -2.6366809999999998
 Al  F  
   2   6
Cartesian
 -1.3285042944830001  5.0117752526480004  7.5930038121999992
 -1.4215035410420001 -0.9946341416339999  2.4464210784210003
 -3.3709265110820001  2.3576691717380003  6.0039507401589995
 -3.1354710052530006  2.0036695355700003  3.4931236455030001
 -0.2355471903660001  0.3587537377040003  2.5100386651720004
 -0.7645077322620000  3.6600410110620007  6.5469958736250007
 -2.4966567703510001 -0.0011650756200000  1.3995706646459998
 -1.1303292256580002  1.6579255300360005  5.0199286965020002
