Ac Mg Cd
 1.0000000000000000
     0.0000000000000000    3.8142190000000000    3.8142190000000000
     3.8142190000000000    0.0000000000000000    3.8142190000000000
     3.8142190000000000    3.8142190000000000    0.0000000000000000
 Ac  Mg  Cd 
   1   1   2
Cartesian
  1.9071095000000000  1.9071095000000000  1.9071095000000000
  5.7213285000000003  5.7213285000000003  5.7213285000000003
  3.8142266284380004  3.8142266284380004  3.8142266284380004
  0.0000000000000000  0.0000000000000000  0.0000000000000000
