Nd As
 1.0000000000000000
     3.7016170000000002   -0.0000000000000000    2.1371289999999998
     1.2338720000000001    3.4899179999999999    2.1371289999999998
     0.0000000000000000    0.0000000000000000    4.2742579999999997
 Nd  As 
   1   1
Cartesian
  2.4677445000000002  1.7449589999999999  4.2742579999999997
  0.0000000000000000  0.0000000000000000  0.0000000000000000
