Sm Tm Tl
 1.0000000000000000
    -0.0000060000000000    3.7858280000000000    3.7858299999999998
     3.7858230000000002   -0.0000030000000000    3.7858280000000000
     3.7858239999999999    3.7858260000000001   -0.0000040000000000
 Sm  Tm  Tl 
   1   1   2
Cartesian
  1.8929102499999999  1.8929127500000000  1.8929134999999999
  5.6787269641710001  5.6787420358310001  5.6787405000019993
  0.0000000000000000  0.0000000000000000  0.0000000000000000
  3.7858167141819998  3.7858179283460003  3.7858232141740000
