Ba In
 1.0000000000000000
     4.6967930000000004    0.0000000000000000   -1.7993870000000001
    -0.6893629999999999    4.6459270000000004   -1.7993870000000001
    -0.0097830000000000   -0.0113410000000000    7.0039840000000000
 Ba  In 
   1   4
Cartesian
  0.0000000000000000  0.0000000000000000  0.0000000000000000
  0.6522845000000002  3.4787747500000004  1.7026049999999999
  2.4734614520160001  2.8675540215300002 -0.5732464019640000
  1.5241855479840001  1.7670319784700002  3.9784564019639999
  3.3453625000000007  1.1558112500000002  1.7026049999999999
