Ba Pd S 
 1.0000000000000000
     5.6590129999999998    0.0000000000000000    0.0000000000000000
     0.0000000000000000    5.7836679999999996   -2.7131430000000001
     0.0000000000000000   -0.0218310000000000    6.3883859999999997
 Ba  Pd  S  
   2   2   4
Cartesian
  4.2442597499999994  2.0016698709509999  3.2160571685789998
  1.4147532500000000  3.7601671290489995  0.4591858314209999
  2.8295064999999999  0.0000000000000000  0.0000000000000000
  0.0000000000000000  0.0000000000000000  0.0000000000000000
  4.2442597499999994  4.9526142015960000  1.9513661166239995
  1.4147532500000000  0.8092227984040000  1.7238768833759996
  4.2442597499999994  1.9043489077679998  0.0070008589320000
  1.4147532500000000  3.8574880922319998  3.6682421410679997
