Lu Pd
 1.0000000000000000
     3.4096270000000000    0.0000000000000000    0.0000000000000000
     0.0000000000000000    3.4096270000000000    0.0000000000000000
     0.0000000000000000    0.0000000000000000    3.4096270000000000
 Lu  Pd 
   1   1
Cartesian
  0.0000000000000000  0.0000000000000000  0.0000000000000000
  1.7048135000000000  1.7048135000000000  1.7048135000000000
