Na Sc O 
 1.0000000000000000
     3.0315110000000001   -0.0046810000000000    4.8154450000000004
     1.3860220000000001    2.6961130000000000    4.8154450000000004
    -0.0076840000000000   -0.0046810000000000    5.6902119999999998
 Na  Sc  O  
   1   1   2
Cartesian
  2.2049245000000002  1.3433754999999998  7.6605509999999999
  0.0000000000000000  0.0000000000000000  0.0000000000000000
  3.2428309704890004  1.9757319021110000 11.2665408878220017
  1.1670180295110000  0.7110190978890001  4.0545611121780007
