Si Ru
 1.0000000000000000
    10.1934360000000002    0.0000000000000000    0.0000000000000000
     0.0000000000000000    8.1279970000000006    0.0000000000000000
     0.0000000000000000    0.0000000000000000    8.2327969999999997
 Si  Ru 
  32  16
Cartesian
  8.8918667374679998  1.8096660200620003  4.5806870868149998
  8.8918667374679998  5.8736645200620003  7.7685084131849997
  8.8918667374679998  6.3183309799380005  3.6521099131849999
  1.2920587867440001  0.4150073988230000  2.2666619028369999
  3.8046592132560004  0.4150073988230000  1.8497365971629998
  6.3887767867440006  0.4150073988230000  1.8497365971629998
  1.3015692625319999  1.8096660200620003  4.5806870868149998
  8.9013772132559996  7.7129896011770009  5.9661350971629998
  8.9013772132559996  0.4150073988230000  2.2666619028369999
  1.2920587867440001  7.7129896011770009  5.9661350971629998
  1.3015692625319999  2.2543324799380002  0.4642885868150000
  6.3887767867440006  7.7129896011770009  6.3830604028369997
  3.8046592132560004  7.7129896011770009  6.3830604028369997
  8.8918667374679998  2.2543324799380002  0.4642885868150000
  1.3015692625319999  5.8736645200620003  7.7685084131849997
  1.3015692625319999  6.3183309799380005  3.6521099131849999
  3.7951487374680002  5.8736645200620003  4.5806870868149998
  3.7951487374680002  1.8096660200620003  7.7685084131849997
  3.7951487374680002  2.2543324799380002  3.6521099131849999
  6.3887767867440006  4.4790058988229999  2.2666619028369999
  8.9013772132559996  4.4790058988229999  1.8497365971629998
  1.2920587867440001  4.4790058988229999  1.8497365971629998
  6.3982872625320004  5.8736645200620003  4.5806870868149998
  3.8046592132560004  3.6489911011770002  5.9661350971629998
  3.8046592132560004  4.4790058988229999  2.2666619028369999
  6.3887767867440006  3.6489911011770002  5.9661350971629998
  6.3982872625320004  6.3183309799380005  0.4642885868150000
  1.2920587867440001  3.6489911011770002  6.3830604028369997
  8.9013772132559996  3.6489911011770002  6.3830604028369997
  3.7951487374680002  6.3183309799380005  0.4642885868150000
  6.3982872625320004  1.8096660200620003  7.7685084131849997
  6.3982872625320004  2.2543324799380002  3.6521099131849999
  2.9077795533600002  0.0000000000000000  4.1163984999999998
  2.1889384466399999  0.0000000000000000  0.0000000000000000
  0.0000000000000000  2.5327895291610001  2.6146951632150000
  7.2856564466400009  0.0000000000000000  4.1163984999999998
  0.0000000000000000  6.5967880291610008  1.5017033367850001
  0.0000000000000000  5.5952074708390001  5.6181018367849997
  8.0044975533600002  0.0000000000000000  0.0000000000000000
  0.0000000000000000  1.5312089708390002  6.7310936632149998
  8.0044975533600002  4.0639985000000003  4.1163984999999998
  7.2856564466400009  4.0639985000000003  0.0000000000000000
  5.0967180000000001  6.5967880291610008  2.6146951632150000
  2.1889384466399999  4.0639985000000003  4.1163984999999998
  5.0967180000000001  2.5327895291610001  1.5017033367850001
  5.0967180000000001  1.5312089708390002  5.6181018367849997
  2.9077795533600002  4.0639985000000003  0.0000000000000000
  5.0967180000000001  5.5952074708390001  6.7310936632149998
