Mg Al Ir
 1.0000000000000000
     0.0000000000000000    3.0306129999999998    3.0306129999999998
     3.0306129999999998    0.0000000000000000    3.0306129999999998
     3.0306129999999998    3.0306129999999998    0.0000000000000000
 Mg  Al  Ir 
   1   1   2
Cartesian
  4.5459255612259994  4.5459255612259994  4.5459255612259994
  1.5153064999999999  1.5153064999999999  1.5153064999999999
  0.0000000000000000  0.0000000000000000  0.0000000000000000
  3.0306190612260000  3.0306190612260000  3.0306190612260000
