Dy B  Ir
 1.0000000000000000
    -0.0302260000000000    0.0000000000000000   -3.1499839999999999
    -2.7154500000000001   -4.7032829999999999    0.0261380000000000
    -2.7154500000000001    4.7032829999999999    0.0261380000000000
 Dy  B   Ir 
   1   2   3
Cartesian
 -2.7305630000000001  0.0000000000000000 -1.5488540000000000
 -2.7305630000000005 -3.1355188644779997 -1.5488540000000000
 -2.7305630000000001  3.1355188644779997 -1.5488540000000000
 -1.3577250000000001 -2.3516414999999999  0.0130690000000000
 -1.3577250000000001  2.3516414999999999  0.0130690000000000
  0.0000000000000000  0.0000000000000000  0.0000000000000000
