Zr B 
 1.0000000000000000
     3.1675249999999999    0.0000000000000000    0.0000000000000000
    -1.5837610000000000    2.7431570000000001    0.0000000000000000
     0.0000000000000000    0.0000000000000000    3.5523880000000001
 Zr  B  
   1   2
Cartesian
  0.0000000000000000  0.0000000000000000  0.0000000000000000
 -0.0000005837620000  1.8287722477190000  1.7761940000000001
  1.5837645837620002  0.9143847522810000  1.7761940000000001
