Li Ni Ge
 1.0000000000000000
     3.4368379999999998    0.0000000000000000    1.9842590000000000
     1.1456130000000000    3.2402820000000001    1.9842590000000000
     0.0000000000000000    0.0000000000000000    3.9685190000000001
 Li  Ni  Ge 
   1   2   1
Cartesian
  2.2912254999999999  1.6201410000000001  3.9685185000000001
  1.1456127500000000  0.8100705000000000  1.9842592500000000
  3.4368382500000001  2.4302115000000000  5.9527777500000001
  0.0000000000000000  0.0000000000000000  0.0000000000000000
