Dy Mg
 1.0000000000000000
     4.4544020000000000    0.0000000000000000    2.5717509999999999
     1.4848010000000000    4.1996500000000001    2.5717509999999999
     0.0000000000000000    0.0000000000000000    5.1435009999999997
 Dy  Mg 
   1   3
Cartesian
  0.0000000000000000  0.0000000000000000  0.0000000000000000
  4.4544022500000002  3.1497375000000001  7.7152522499999998
  2.9696015000000000  2.0998250000000001  5.1435014999999993
  1.4848007500000000  1.0499125000000000  2.5717507499999996
