Nb Sb
 1.0000000000000000
     7.9230679999999998    0.0000000000000000   -6.6655319999999998
     0.0000000000000000    3.6765200000000000    0.0000000000000000
     0.0001110000000000    0.0000000000000000    9.5345920000000000
 Nb  Sb 
   4   8
Cartesian
  0.3055821539090000  0.0000000000000000  1.5565213717999999
  7.6175968460910006  0.0000000000000000  1.3125386282000000
  4.2671161539089999  1.8382600000000000 -1.7762446282000002
  3.6560628460909999  1.8382600000000000  4.6453046281999999
  1.6371242409410001  1.8382600000000000 -0.3128017603760000
  6.2860547590589997  1.8382600000000000  3.1818617603759995
  0.8964119786879999  1.8382600000000000  3.6719041130120003
  7.0267670213119997  1.8382600000000000 -0.8028441130119991
  5.5986582409409991  0.0000000000000000 -3.6455677603759993
  2.3245207590590002  0.0000000000000000  6.5146277603759994
  4.8579459786880008  0.0000000000000000  0.3391381130120003
  3.0652330213119998  0.0000000000000000  2.5299218869880002
