Zr Ta B 
 1.0000000000000000
     1.5630690000000000   -2.7073160000000001    0.0000000000000000
     1.5630690000000000    2.7073160000000001    0.0000000000000000
     0.0000000000000000    0.0000000000000000    6.8556350000000004
 Zr  Ta  B  
   1   1   4
Cartesian
  0.0000000000000000  0.0000000000000000  3.4278175000000002
  0.0000000000000000  0.0000000000000000  0.0000000000000000
  1.5630690000000000 -0.9024404715440001  5.2075334903650008
  1.5630690000000000 -0.9024404715440001  1.6481015096350000
  1.5630690000000000  0.9024404715440000  5.2075334903650008
  1.5630690000000000  0.9024404715440000  1.6481015096350000
