Ta Ru
 1.0000000000000000
     0.0000010000000000    3.2182860000000000    3.2182849999999998
     3.2182860000000000    0.0000000000000000    3.2182860000000000
     3.2182870000000001    3.2182879999999998   -0.0000010000000000
 Ta  Ru 
   3   1
Cartesian
  0.0000000000000000  0.0000000000000000  0.0000000000000000
  3.2182805634260001  3.2182805634260001  3.2182785634300002
  1.6091435000000001  1.6091435000000001  1.6091424999999999
  4.8274240634260002  4.8274240634259993  4.8274210634300001
