Mo Ir
 1.0000000000000000
     2.7609300000000001    0.0000000000000000    0.0000000000000000
     0.0000000000000000    4.4458940000000000    0.0000000000000000
     0.0000000000000000    0.0000000000000000    4.8210230000000003
 Mo  Ir 
   2   2
Cartesian
  0.0000000000000000  1.1114735000000000  0.8239755039990001
  0.0000000000000000  3.3344205000000002  3.9970474960010005
  1.3804650000000001  1.1114735000000000  3.2583173206880001
  1.3804650000000001  3.3344205000000002  1.5627056793120000
