Sr Fe P 
 1.0000000000000000
     3.6171250000000001    0.0000000000000000   -1.1316679999999999
    -0.3540580000000000    3.5997550000000000   -1.1316679999999999
    -0.0234540000000000   -0.0258740000000000    6.2715310000000004
 Sr  Fe  P  
   1   2   2
Cartesian
  0.0000000000000000  0.0000000000000000  0.0000000000000000
  0.6270107500000000  2.6868792500000001  2.0040975000000003
  2.6126022500000001  0.8870017500000000  2.0040975000000003
  2.1327365493090000  2.3527954146210002  0.4703016770520003
  1.1068764506910003  1.2210855853789999  3.5378933229480007
