Sc Cu Si
 1.0000000000000000
     3.8271880000000000    0.0000000000000000    0.0000000000000000
     0.0000000000000000    3.8271880000000000    0.0000000000000000
     0.0000000000000000    0.0000000000000000   10.1136549999999996
 Sc  Cu  Si 
   2   4   4
Cartesian
  0.0000000000000000  0.0000000000000000  0.0000000000000000
  1.9135940000000000  1.9135940000000000  5.0568274999999998
  0.0000000000000000  1.9135940000000000  7.5852412499999993
  1.9135940000000000  0.0000000000000000  7.5852412499999993
  1.9135940000000000  0.0000000000000000  2.5284137499999999
  0.0000000000000000  1.9135940000000000  2.5284137499999999
  1.9135940000000000  1.9135940000000000  1.1424586961100001
  1.9135940000000000  1.9135940000000000  8.9711963038900002
  0.0000000000000000  0.0000000000000000  6.1992861961100001
  0.0000000000000000  0.0000000000000000  3.9143688038900000
