Al N 
 1.0000000000000000
     3.1284230000000002    0.0000000000000000    0.0000000000000000
    -1.5642110000000000    2.7092939999999999    0.0000000000000000
     0.0000000000000000    0.0000000000000000    5.0147349999999999
 Al  N  
   2   2
Cartesian
  1.5642132308780001  0.9030970969019999  2.5033406677949999
 -0.0000012308779999  1.8061969030979999  5.0107081677950003
  1.5642132308780001  0.9030970969019999  4.4169936322050001
 -0.0000012308779999  1.8061969030979999  1.9096261322049999
