Mg Sc Ga
 1.0000000000000000
     3.7966910000000000    0.0000000000000000    0.0000000000000000
     0.0000000000000000    7.2365849999999998    0.0000000000000000
     0.0000000000000000    0.0000000000000000    7.2365849999999998
 Mg  Sc  Ga 
   2   4   4
Cartesian
  0.0000000000000000  3.6182924999999999  3.6182924999999999
  0.0000000000000000  0.0000000000000000  0.0000000000000000
  1.8983455000000000  2.3463758472300000  1.2719166527699999
  1.8983455000000000  5.9646755838150005  2.3463830838150002
  1.8983455000000000  4.8902091527699998  5.9646683472299999
  1.8983455000000000  1.2719094161850000  4.8902019161849992
  0.0000000000000000  6.3503204350500004  4.5045570649499993
  0.0000000000000000  4.5045570649499993  0.8862645649499999
  0.0000000000000000  2.7320279350499996  6.3503204350500004
  0.0000000000000000  0.8862645649499999  2.7320279350499996
