Cu Sn Rh
 1.0000000000000000
     6.2302900000000001    0.0000000000000000    0.0000000000000000
     0.0000000000000000    6.2302900000000001    0.0000000000000000
     0.0000000000000000    0.0000000000000000    6.2302900000000001
 Cu  Sn  Rh 
   4   4   8
Cartesian
  0.0000000000000000  0.0000000000000000  0.0000000000000000
  0.0000000000000000  3.1151450000000001  3.1151450000000001
  3.1151450000000001  0.0000000000000000  3.1151450000000001
  3.1151450000000001  3.1151450000000001  0.0000000000000000
  0.0000000000000000  3.1151450000000001  0.0000000000000000
  0.0000000000000000  0.0000000000000000  3.1151450000000001
  3.1151450000000001  3.1151450000000001  3.1151450000000001
  3.1151450000000001  0.0000000000000000  0.0000000000000000
  4.6727175000000001  1.5575725000000000  1.5575725000000000
  1.5575725000000000  4.6727175000000001  4.6727175000000001
  4.6727175000000001  4.6727175000000001  4.6727175000000001
  1.5575725000000000  1.5575725000000000  1.5575725000000000
  1.5575725000000000  1.5575725000000000  4.6727175000000001
  4.6727175000000001  4.6727175000000001  1.5575725000000000
  1.5575725000000000  4.6727175000000001  1.5575725000000000
  4.6727175000000001  1.5575725000000000  4.6727175000000001
