Ag O 
 1.0000000000000000
     2.3333569999999999   -2.3468160000000000    0.0000000000000000
     2.3333569999999999    2.3468160000000000    0.0000000000000000
     0.0000000000000000    0.0000000000000000    5.5808510000000000
 Ag  O  
   2   2
Cartesian
  1.1666785000000000 -1.1734080000000000  0.0000000000000000
  1.1666785000000000  1.1734080000000000  2.7904255000000000
  0.0000000000000000  0.0000000000000000  4.1856382500000002
  0.0000000000000000  0.0000000000000000  1.3952127500000000
