Zn Rh
 1.0000000000000000
    10.7175320000000003    0.0000000000000000    2.2287010000000000
     0.0000000000000000    7.4881640000000003    0.0000000000000000
    -0.0175920000000000    0.0000000000000000    5.2401039999999997
 Zn  Rh 
  26   2
Cartesian
  0.0000000000000000  0.0000000000000000  0.0000000000000000
  9.8577184134239992  5.1938654320400000  3.7589138322619999
  0.8422215865760000  5.1938654320400000  3.7098911677379998
  0.8422215865760000  2.2942985679599999  3.7098911677379998
  9.8577184134239992  2.2942985679599999  3.7589138322619999
  1.9235496850279998  1.3631004455760001  1.4416947459189999
  8.7763903149719997  1.3631004455760001  6.0271102540809993
  8.7763903149719997  6.1250635544240000  6.0271102540809993
  1.9235496850279998  6.1250635544240000  1.4416947459189999
  8.3180180772360011  0.0000000000000000  3.6522553069430002
  2.3819219227640001  0.0000000000000000  3.8165496930570000
  6.5667048782799995  0.0000000000000000  1.7207422541699999
  4.1332351217200003  0.0000000000000000  5.7480627458299995
  5.3587660000000001  3.7440820000000001  1.1143505000000000
  4.4989524134240009  1.4497834320400000  2.6445633322619999
  6.2009875865760007  1.4497834320400000  4.8242416677379998
  6.2009875865760007  6.0383805679600009  4.8242416677379998
  4.4989524134240009  6.0383805679600009  2.6445633322619999
  7.2823156850280011  5.1071824455760000  2.5560452459190000
  3.4176243149720000  5.1071824455760000  4.9127597540809997
  3.4176243149720000  2.3809815544240003  4.9127597540809997
  7.2823156850280011  2.3809815544240003  2.5560452459190000
  2.9592520772360000  3.7440820000000001  2.5379048069430001
  7.7406879227639998  3.7440820000000001  4.9309001930570000
  1.2079388782800000  3.7440820000000001  0.6063917541700000
  9.4920011217199995  3.7440820000000001  6.8624132458300000
 -0.0087960000000000  0.0000000000000000  2.6200519999999998
  5.3499699999999999  3.7440820000000001  3.7344024999999998
