Ba Al Ge
 1.0000000000000000
     4.2668920000000004   -0.0000000000000000   -0.9049590000000000
    -0.2672610000000000    5.0187280000000003   -1.2601389999999999
     0.0098750000000000   -0.0197280000000000   10.5582609999999999
 Ba  Al  Ge 
   3   2   2
Cartesian
  3.2698725142390006  4.0837576109600011  4.9057937898770003
  2.1334460000000002  0.0000000000000000 -0.4524795000000000
  0.7396334857610001  0.9152423890400001  3.4873692101229996
  3.8838882348780004  2.1639332364240005  7.8008636720059998
  0.1256177651220000  2.8350667635760005  0.5922993279940000
  1.4697362682060002  1.8273018958080003  6.9298010522419995
  2.5397697317940002  3.1716981041920005  1.4633619477579998
