Cs I 
 1.0000000000000000
     7.8613619999999997    0.0000000000000000    0.0000000000000000
     0.0000000000000000    7.8613619999999997    0.0000000000000000
     0.0000000000000000    0.0000000000000000    7.8613619999999997
 Cs  I  
   4   4
Cartesian
  0.0000000000000000  0.0000000000000000  0.0000000000000000
  0.0000000000000000  3.9306809999999999  3.9306809999999999
  3.9306809999999999  0.0000000000000000  3.9306809999999999
  3.9306809999999999  3.9306809999999999  0.0000000000000000
  3.9306809999999999  0.0000000000000000  0.0000000000000000
  3.9306809999999999  3.9306809999999999  3.9306809999999999
  0.0000000000000000  0.0000000000000000  3.9306809999999999
  0.0000000000000000  3.9306809999999999  0.0000000000000000
