Zr S 
 1.0000000000000000
     3.5877430000000001    0.0000000000000000    0.0000000000000000
     0.0000000000000000    3.5877430000000001    0.0000000000000000
     0.0000000000000000    0.0000000000000000    5.5990750000000000
 Zr  S  
   2   2
Cartesian
  2.6908072500000002  2.6908072500000002  4.5736492063499998
  0.8969357500000000  0.8969357500000000  1.0254257936500000
  2.6908072500000002  2.6908072500000002  1.6905007193749999
  0.8969357500000000  0.8969357500000000  3.9085742806249999
