Mn Co Ge
 1.0000000000000000
     3.4818950000000002    0.0000000000000000    2.0102739999999999
     1.1606320000000001    3.2827630000000001    2.0102739999999999
     0.0000000000000000    0.0000000000000000    4.0205469999999996
 Mn  Co  Ge 
   1   2   1
Cartesian
  2.3212635000000001  1.6413815000000000  4.0205474999999993
  3.4818952500000004  2.4620722500000003  6.0308212499999998
  1.1606317500000001  0.8206907500000000  2.0102737499999996
  0.0000000000000000  0.0000000000000000  0.0000000000000000
