Al Ru
 1.0000000000000000
     7.5002319999999996    0.0000000000000000    0.0000000000000000
     0.0000000000000000    6.5776539999999999    0.0000000000000000
     0.0000000000000000    0.0000000000000000    9.0221119999999999
 Al  Ru 
  24   4
Cartesian
  2.3945015676239998  0.0000000000000000  0.0000000000000000
  5.1057304323759993  0.0000000000000000  4.5110560000000000
  5.1057304323759993  0.0000000000000000  0.0000000000000000
  2.3945015676239998  0.0000000000000000  4.5110560000000000
  0.0000000000000000  0.9312839862819999  0.8925846064959999
  0.0000000000000000  5.6463700137180002  5.4036406064960003
  0.0000000000000000  0.9312839862819999  3.6184713935040000
  0.0000000000000000  5.6463700137180002  8.1295273935039987
  6.1503777457999993  5.2507570138880002  2.2555280000000000
  1.3498542541999998  1.3268969861119999  6.7665839999999999
  1.3498542541999998  5.2507570138880002  2.2555280000000000
  6.1503777457999993  1.3268969861119999  6.7665839999999999
  6.1446175676239996  3.2888269999999999  0.0000000000000000
  1.3556144323759998  3.2888269999999999  4.5110560000000000
  1.3556144323759998  3.2888269999999999  0.0000000000000000
  6.1446175676239996  3.2888269999999999  4.5110560000000000
  3.7501159999999998  4.2201109862820001  0.8925846064959999
  3.7501159999999998  2.3575430137179998  5.4036406064960003
  3.7501159999999998  4.2201109862820001  3.6184713935040000
  3.7501159999999998  2.3575430137179998  8.1295273935039987
  2.4002617458000000  1.9619300138879998  2.2555280000000000
  5.0999702541999996  4.6157239861120001  6.7665839999999999
  5.0999702541999996  1.9619300138879998  2.2555280000000000
  2.4002617458000000  4.6157239861120001  6.7665839999999999
  0.0000000000000000  3.0514592001020002  2.2555280000000000
  0.0000000000000000  3.5261947998979997  6.7665839999999999
  3.7501159999999998  6.3402862001019997  2.2555280000000000
  3.7501159999999998  0.2373677998980000  6.7665839999999999
