Sc Si Ni
 1.0000000000000000
     3.9932129999999999    0.0000000000000000    0.0000000000000000
     0.0000000000000000    6.4223939999999997    0.0000000000000000
     0.0000000000000000    0.0000000000000000    6.9069440000000002
 Sc  Si  Ni 
   4   4   4
Cartesian
  2.9949097499999997  0.0477055426320000  5.5077076567040004
  0.9983032500000000  6.3746884573679994  1.3992363432960000
  2.9949097499999997  3.2589025426319997  4.8527083432960003
  0.9983032500000000  3.1634914573680000  2.0542356567040003
  0.9983032500000000  1.9349067523500001  6.2574288001280003
  2.9949097499999997  4.4874872476499998  0.6495151998720000
  0.9983032500000000  5.1461037523499993  4.1029871998719996
  2.9949097499999997  1.2762902476500000  2.8039568001280002
  0.9983032500000000  4.3812993852539996  6.3692453165440002
  2.9949097499999997  2.0410946147460001  0.5376986834560000
  0.9983032500000000  1.1701023852539998  3.9911706834559997
  2.9949097499999997  5.2522916147459995  2.9157733165440001
