As Os
 1.0000000000000000
     3.0432790000000001    0.0000000000000000    0.0000000000000000
     0.0000000000000000    5.4192710000000002    0.0000000000000000
     0.0000000000000000    0.0000000000000000    6.2097600000000002
 As  Os 
   4   2
Cartesian
  1.5216395000000000  1.7835146017260002  5.3788009656000000
  1.5216395000000000  3.6357563982740002  0.8309590344000000
  0.0000000000000000  0.9261208982740000  2.2739209655999999
  0.0000000000000000  4.4931501017260000  3.9358390344000003
  1.5216395000000000  2.7096355000000001  3.1048800000000001
  0.0000000000000000  0.0000000000000000  0.0000000000000000
