Ti Te
 1.0000000000000000
     3.8242099999999999    0.0000000000000000    0.0000000000000000
    -1.9121049999999999    3.3118620000000001    0.0000000000000000
     0.0000000000000000    0.0000000000000000    6.7182519999999997
 Ti  Te 
   1   2
Cartesian
  0.0000000000000000  0.0000000000000000  0.0000000000000000
  1.9121069121050003  1.1039528960459999  5.0375603336640005
 -0.0000019121050000  2.2079091039540000  1.6806916663359999
