Tl Te Cl
 1.0000000000000000
     6.2054520000000002    0.0000000000000000    3.5827190000000000
     2.0684840000000002    5.8505560000000001    3.5827190000000000
     0.0000000000000000    0.0000000000000000    7.1654390000000001
 Tl  Te  Cl 
   2   1   6
Cartesian
  2.0684840000000002  1.4626390000000000  3.5827192500000002
  6.2054520000000002  4.3879169999999998 10.7481577499999990
  0.0000000000000000  0.0000000000000000  0.0000000000000000
  3.1064492712000003  4.3826514995999997  8.9503493549000002
  3.1064492712000003  4.3826514995999997  5.3805276450999999
  5.1674867288000002  1.4679045004000002  8.9503493549000002
  5.1674867288000002  1.4679045004000002  5.3805276450999999
  6.1980054575999999  4.3826514995999997  7.1654382508999994
  2.0759305424000001  1.4679045004000002  7.1654387490999998
