Sc Re B 
 1.0000000000000000
     0.0000000000000000    0.0000000000000000    3.5175740000000002
     8.9320979999999999    0.0000000000000000    0.0000000000000000
     0.0000000000000000   11.2211169999999996    0.0000000000000000
 Sc  Re  B  
   8   4  24
Cartesian
  2.8791724693200003  4.6358698351459999  0.0000000000000000
  6.0529255306800005  6.5852471648539996  0.0000000000000000
  7.3452214693199993  0.9746886648539999  0.0000000000000000
  1.5868765306800001 10.2464283351459997  0.0000000000000000
  8.4386353138920001  4.1659294551859993  0.0000000000000000
  0.4934626861080000  7.0551875448140002  0.0000000000000000
  3.9725863138919997  1.4446290448139998  0.0000000000000000
  4.9595116861079998  9.7764879551859991  0.0000000000000000
  5.7191330284199999  3.5946623887160003  0.0000000000000000
  3.2129649715799999  7.6264546112840002  0.0000000000000000
  1.2530840284200000  2.0158961112839999  0.0000000000000000
  7.6790139715799999  9.2052208887159992  0.0000000000000000
  4.9427997307499991  4.8804116379269997  1.7587870000000001
  3.9892982692499999  6.3407053620729998  1.7587870000000001
  0.4767507307500000  0.7301468620729999  1.7587870000000001
  8.4553472692499998 10.4909701379269986  1.7587870000000001
  6.7356236450160001  4.7381054321329996  1.7587870000000001
  2.1964743549839998  6.4830115678669999  1.7587870000000001
  2.2695746450159997  0.8724530678669999  1.7587870000000001
  6.6625233549839997 10.3486639321330003  1.7587870000000001
  7.1122187608920004  2.9682435321909999  1.7587870000000001
  1.8198792391080001  8.2528734678089997  1.7587870000000001
  2.6461697608920001  2.6423149678089999  1.7587870000000001
  6.2859282391079994  8.5788020321909997  1.7587870000000001
  5.6353856775719997  2.0470795954270002  1.7587870000000001
  3.2967123224280002  9.1740374045729993  1.7587870000000001
  1.1693366775720000  3.5634789045729995  1.7587870000000001
  7.7627613224280001  7.6576380954270000  1.7587870000000001
  8.7530808918840002  2.3847678904249996  1.7587870000000001
  0.1790171081160000  8.8363491095750000  1.7587870000000001
  4.2870318918840002  3.2257906095749997  1.7587870000000001
  4.6450661081159996  7.9953263904249994  1.7587870000000001
  5.3361068019840001  0.3057978804840000  1.7587870000000001
  3.5959911980160002 10.9153191195159991  1.7587870000000001
  0.8700578019840000  5.3047606195160002  1.7587870000000001
  8.0620401980159997  5.9163563804840003  1.7587870000000001
