Li Sc S 
 1.0000000000000000
    -1.8454420000000000   -3.1963990000000000    0.0000000000000000
    -3.6908850000000002    0.0000000000000000    0.0000000000000000
    -1.8454420000000000   -1.0654660000000000   -6.0488860000000004
 Li  Sc  S  
   1   1   2
Cartesian
  0.0000000000000000  0.0000000000000000  0.0000000000000000
 -3.6908845000000001 -2.1309325000000001 -3.0244430000000002
 -5.5363267527770006 -3.1963987527770001 -4.4862712307340002
 -1.8454422472229999 -1.0654662472229999 -1.5626147692660000
