Mn Ga Rh
 1.0000000000000000
     0.0000000000000000    3.0137230000000002    3.0137230000000002
     3.0137230000000002    0.0000000000000000    3.0137230000000002
     3.0137230000000002    3.0137230000000002    0.0000000000000000
 Mn  Ga  Rh 
   1   1   2
Cartesian
  4.5205845000000000  4.5205845000000000  4.5205845000000000
  1.5068675274459999  1.5068675274459999  1.5068675274459999
  3.0137290274460002  3.0137290274460002  3.0137290274460002
  0.0000000000000000  0.0000000000000000  0.0000000000000000
