Er Si Rh
 1.0000000000000000
     3.7650739999999998   -0.0017030000000000   -1.4165920000000001
    -0.5346470000000000    3.7269209999999999   -1.4165909999999999
    -0.0006490000000000   -0.0007480000000000    5.7103080000000004
 Er  Si  Rh 
   1   2   2
Cartesian
 -0.5346470000000000  3.7269209999999999 -1.4165909999999999
  2.0069649629360002  2.3143634951240002 -0.3747013589940000
  1.2228130370640000  1.4101065048760000  3.2518263589940002
  0.5399071533479999  2.7944357434880001  1.4385627500120002
  2.6898708466520000  0.9300342565120000  1.4385622499880000
