Al W 
 1.0000000000000000
     4.8637090000000001    0.0000000000000000    0.0000000000000000
    -2.4318550000000001    4.2120959999999998    0.0000000000000000
     0.0000000000000000    0.0000000000000000    8.8321729999999992
 Al  W  
  10   2
Cartesian
  0.0000000000000000  0.0000000000000000  0.0000000000000000
  0.0000000000000000  0.0000000000000000  4.4160864999999996
 -0.0000027651880002  2.8080654040319999  0.0000000000000000
  2.4318567651880003  1.4040305959680000  4.4160864999999996
  0.8207191108979999  1.4215276427519998  2.2080432499999998
 -0.8207194483850000  1.4215276427519998  6.6241297499999998
  1.6414385592829999  0.0000000000000000  6.6241297499999998
  3.2222704407170002  0.0000000000000000  2.2080432499999998
 -1.6111355516150001  2.7905683572480000  2.2080432499999998
  1.6111348891020001  2.7905683572480000  6.6241297499999998
 -0.0000027651880002  2.8080654040319999  4.4160864999999996
  2.4318567651880003  1.4040305959680000  0.0000000000000000
