Ge S 
 1.0000000000000000
     3.6031399999999998    0.0000000000000000    0.0000000000000000
     0.0000000000000000    4.5231250000000003    0.0000000000000000
     0.0000000000000000    0.0000000000000000   10.7807519999999997
 Ge  S  
   4   4
Cartesian
  0.9007849999999999  1.6594938543750002  9.4034678089919996
  2.7023549999999998  2.8636311456250003  1.3772841910080000
  2.7023549999999998  3.9210563543750001  6.7676601910079999
  0.9007849999999999  0.6020686456250001  4.0130918089919998
  0.9007849999999999  2.3284504725000001  7.0595706129120002
  2.7023549999999998  2.1946745275000001  3.7211813870879999
  2.7023549999999998  0.0668879725000000  9.1115573870879984
  0.9007849999999999  4.4562370275000003  1.6691946129119999
