Tm S  O 
 1.0000000000000000
     3.7139120000000001    0.0000000000000000    0.0000000000000000
    -1.8569560000000001    3.2163430000000002    0.0000000000000000
     0.0000000000000000    0.0000000000000000    6.4925040000000003
 Tm  S   O  
   2   1   2
Cartesian
 -0.0000018569560001  2.1442297387810001  1.8438386734800001
  1.8569578569559999  1.0721132612190001  4.6486653265200006
  0.0000000000000000  0.0000000000000000  0.0000000000000000
 -0.0000018569560001  2.1442297387810001  4.0843888188720001
  1.8569578569559999  1.0721132612190001  2.4081151811280002
