Ca Sn B  O 
 1.0000000000000000
     5.6295849999999996   -2.4598610000000001    0.0000000000000000
     5.6295849999999996    2.4598610000000001    0.0000000000000000
     4.5547430000000002    0.0000000000000000    4.1227989999999997
 Ca  Sn  B   O  
   1   1   2   6
Cartesian
  0.0000000000000000  0.0000000000000000  0.0000000000000000
  7.9069564999999997  0.0000000000000000  2.0613994999999998
 12.0295012938829995 -0.0000000000000001  3.1361760941089996
  3.7844117061169995 -0.0000000000000000  0.9866229058909999
  7.1154030060710003  0.5876878513710002  0.2170736129480000
  6.6440224482349999 -1.6664795718090002  2.0251600967899996
  9.4266821288269984 -1.0787917204380002  1.1126568713209999
  8.6985099939289992 -0.5876878513710000  3.9057253870519997
  9.1698905517649987  1.6664795718090000  2.0976389032099996
  6.3872308711730001  1.0787917204380000  3.0101421286790000
