Sc Ru C 
 1.0000000000000000
     4.0861060000000000    0.0000000000000000    0.0000000000000000
     0.0000000000000000    4.0861060000000000    0.0000000000000000
     0.0000000000000000    0.0000000000000000    4.0861060000000000
 Sc  Ru  C  
   1   3   1
Cartesian
  0.0000000000000000  0.0000000000000000  0.0000000000000000
  0.0000000000000000  2.0430530000000000  2.0430530000000000
  2.0430530000000000  0.0000000000000000  2.0430530000000000
  2.0430530000000000  2.0430530000000000  0.0000000000000000
  2.0430530000000000  2.0430530000000000  2.0430530000000000
