Eu Si Ni
 1.0000000000000000
     3.7446820000000001    0.0000000000000000   -1.4384699999999999
    -0.5525690000000000    3.7036880000000001   -1.4384699999999999
     0.0137290000000000    0.0159300000000000    5.6291270000000004
 Eu  Si  Ni 
   1   2   2
Cartesian
  0.0000000000000000  0.0000000000000000  0.0000000000000000
  2.0250514574660001  2.3495908288079996 -0.3216934347559997
  1.1807905425340002  1.3700271711920000  3.0738804347560005
  2.6772337499999996  0.9338870000000000  1.3760935000000003
  0.5286082500000001  2.7857310000000002  1.3760935000000003
