Cu F 
 1.0000000000000000
     3.2671610000000002   -0.0000030000000000   -0.3988920000000000
    -0.0000050000000000    4.5233179999999997    0.0000040000000000
    -0.0422260000000000    0.0000040000000000    4.6126600000000000
 Cu  F  
   2   4
Cartesian
  1.6124487064660005  2.2616187901489999  2.1068833817640003
  3.2249187063760001  0.0000417098730000  4.2137653818359997
  1.5245713646140002  3.6150894450299997  0.7670939690879999
  0.0879068523480000  1.3534728156610001  1.3398062681640002
  3.1370394411910003  3.1698823708720001  2.8739683500679996
  1.7003781961660001  0.9081933684119999  3.4466802501879998
