Li In Rh
 1.0000000000000000
     3.9632660000000000    0.0000000000000000    2.2881930000000001
     1.3210880000000000    3.7366030000000001    2.2881930000000001
     0.0000000000000000    0.0000000000000000    4.5763870000000004
 Li  In  Rh 
   1   2   1
Cartesian
  0.0000000000000000  0.0000000000000000  0.0000000000000000
  1.3210885000000001  0.9341507500000000  2.2881932500000000
  3.9632654999999999  2.8024522500000000  6.8645797500000008
  2.6421770000000002  1.8683015000000001  4.5763864999999999
