Be Te O 
 1.0000000000000000
     4.6408639999999997    0.0000000000000000    2.6794039999999999
     1.5469539999999999    4.3754489999999997    2.6794039999999999
     0.0000000000000000    0.0000000000000000    5.3588100000000001
 Be  Te  O  
   4   1   7
Cartesian
  3.8804177947080003  2.7438703205940000  6.7210825535080003
  3.0939077072580004  0.5192826627689999  5.3588065748080007
  3.8804177947080003  2.7438703205940000  3.9965295792580000
  1.5208865155080000  2.7438703205940000  5.3588065748080007
  0.0000000000000000  0.0000000000000000  0.0000000000000000
  4.6408634999999991  3.2815867499999998  8.0382134999999995
  3.8581790238400000  1.1068835862239998  4.0350543185599994
  1.5653694463679997  1.1068835862239998  5.3588094940479998
  4.6224485536320001  3.2685654137759999  5.3588085059519992
  2.3296389761599996  3.2685654137759999  6.6825636814400005
  2.3296389761599996  3.2685654137759999  4.0350543185599994
  3.8581790238400000  1.1068835862239998  6.6825636814400005
