Ba Sb Pt
 1.0000000000000000
     4.5679970000000001    0.0000000000000000    0.0000000000000000
    -2.2839990000000001    3.9560019999999998    0.0000000000000000
     0.0000000000000000    0.0000000000000000    4.9864069999999998
 Ba  Sb  Pt 
   1   1   1
Cartesian
  0.0000000000000000  0.0000000000000000  0.0000000000000000
  2.2840006173320004  1.3186660146659999  2.4932034999999999
 -0.0000026173320001  2.6373359853339999  2.4932034999999999
