Sc Ag O 
 1.0000000000000000
     3.2114229999999999    0.0000000000000000    0.0000000000000000
    -1.6057120000000000    2.7811740000000000    0.0000000000000000
     0.0000000000000000    0.0000000000000000   12.4093000000000000
 Sc  Ag  O  
   2   2   4
Cartesian
  0.0000000000000000  0.0000000000000000  0.0000000000000000
  0.0000000000000000  0.0000000000000000  6.2046500000000000
  1.6057129390449998  0.9270570729420000  9.3069749999999996
 -0.0000019390450001  1.8541169270580000  3.1023250000000000
 -0.0000019390450001  1.8541169270580000  5.1764029926999999
  1.6057129390449998  0.9270570729420000 11.3810529927000008
 -0.0000019390450001  1.8541169270580000  1.0282470073000001
  1.6057129390449998  0.9270570729420000  7.2328970072999992
