Zr Fe
 1.0000000000000000
     3.2627220000000001    0.0000000000000000    0.0000000000000000
    -1.6313610000000001    5.4633729999999998    0.0001980000000000
     0.0000000000000000    0.0003090000000000    8.9567979999999991
 Zr  Fe 
   6   2
Cartesian
  0.0000065254440000  4.5819583414229994  6.7161971082979992
  1.6313577372780002  0.8822699961860000  2.2408078682999997
  0.0000016313610000  1.5125241455789999  8.4007789583779982
  1.6313609999999998  3.9509119565949997  0.5548824698099999
  1.6313610000000003  3.9509845198219997  3.9251374628679994
  0.0000016313610000  1.5124079686860001  5.0332289167319990
  1.6313610000000001  2.5432679243809999  6.7160694826219993
 -0.0000000000000000  2.9203922218179996  2.2409175597880000
