Mg N  F 
 1.0000000000000000
     4.2011500000000002    0.0000000000000000    0.0000000000000000
     0.0000000000000000    4.2011500000000002    0.0000000000000000
     0.0000000000000000    0.0000000000000000    4.2011500000000002
 Mg  N   F  
   3   1   3
Cartesian
  2.1005750000000001  0.0000000000000000  2.1005750000000001
  2.1005750000000001  2.1005750000000001  0.0000000000000000
  0.0000000000000000  2.1005750000000001  2.1005750000000001
  2.1005750000000001  2.1005750000000001  2.1005750000000001
  0.0000000000000000  2.1005750000000001  0.0000000000000000
  0.0000000000000000  0.0000000000000000  2.1005750000000001
  2.1005750000000001  0.0000000000000000  0.0000000000000000
