Ti N 
 1.0000000000000000
     2.5972230000000001    0.0000000000000000    1.4995080000000001
     0.8657410000000000    2.4486849999999998    1.4995080000000001
     0.0000000000000000    0.0000000000000000    2.9990139999999998
 Ti  N  
   1   1
Cartesian
  0.0000000000000000  0.0000000000000000  0.0000000000000000
  1.7314820000000000  1.2243424999999999  2.9990150000000000
