Ho Si
 1.0000000000000000
     8.3727590000000003    0.0000000000000000    0.0000000000000000
    -4.1863799999999998    7.2510230000000000    0.0000000000000000
     0.0000000000000000    0.0000000000000000    6.3214420000000002
 Ho  Si 
  10   6
Cartesian
 -3.1712749503600000  5.4928094450060003  4.7410814999999999
 -1.0151050496400000  1.7582135549939999  1.5803605000000001
  3.1712741928380002  5.4928094450060003  1.5803605000000001
  6.3425491431980001  0.0000000000000000  4.7410814999999999
  1.0151048071620001  1.7582135549939999  4.7410814999999999
  2.0302098568020002  0.0000000000000000  1.5803605000000001
 -0.0000045197129999  4.8340177503410002  3.1607210000000001
  4.1863835197129999  2.4170052496589998  0.0000000000000000
  4.1863835197129999  2.4170052496589998  3.1607210000000001
 -0.0000045197129999  4.8340177503410002  0.0000000000000000
  3.3002820422710002  0.0000000000000000  4.7410814999999999
  1.6501408240510003  2.8581284848870001  1.5803605000000001
 -2.5362387817799998  4.3928945151130003  1.5803605000000001
 -1.6501412182199999  2.8581284848870001  4.7410814999999999
  2.5362381759490003  4.3928945151130003  4.7410814999999999
  5.0724769577290001  0.0000000000000000  1.5803605000000001
