Ru S 
 1.0000000000000000
     5.6306099999999999    0.0000000000000000    0.0000000000000000
     0.0000000000000000    5.6306099999999999    0.0000000000000000
     0.0000000000000000    0.0000000000000000    5.6306099999999999
 Ru  S  
   4   8
Cartesian
  0.0000000000000000  2.8153049999999999  2.8153049999999999
  2.8153049999999999  2.8153049999999999  0.0000000000000000
  2.8153049999999999  0.0000000000000000  2.8153049999999999
  0.0000000000000000  0.0000000000000000  0.0000000000000000
  2.1858253244400001  0.6294796755600001  5.0011303244400001
  0.6294796755600001  5.0011303244400001  2.1858253244400001
  5.0011303244400001  2.1858253244400001  0.6294796755600001
  3.4447846755599998  3.4447846755599998  3.4447846755599998
  2.1858253244400001  2.1858253244400001  2.1858253244400001
  0.6294796755600001  3.4447846755599998  5.0011303244400001
  5.0011303244400001  0.6294796755600001  3.4447846755599998
  3.4447846755599998  5.0011303244400001  0.6294796755600001
