Tb Ga Co
 1.0000000000000000
     5.1906889999999999    0.0055730000000000    0.0000000000000000
    -2.5905459999999998    4.4872769999999997    0.0000000000000000
     0.0000000000000000    0.0000000000000000    3.7870050000000002
 Tb  Ga  Co 
   1   2   3
Cartesian
  0.0000000000000000  0.0000000000000000  0.0000000000000000
  2.5932406139009996  1.4972013810289999  0.0000000000000000
  0.0069023860990002  2.9956486189709999  0.0000000000000000
  1.3000715000000000  2.2464249999999999  1.8935025000000001
 -1.2952729999999999  2.2436384999999999  1.8935025000000001
  2.5953444999999999  0.0027865000000000  1.8935025000000001
