In Cu Se
 1.0000000000000000
     5.3034319999999999    0.0000000000000000   -2.3628790000000000
    -1.0527519999999999    5.1978939999999998   -2.3628790000000000
    -0.0015470000000000   -0.0018920000000000    7.1296860000000004
 In  Cu  Se 
   2   2   4
Cartesian
  2.1253400000000000  2.5989469999999999 -2.3628790000000000
  3.7136124999999995  1.2985275000000001  1.2019640000000003
  0.0000000000000000  0.0000000000000000  0.0000000000000000
  0.5355205000000001  3.8974745000000000  1.2019640000000003
  1.4353691425519999  1.9487372500000000  0.0807681964810001
  3.8772073574479990  4.5476842499999997 -2.4231226964809993
 -0.0276143169279999  3.4023647090659996  3.5045993035190004
  3.2133038169280002  0.4932177909340000  3.6456111964810005
