Ba Ge Pt
 1.0000000000000000
     4.2598330000000004   -0.0019490000000000   -1.7351010000000000
    -0.7084760000000000    4.2005049999999997   -1.7351010000000000
    -0.0038970000000000   -0.0046080000000000    6.0884950000000000
 Ba  Ge  Pt 
   1   3   1
Cartesian
  0.0009822099560000  0.0011612075000000  0.0014071786010000
  3.0281266879900004  1.0633634623479999  1.3431022224080000
  0.5463768495460001  3.1625564746119998  1.3431022224079998
  1.4151337773670003  1.6730269900120001  3.4751092357840001
  2.3016769381380002  2.7211341081359999 -0.4411728560959998
