Nd Co C 
 1.0000000000000000
     2.6800590000000000    2.6775250000000002    0.0042120000000000
    -2.6800590000000000    2.6775250000000002    0.0042120000000000
     0.0000000000000000    1.5040290000000001    7.2023960000000002
 Nd  Co  C  
   2   2   4
Cartesian
 -2.2877251629900002  3.3382116349960000  3.2522776608639998
  2.2877251629900002  4.0902261349960005  6.8534756608640004
  0.3808229836050000  3.3538983443880004  1.8603421338320001
 -0.3808229836050002  4.1059128443880004  5.4615401338320000
 -0.4057796930130000  2.6057360626990005  0.1877430349080000
  0.4057796930130000  3.3577490586700001  3.7889338325120003
  0.9674932588230002  2.7663185614210000  4.8922648605800001
 -0.9674932588230001  2.0143040614209999  1.2910668605800000
