Ba N 
 1.0000000000000000
     7.7955909999999999   -0.0000000000000000    0.0000000000000000
    -3.8977960000000000    6.7511799999999997    0.0000000000000000
     0.0000000000000000    0.0000000000000000    7.1110210000000000
 Ba  N  
   6   2
Cartesian
 -2.8481000482200001  4.9330534700999999  5.3332657499999998
 -1.0496959517800000  1.8181265299000000  1.7777552500000000
  2.8480993175249996  4.9330534700999999  1.7777552500000000
  5.6961993657449996  0.0000000000000000  5.3332657499999998
  1.0496956824750003  1.8181265299000000  5.3332657499999998
  2.0993916342550003  0.0000000000000000  1.7777552500000000
  0.0000000000000000  0.0000000000000000  3.5555105000000000
  0.0000000000000000  0.0000000000000000  0.0000000000000000
