Sc Ge
 1.0000000000000000
     7.9430100000000001    0.0000000000000000    0.0000000000000000
    -3.9715039999999999    6.8788489999999998    0.0000000000000000
     0.0000000000000000    0.0000000000000000    5.9124059999999998
 Sc  Ge 
  10   6
Cartesian
 -0.0000033048379999  4.5859016262830004  0.0000000000000000
  3.9715093048380004  2.2929473737169999  2.9562029999999999
  3.9715093048380004  2.2929473737169999  0.0000000000000000
 -0.0000033048379999  4.5859016262830004  2.9562029999999999
  1.9129230413100000  0.0000000000000000  1.4781015000000000
  0.9564617614860000  1.6566400835189998  4.4343044999999996
 -3.0150427201759999  5.2222089164809997  4.4343044999999996
 -0.9564612798240000  1.6566400835189998  1.4781015000000000
  3.0150442385140002  5.2222089164809997  1.4781015000000000
  6.0300869586900001  0.0000000000000000  4.4343044999999996
  4.8186508455299997  0.0000000000000000  1.4781015000000000
  2.4093260294179997  4.1730743823970000  4.4343044999999996
 -1.5621791838879999  2.7057746176029998  4.4343044999999996
 -2.4093248161120000  4.1730743823970000  1.4781015000000000
  1.5621799705820001  2.7057746176029998  1.4781015000000000
  3.1243591544700000  0.0000000000000000  4.4343044999999996
