Ca Cu
 1.0000000000000000
     4.1750660000000002    0.0000000000000000    0.0000000000000000
     0.0000000000000000    6.0531189999999997    0.0000000000000000
     0.0000000000000000    0.0000000000000000   14.5478889999999996
 Ca  Cu 
   8   4
Cartesian
  3.1312994999999999  3.8190519988369998  4.8698331033050000
  1.0437665000000000  2.2340670011629999  9.6780558966949997
  3.1312994999999999  0.7924924988370000  2.4041113966950003
  1.0437665000000000  5.2606265011629993 12.1437776033049989
  3.1312994999999999  5.2493434873469997  8.6069966648480012
  1.0437665000000000  0.8037755126529998  5.9408923351520002
  3.1312994999999999  2.2227839873469999 13.2148368351519991
  1.0437665000000000  3.8303350126529998  1.3330521648480000
  3.1312994999999999  5.3882201965639993 14.3110493670800007
  1.0437665000000000  0.6648988034359999  0.2368396329200000
  3.1312994999999999  2.3616606965639999  7.5107841329199996
  1.0437665000000000  3.6914583034360002  7.0371048670799992
