Cs Li Lu Cl
 1.0000000000000000
     0.0000000000000000    5.2709310000000000    5.2709310000000000
     5.2709310000000000    0.0000000000000000    5.2709310000000000
     5.2709310000000000    5.2709310000000000    0.0000000000000000
 Cs  Li  Lu  Cl 
   2   1   1   6
Cartesian
  7.9063964999999996  7.9063964999999996  7.9063964999999996
  2.6354655000000000  2.6354655000000000  2.6354655000000000
  5.2709310000000000  5.2709310000000000  5.2709310000000000
  0.0000000000000000  0.0000000000000000  0.0000000000000000
  2.5949531243339998  5.2709310000000000  5.2709310000000000
  5.2709310000000000  5.2709310000000000  2.5949531243339998
  7.9469088756660007  5.2709310000000000  5.2709310000000000
  5.2709310000000000  2.5949531243339998  5.2709310000000000
  5.2709310000000000  7.9469088756660007  5.2709310000000000
  5.2709310000000000  5.2709310000000000  7.9469088756660007
