Ho Cu
 1.0000000000000000
     4.9651670000000001   -0.0000030000000000    0.0000000000000000
    -2.4825879999999998    4.2999669999999997    0.0000000000000000
     0.0000000000000000    0.0000000000000000    4.0389749999999998
 Ho  Cu 
   1   5
Cartesian
  0.0000000000000000  0.0000000000000000  0.0000000000000000
 -0.0000005174179997  2.8666450999869997  0.0000000000000000
  2.4825795174179999  1.4333189000129998  0.0000000000000000
  2.4825835000000001 -0.0000015000000000  2.0194874999999999
  1.2412895000000002  2.1499819999999996  2.0194874999999999
 -1.2412939999999999  2.1499834999999998  2.0194874999999999
