Pr B  S 
 1.0000000000000000
     7.6674270000000000    0.0000000000000000    0.0000000000000000
     0.0000000000000000    6.0290169999999996    0.0000000000000000
     0.0000000000000000    0.0000000000000000    8.9774670000000008
 Pr  B   S  
   4   4  12
Cartesian
  6.7916228183519998  0.4320273001860000  3.8872162785990003
  0.8758041816480000  5.5969896998139994  8.3759408011320016
  4.7095253490750002  3.4465358001859996  8.3759408011320016
  2.9579016509249998  2.5824811998140000  3.8872162785990003
  6.5449310220539996  3.5948737344539996  5.4276777960630005
  1.1224883105190000  2.4341553235799998  0.9389353185960001
  4.9562018105189996  0.5803652344540000  0.9389353185960001
  2.7112251894810000  5.4486638235799996  5.4276777960630005
  6.3416521974300002  5.0347175453769992  6.5221207980330007
  1.3257748025700000  0.9942994546230000  2.0333872980330003
  5.1594806351429998  2.0202090453769999  2.0333872980330003
  2.5079463648570002  4.0088079546230002  6.5221207980330007
  1.5628823151179998  0.8062785304609998  5.7040940049930011
  6.1045523523089997  5.2227264115049996  1.2153605049930001
  2.2708388523090002  3.8207870304609997  1.2153605049930001
  5.3965881476910003  2.2082299695390000  5.7040940049930011
  7.6531809206340000  3.5893873289839999  4.0071462602520000
  0.0142384119390000  2.4396357000329996  8.4958707827849995
  3.8479595793660004  0.5748788289840000  8.4958707827849995
  3.8194750880610000  5.4541442000330003  4.0071462602520000
