Li Hf Ir
 1.0000000000000000
     0.0000000000000000    3.1062919999999998    3.1062919999999998
     3.1062919999999998    0.0000000000000000    3.1062919999999998
     3.1062919999999998    3.1062919999999998    0.0000000000000000
 Li  Hf  Ir 
   1   1   2
Cartesian
  4.6594379999999997  4.6594379999999997  4.6594379999999997
  1.5531522125839998  1.5531522125839998  1.5531522125839998
  0.0000000000000000  0.0000000000000000  0.0000000000000000
  3.1062857874160001  3.1062857874160001  3.1062857874160001
