Ba Fe N 
 1.0000000000000000
     8.1224849999999993   -0.0002320000000000    0.0000000000000000
    -4.0616120000000002    7.0341250000000004    0.0000000000000000
     0.0000000000000000    0.0000000000000000    5.6116099999999998
 Ba  Fe  N  
   6   2   6
Cartesian
  3.2785231411239995  4.4869217929629999  4.2087075000000000
 -2.2481156377759999  5.0761427314400001  1.4029024999999999
  1.4584842461879990  6.4424493792580000  1.4029024999999999
  2.5970398672410000  0.5958259611210001  4.2087075000000000
  6.3078031141199986  1.9509132456840002  4.2087075000000000
  0.7888355393659996  2.5493274148000000  1.4029024999999999
  4.0609325284949991  2.3443192050360002  1.4029024999999999
  0.0000623028680001  4.6896863356280001  4.2087075000000000
  0.9508945222319990  6.1216286593580005  4.2087075000000000
  3.2991853131939992  3.8956424071430003  1.4029024999999999
  5.7853462324039997  2.2285816052970002  1.4029024999999999
 -1.7162365958650003  4.7969969608170002  4.2087075000000000
  0.7647533318459998  3.1495400897220001  4.2087075000000000
  3.0986071554359995  0.9092822456260001  1.4029024999999999
