Pm Mg Sn
 1.0000000000000000
    -0.0014340000000000    3.8194699999999999    3.8194699999999999
     3.8194699999999999   -0.0014340000000000    3.8194699999999999
     3.8194699999999999    3.8194699999999999   -0.0014340000000000
 Pm  Mg  Sn 
   2   1   1
Cartesian
  7.6369026370259991  7.6369026370259991  7.6369026370260000
  3.8189897626859999  3.8189897626859999  3.8189897626859999
  1.9098271128539996  1.9098271128539996  1.9098271128539999
  5.7280607624459998  5.7280607624459998  5.7280607624459998
