Mn Al Co
 1.0000000000000000
     5.7006779999999999    0.0000000000000000    0.0000000000000000
     0.0000000000000000    5.7006779999999999    0.0000000000000000
     0.0000000000000000    0.0000000000000000    5.7006779999999999
 Mn  Al  Co 
   4   4   8
Cartesian
  0.0000000000000000  0.0000000000000000  2.8503390000000000
  0.0000000000000000  2.8503390000000000  0.0000000000000000
  2.8503390000000000  0.0000000000000000  0.0000000000000000
  2.8503390000000000  2.8503390000000000  2.8503390000000000
  0.0000000000000000  0.0000000000000000  0.0000000000000000
  0.0000000000000000  2.8503390000000000  2.8503390000000000
  2.8503390000000000  0.0000000000000000  2.8503390000000000
  2.8503390000000000  2.8503390000000000  0.0000000000000000
  1.4251695000000000  4.2755084999999999  4.2755084999999999
  4.2755084999999999  1.4251695000000000  1.4251695000000000
  1.4251695000000000  1.4251695000000000  1.4251695000000000
  4.2755084999999999  4.2755084999999999  4.2755084999999999
  4.2755084999999999  4.2755084999999999  1.4251695000000000
  1.4251695000000000  1.4251695000000000  4.2755084999999999
  4.2755084999999999  1.4251695000000000  4.2755084999999999
  1.4251695000000000  4.2755084999999999  1.4251695000000000
