Pm Mg Ga
 1.0000000000000000
     0.0000000000000000    3.7353230000000002    3.7353230000000002
     3.7353230000000002    0.0000000000000000    3.7353230000000002
     3.7353230000000002    3.7353230000000002    0.0000000000000000
 Pm  Mg  Ga 
   2   1   1
Cartesian
  3.7353155293540006  3.7353155293540006  3.7353155293540006
  0.0000000000000000  0.0000000000000000  0.0000000000000000
  5.6029844999999998  5.6029844999999998  5.6029844999999998
  1.8676689706459999  1.8676689706459999  1.8676689706459999
