Nb S 
 1.0000000000000000
     3.3687680000000002    0.0000000000000000    0.0000000000000000
    -1.6843830000000000    2.9174389999999999    0.0000000000000000
     0.0000000000000000    0.0000000000000000   12.6246659999999995
 Nb  S  
   2   4
Cartesian
  0.0000000000000000  0.0000000000000000  9.4684995000000001
  0.0000000000000000  0.0000000000000000  3.1561664999999999
 -0.0000010177169999  1.9449603058130001  4.7192390221259997
  1.6843860177170003  0.9724786941869999 11.0315720221259994
 -0.0000010177169999  1.9449603058130001  1.5930939778739999
  1.6843860177170003  0.9724786941869999  7.9054269778739998
