Al Cu
 1.0000000000000000
     8.7339629999999993    0.0000000000000000    0.0000000000000000
     0.0000000000000000    8.7339629999999993    0.0000000000000000
     0.0000000000000000    0.0000000000000000    8.7339629999999993
 Al  Cu 
  16  36
Cartesian
  1.0583467004880001  1.0583467004880001  1.0583467004880001
  7.6756162995119999  1.0583467004880001  7.6756162995119999
  7.6756162995119999  7.6756162995119999  1.0583467004880001
  1.0583467004880001  7.6756162995119999  7.6756162995119999
  7.0711998580229993  4.0651182707939997  1.6627631419769997
  4.0651182707939997  7.0711998580229993  1.6627631419769997
  7.0711998580229993  4.6688447292059996  7.0711998580229993
  4.6688447292059996  7.0711998580229993  7.0711998580229993
  1.6627631419769997  7.0711998580229993  4.0651182707939997
  7.0711998580229993  1.6627631419769997  4.0651182707939997
  4.6688447292059996  1.6627631419769997  1.6627631419769997
  4.0651182707939997  1.6627631419769997  7.0711998580229993
  1.6627631419769997  4.0651182707939997  7.0711998580229993
  1.6627631419769997  4.6688447292059996  1.6627631419769997
  7.0711998580229993  7.0711998580229993  4.6688447292059996
  1.6627631419769997  1.6627631419769997  4.6688447292059996
  2.8424071206089998  5.8915646133539994  5.8915646133539994
  5.6262792211919992  0.0000000000000000  0.0000000000000000
  0.0000000000000000  0.0000000000000000  3.1076837788080001
  0.0000000000000000  0.0000000000000000  5.6262792211919992
  0.0000000000000000  5.6262792211919992  0.0000000000000000
  0.0000000000000000  3.1076837788080001  0.0000000000000000
  7.4677217782229999  4.3669814999999996  4.3669814999999996
  1.2662412217769998  4.3669814999999996  4.3669814999999996
  4.3669814999999996  4.3669814999999996  7.4677217782229999
  4.3669814999999996  4.3669814999999996  1.2662412217769998
  3.1076837788080001  0.0000000000000000  0.0000000000000000
  4.3669814999999996  7.4677217782229999  4.3669814999999996
  2.7622380742319996  2.7622380742319996  0.2673815432820000
  5.9717249257679992  0.2673815432820000  5.9717249257679992
  5.9717249257679992  8.4665814567179982  2.7622380742319996
  8.4665814567179982  5.9717249257679992  2.7622380742319996
  0.2673815432820000  5.9717249257679992  5.9717249257679992
  2.7622380742319996  5.9717249257679992  8.4665814567179982
  5.9717249257679992  2.7622380742319996  8.4665814567179982
  0.2673815432820000  2.7622380742319996  2.7622380742319996
  2.7622380742319996  0.2673815432820000  2.7622380742319996
  8.4665814567179982  2.7622380742319996  5.9717249257679992
  2.7622380742319996  8.4665814567179982  5.9717249257679992
  5.9717249257679992  5.9717249257679992  0.2673815432820000
  5.8915646133539994  5.8915646133539994  2.8424071206089998
  5.8915646133539994  2.8424071206089998  5.8915646133539994
  2.8424071206089998  2.8424071206089998  2.8424071206089998
  7.2574166831459994  1.4765463168540001  1.4765463168540001
  1.4765463168540001  1.4765463168540001  7.2574166831459994
  1.4765463168540001  7.2574166831459994  1.4765463168540001
  7.2574166831459994  7.2574166831459994  7.2574166831459994
  5.2913317401419997  3.4426312598580000  3.4426312598580000
  3.4426312598580000  3.4426312598580000  5.2913317401419997
  3.4426312598580000  5.2913317401419997  3.4426312598580000
  5.2913317401419997  5.2913317401419997  5.2913317401419997
  4.3669814999999996  1.2662412217769998  4.3669814999999996
