Zr Se
 1.0000000000000000
     3.8111530000000000    0.0000000000000000    0.0000000000000000
    -1.9055750000000000    3.3005550000000001    0.0000000000000000
     0.0000000000000000    0.0000000000000000    6.3999069999999998
 Zr  Se 
   1   2
Cartesian
  0.0000000000000000  0.0000000000000000  0.0000000000000000
  1.9055789055760000  1.1001838998150000  4.8375745029740003
 -0.0000009055760000  2.2003711001849999  1.5623324970260000
