Re Os
 1.0000000000000000
     5.5099950000000000   -0.0000010000000000    0.0000000000000000
    -2.7549990000000002    4.7717939999999999    0.0000000000000000
     0.0000000000000000    0.0000000000000000    4.3413360000000001
 Re  Os 
   2   6
Cartesian
 -0.0000037549980003  3.1811972572650000  3.2560063413360001
  2.7549997549979999  1.5905957427349999  1.0853383413359998
  0.0000077633400000  1.5958547591709999  1.0853383413359998
  1.3729407349650000  3.9738539417569996  1.0853383413359998
 -1.3729322133150001  3.9738544401009999  1.0853383413359998
  2.7549854816639994  3.1759334690359999  3.2560063413360001
  1.3820470000439997  0.7979342864510001  3.2560063413360001
  4.1279309683139997  0.7979337881050000  3.2560063413360001
