Mn I 
 1.0000000000000000
     4.1685809999999996    0.0000000000000000    0.0000000000000000
    -2.0842909999999999    3.6100970000000001    0.0000000000000000
     0.0000000000000000    0.0000000000000000    7.1462000000000003
 Mn  I  
   1   2
Cartesian
  0.0000000000000000  0.0000000000000000  0.0000000000000000
 -0.0000024176240001  2.4067325366990002  1.6499503870000001
  2.0842924176239999  1.2033644633010001  5.4962496129999998
