Rb Au Se
 1.0000000000000000
     6.2270849999999998    0.0000000000000000    0.0000000000000000
    -3.1135419999999998    5.3928140000000004    0.0000000000000000
     0.0000000000000000    0.0000000000000000    5.3038280000000002
 Rb  Au  Se 
   1   3   2
Cartesian
  0.0000000000000000  0.0000000000000000  2.6519140000000001
 -1.5567709999999999  2.6964070000000002  0.0000000000000000
  3.1135424999999999  0.0000000000000000  0.0000000000000000
  1.5567715000000000  2.6964070000000002  0.0000000000000000
 -0.0000027802090002  3.5952111309380004  3.6261423423519998
  3.1135457802090003  1.7976028690620001  1.6776856576479999
