Pm Bi Pd
 1.0000000000000000
     0.0000000000000000    3.4916770000000001    3.4916770000000001
     3.4916770000000001    0.0000000000000000    3.4916770000000001
     3.4916770000000001    3.4916770000000001    0.0000000000000000
 Pm  Bi  Pd 
   1   1   2
Cartesian
  5.2375155000000007  5.2375155000000007  5.2375155000000007
  1.7458385000000001  1.7458385000000001  1.7458385000000001
  0.0000000000000000  0.0000000000000000  0.0000000000000000
  3.4916839833540005  3.4916839833540005  3.4916839833540005
