Er Ni B 
 1.0000000000000000
     4.9077630000000001    0.0000000000000000    0.0000000000000000
    -2.4538810000000000    4.2502459999999997    0.0000000000000000
     0.0000000000000000    0.0000000000000000    6.8717170000000003
 Er  Ni  B  
   2   8   2
Cartesian
  0.0000000000000000  0.0000000000000000  3.4358585000000001
  0.0000000000000000  0.0000000000000000  0.0000000000000000
 -0.0000021205480000  2.8334987500819997  0.0000000000000000
  2.4538841205480000  1.4167472499179998  0.0000000000000000
  2.4538815000000000  0.0000000000000000  1.9998208247740001
  1.2269410000000001  2.1251229999999999  1.9998208247740001
 -1.2269405000000000  2.1251229999999999  1.9998208247740001
  2.4538815000000000  0.0000000000000000  4.8718961752260004
  1.2269410000000001  2.1251229999999999  4.8718961752260004
 -1.2269405000000000  2.1251229999999999  4.8718961752260004
  2.4538841205480000  1.4167472499179998  3.4358585000000001
 -0.0000021205480000  2.8334987500819997  3.4358585000000001
