Li Ho Se
 1.0000000000000000
     6.5480179999999999   -2.0177950000000000   -0.0048940000000000
     6.5480179999999999    2.0177950000000000   -0.0048940000000000
     5.9287979999999996    0.0000000000000000    3.4347370000000002
 Li  Ho  Se 
   1   1   2
Cartesian
  9.5124169999999992  0.0000000000000000  1.7124745000000001
  0.0000000000000000  0.0000000000000000  0.0000000000000000
  4.7427579423619992  0.0000000000000000  0.8538158110570000
 14.2820760576379993  0.0000000000000001  2.5711331889430000
