Th Si O 
 1.0000000000000000
     5.7195929999999997    0.0034560000000000   -1.6816169999999999
    -3.2020270000000002    4.7392810000000001   -1.6816169999999999
    -0.0018340000000000   -0.0034560000000000    5.9616769999999999
 Th  Si  O  
   2   2   8
Cartesian
  2.3735269999999997  1.7785263750000000 -0.1911977499999999
  0.1422049999999998  2.9607546250000003  2.7896407500000002
 -2.0872830000000002  4.1464388750000003 -0.1911977499999999
  4.6030149999999992  0.5928421250000000  2.7896407500000002
 -1.4940335063400001  3.3631995731350002  1.1195257171300002
  1.5506067115729998  3.7131575246660002  0.9081411591129998
  3.6218662122600001  0.6453338608850000  4.1003642171300001
  2.2075393517929998  3.3666555765910000 -2.0726973408870002
 -1.1061342122600000  4.0939471391149995 -1.5019212171299998
  0.3081926482069999  1.3726254234089998  4.6711403408869998
  4.0097655063400000  1.3760814268649999  1.4789172828700001
  0.9651252884269998  1.0261234753340001  1.6903018408870001
