Eu Cd P 
 1.0000000000000000
     4.3397290000000002    0.0000000000000000    0.0000000000000000
    -2.1698640000000000    3.7583150000000001    0.0000000000000000
     0.0000000000000000    0.0000000000000000    7.1326169999999998
 Eu  Cd  P  
   1   2   2
Cartesian
  0.0000000000000000  0.0000000000000000  0.0000000000000000
  2.1698668365310003  1.2527704138950000  2.5790901136469997
 -0.0000018365310000  2.5055445861050001  4.5535268863529996
  2.1698668365310003  1.2527704138950000  5.3706608877240001
 -0.0000018365310000  2.5055445861050001  1.7619561122759999
