Ce Fe P 
 1.0000000000000000
     6.3290660000000001    0.0000000000000000   -2.2376619999999998
    -3.1645330000000000    5.4811319999999997   -2.2376619999999998
     0.0000000000000000    0.0000000000000000    6.7129890000000003
 Ce  Fe  P  
   1   4  12
Cartesian
  0.0000000000000000  0.0000000000000000  0.0000000000000000
  3.1645330000000000  0.0000000000000000 -1.1188309999999999
  0.0000000000000000  0.0000000000000000  3.3564945000000002
 -1.5822665000000000  2.7405659999999998 -1.1188309999999999
  1.5822665000000000  2.7405659999999998  1.1188325000000003
  0.4620439697310002  4.6540565868599995  1.3396722834570003
 -1.4170620547350001  4.6540565868599995  0.0109365088410004
  4.5815950547349997  0.8270754131400000  2.2267284911590006
 -0.1574639975470000  1.9268864734679998  2.2486011991880002
  0.6349762045819999  2.7539618866079998 -0.8979912092109997
  2.7024890302689997  0.8270754131400000  0.8979927165430003
 -1.0970201743129999  3.5542455265319997  3.5773280231530000
  1.5899974541189998  1.0998165414599999  4.4643866177970004
  3.3219969975469996  3.5542455265319997 -0.0109361991879997
  1.5745355458810002  4.3813154585399996 -2.2267216177969993
  4.2615531743129997  1.9268864734679998 -1.3396630231529996
  2.5295567954180003  2.7271701133919999  3.1356562092110005
