Rb Cu O 
 1.0000000000000000
     0.0015200000000000    0.0000000000000000   -5.8216650000000003
    -4.7377549999999999   -4.7383150000000001   -2.9095900000000001
    -4.7377659999999997    4.7383270000000000   -2.9095909999999998
 Rb  Cu  O  
   4   4   4
Cartesian
 -4.7374120789770000 -2.8861195360210004 -4.3582678595170004
 -4.7374329954369996  2.8861362744440000 -4.3582655540620001
 -1.8508236352450000 -0.0000071316500000 -4.3726911180050001
 -7.6223000606630000  0.0000191315059997 -10.1926974328780009
 -3.4469742237740002 -1.2876343647220003 -7.2745121431390007
 -6.0262288528290000  1.2876179347480001 -7.2772245834439993
 -3.4469772145549999  1.2876525754199999 -7.2745065932249995
 -6.0262353376349997 -1.2876121455300003 -7.2772359525450003
 -4.7366136195269997  2.5760747630889997 -7.2591982961569999
 -4.7366123769559998 -2.5760580247979998 -7.2592006620809997
 -7.3158829027139998  0.0000045275930003 -7.2917753268789998
 -2.1589832231379997  0.0000074725510001 -1.4711713022180000
