In As Pd
 1.0000000000000000
     4.0164629999999999    0.0000000000000000    0.0000000000000000
     0.0000000000000000    4.0164629999999999    0.0000000000000000
     0.0000000000000000    0.0000000000000000    7.0343119999999999
 In  As  Pd 
   1   1   5
Cartesian
  2.0082314999999999  2.0082314999999999  0.0000000000000000
  0.0000000000000000  0.0000000000000000  3.5171559999999999
  0.0000000000000000  2.0082314999999999  2.0308480802719999
  0.0000000000000000  2.0082314999999999  5.0034639197279995
  2.0082314999999999  0.0000000000000000  2.0308480802719999
  2.0082314999999999  0.0000000000000000  5.0034639197279995
  0.0000000000000000  0.0000000000000000  0.0000000000000000
