Th C 
 1.0000000000000000
     3.2843900000000001    0.0000000000000000    1.8962450000000000
     1.0947970000000000    3.0965520000000000    1.8962450000000000
     0.0000000000000000    0.0000000000000000    3.7924869999999999
 Th  C  
   1   1
Cartesian
  2.1895935000000000  1.5482760000000000  3.7924885000000002
  0.0000000000000000  0.0000000000000000  0.0000000000000000
