Cs Na Al H 
 1.0000000000000000
     0.0000000000000000    4.3129590000000002    4.3129590000000002
     4.3129590000000002    0.0000000000000000    4.3129590000000002
     4.3129590000000002    4.3129590000000002    0.0000000000000000
 Cs  Na  Al  H  
   2   1   1   6
Cartesian
  2.1564795000000001  2.1564795000000001  2.1564795000000001
  6.4694385000000008  6.4694385000000008  6.4694385000000008
  4.3129590000000002  4.3129590000000002  4.3129590000000002
  0.0000000000000000  0.0000000000000000  0.0000000000000000
  6.8252144879100003  4.3129590000000002  4.3129590000000002
  4.3129590000000002  1.8007035120900001  4.3129590000000002
  4.3129590000000002  6.8252144879100003  4.3129590000000002
  4.3129590000000002  4.3129590000000002  6.8252144879100003
  4.3129590000000002  4.3129590000000002  1.8007035120900001
  1.8007035120900001  4.3129590000000002  4.3129590000000002
