Zn Rh F 
 1.0000000000000000
     4.4175469999999999   -0.0005780000000000    3.0749469999999999
     1.6056490000000001    4.1153110000000002    3.0750820000000001
    -0.0009440000000000   -0.0008230000000000    5.3823790000000002
 Zn  Rh  F  
   1   1   6
Cartesian
  3.0111260000000004  2.0569550000000003  5.7662040000000001
  0.0000000000000000  0.0000000000000000  0.0000000000000000
  1.8665697516149999  0.4065580896440000  5.5872203282130002
  1.6581701132270001  3.1296024846700004  4.7246723397490005
  2.0415720143810003  2.5229785902930000  7.4716766182320002
  4.3640818867730005  0.9843075153300000  6.8077356602509997
  4.1556822483850002  3.7073519103560000  5.9451876717870000
  3.9806799856190000  1.5909314097070000  4.0607313817680000
