Al Ag Se
 1.0000000000000000
     5.3770280000000001   -0.0000000000000000   -2.6058889999999999
    -1.2629030000000001    5.2266149999999998   -2.6058889999999999
     0.0452830000000000    0.0575290000000000    6.9438979999999999
 Al  Ag  Se 
   2   2   4
Cartesian
  2.0570624999999998  2.6133074999999999 -2.6058889999999999
  3.7396867500000006  1.3354182500000000  0.8660600000000001
  0.4197212499999999  3.9487257499999999  0.8660600000000001
  0.0000000000000000  0.0000000000000000  0.0000000000000000
  3.4098050493720002  4.5876703749999992 -2.7267381010609997
  3.1894448947470000  0.8922155833650001  3.1559136010610001
  1.7554927006280001  1.9743628750000000 -0.3160353989390001
 -0.0359266447470000  3.1140391666350000  3.3510998989390002
