Ba
 1.0000000000000000
     5.0322129999999996    0.0000000000000000    0.0000000000000000
     0.0000000000000000    5.0322129999999996    0.0000000000000000
     0.0000000000000000    0.0000000000000000    5.0322129999999996
 Ba 
   2
Cartesian
  0.0000000000000000  0.0000000000000000  0.0000000000000000
  2.5161064999999998  2.5161064999999998  2.5161064999999998
