Ba Mg Ge
 1.0000000000000000
     4.3610620000000004    0.0000000000000000   -1.6619050000000000
    -0.6333160000000000    4.3148309999999999   -1.6619050000000000
     0.0113860000000000    0.0131800000000000    6.5828389999999999
 Ba  Mg  Ge 
   1   2   2
Cartesian
  0.0000000000000000  0.0000000000000000  0.0000000000000000
  3.1181605000000001  1.0852977500000001  1.6295145000000000
  0.6209715000000000  3.2427132500000000  1.6295145000000000
  2.3001895115300006  2.6624479549849998 -0.5169512862200001
  1.4389424884699999  1.6655630450149999  3.7759802862199998
