Sr P  O 
 1.0000000000000000
     4.6271220000000000    0.0000000000000000   -1.3292120000000001
    -0.3818370000000000    4.6113390000000001   -1.3292120000000001
    -0.0075580000000000   -0.0082110000000000    8.6920319999999993
 Sr  P   O  
   4   2   1
Cartesian
  2.8631801077510000  3.1100602567259998  1.2486819560719997
  1.3745468922489998  1.4930677432739998  4.7849260439280004
 -0.1909185000000000  2.3056695000000000 -0.6646060000000000
  2.3135610000000000  0.0000000000000000 -0.6646060000000000
  3.6664130578090002  3.9825522865200003  4.0448159305519988
  0.5713139421910001  0.6205757134800001  1.9887920694479997
  2.1226425000000000  2.3056695000000000 -1.3292120000000001
