V  Cr C 
 1.0000000000000000
     2.8453599999999999    0.0000000000000000    0.0000000000000000
     0.0000000000000000    9.1824729999999999    0.0000000000000000
     0.0000000000000000    0.0000000000000000    7.0976520000000001
 V   Cr  C  
   4   8   8
Cartesian
  1.4226799999999999  8.3016075475830000  5.3232390000000001
  1.4226799999999999  0.8808654524170000  1.7744130000000000
  0.0000000000000000  3.7103710475830001  5.3232390000000001
  0.0000000000000000  5.4721019524170007  1.7744130000000000
  0.0000000000000000  1.2907894120829999  4.0614539156999996
  0.0000000000000000  7.8916835879170000  3.0361980843000000
  0.0000000000000000  7.8916835879170000  0.5126279157000000
  0.0000000000000000  1.2907894120829999  6.5850240843000005
  1.4226799999999999  5.8820259120829999  4.0614539156999996
  1.4226799999999999  3.3004470879170000  3.0361980843000000
  1.4226799999999999  3.3004470879170000  0.5126279157000000
  1.4226799999999999  5.8820259120829999  6.5850240843000005
  1.4226799999999999  6.8905920165110004  1.7744130000000000
  1.4226799999999999  2.2918809834889999  5.3232390000000001
  1.4226799999999999  0.0000000000000000  3.5488260000000000
  1.4226799999999999  0.0000000000000000  0.0000000000000000
  0.0000000000000000  2.2993555165110000  1.7744130000000000
  0.0000000000000000  6.8831174834889994  5.3232390000000001
  0.0000000000000000  4.5912364999999999  3.5488260000000000
  0.0000000000000000  4.5912364999999999  0.0000000000000000
