Sc Tl Te
 1.0000000000000000
     4.1181690000000000   -0.0113710000000000    7.3691959999999996
     1.9106129999999999    3.6481509999999999    7.3691959999999996
    -0.0188500000000000   -0.0113710000000000    8.4418009999999999
 Sc  Tl  Te 
   1   1   2
Cartesian
  0.0000000000000000  0.0000000000000000  0.0000000000000000
  3.0049660000000000  1.8127044999999999 11.5900964999999996
  4.4142049050200001  2.6628085293650003 17.0255040556050012
  1.5957270949800000  0.9626004706350000  6.1546889443949997
