Lu Si Rh
 1.0000000000000000
     3.7495479999999999    0.0000000000000000   -1.4083159999999999
    -0.5289580000000000    3.7120489999999999   -1.4083159999999999
    -0.0052770000000000   -0.0060820000000000    5.6815699999999998
 Lu  Si  Rh 
   1   2   2
Cartesian
  0.0000000000000000  0.0000000000000000  0.0000000000000000
  1.9967287532339997  2.3014277437909998 -0.3794503642959999
  1.2185842467660000  1.4045392562090000  3.2443883642959999
  0.5380300000000000  2.7809957499999998  1.4324690000000000
  2.6772829999999996  0.9249712500000000  1.4324690000000000
