Al Ni
 1.0000000000000000
     3.5697990000000002    0.0000000000000000    0.0000000000000000
     0.0000000000000000    3.5697990000000002    0.0000000000000000
     0.0000000000000000    0.0000000000000000    3.5694599999999999
 Al  Ni 
   1   3
Cartesian
  0.0000000000000000  0.0000000000000000  0.0000000000000000
  1.7848995000000001  1.7848995000000001  0.0000000000000000
  0.0000000000000000  1.7848995000000001  1.7847299999999999
  1.7848995000000001  0.0000000000000000  1.7847299999999999
