Th Cu Si
 1.0000000000000000
     3.8396439999999998    0.0000000000000000   -1.4755890000000000
    -0.5670740000000000    3.7975390000000000   -1.4755890000000000
    -0.0198900000000000   -0.0230800000000000    5.6816290000000000
 Th  Cu  Si 
   1   2   2
Cartesian
  0.0000000000000000  0.0000000000000000  0.0000000000000000
  2.7280194999999998  0.9378447500000000  1.3652255000000000
  0.5246605000000000  2.8366142499999998  1.3652255000000000
  2.0324989552999999  2.3585422385390000 -0.4445903814910000
  1.2201810447000001  1.4159167614610000  3.1750413814909999
