La Al
 1.0000000000000000
     6.6945759999999996    0.0000000000000000    0.0000000000000000
    -3.3472879999999998    5.7976739999999998    0.0000000000000000
     0.0000000000000000    0.0000000000000000    4.6224759999999998
 La  Al 
   2   6
Cartesian
 -0.0000033472880000  3.8651179325579998  1.1556190000000000
  3.3472913472880004  1.9325560674419999  3.4668570000000001
  3.3472813054240000  4.2260869134719998  1.1556190000000000
 -1.9862438790319998  5.0118746590619994  3.4668570000000001
  1.9862572681839998  5.0118746590619994  3.4668570000000001
  1.3610307318159998  0.7857993409380000  1.1556190000000000
  5.3335318790319999  0.7857993409380000  1.1556190000000000
  0.0000066945760000  1.5715870865279997  3.4668570000000001
