Ni Ge Pd
 1.0000000000000000
     3.6094590000000002    0.0000000000000000    0.0000000000000000
     0.0000000000000000    3.6094590000000002    0.0000000000000000
     0.0000000000000000    0.0000000000000000    6.2163110000000001
 Ni  Ge  Pd 
   2   2   2
Cartesian
  0.9023647500000000  2.7070942499999999  0.0000000000000000
  2.7070942499999999  0.9023647500000000  0.0000000000000000
  0.9023647500000000  0.9023647500000000  1.5168171818660001
  2.7070942499999999  2.7070942499999999  4.6994938181340000
  0.9023647500000000  0.9023647500000000  3.9768725296279999
  2.7070942499999999  2.7070942499999999  2.2394384703720003
