Al Fe B 
 1.0000000000000000
     2.8623259999999999    0.0000000000000000    0.0000000000000000
     0.0000000000000000    2.7936399999999999   -0.7401550000000000
     0.0000000000000000    0.0022950000000000    5.6508909999999997
 Al  Fe  B  
   1   2   2
Cartesian
  0.0000000000000000  0.0000000000000000  0.0000000000000000
  1.4311630000000000  1.8079779204600002  1.1817838614630001
  1.4311630000000000  0.9879570795400000  3.7289521385369997
  0.0000000000000000  2.2200900442350000  2.7372636904059995
  0.0000000000000000  0.5758477494049999  2.1734715694389997
