Yb Nb Ru
 1.0000000000000000
     0.0000000000000000    3.2344439999999999    3.2344439999999999
     3.2344439999999999    0.0000000000000000    3.2344439999999999
     3.2344439999999999    3.2344439999999999    0.0000000000000000
 Yb  Nb  Ru 
   1   1   2
Cartesian
  0.0000000000000000  0.0000000000000000  0.0000000000000000
  3.2344439999999999  3.2344439999999999  3.2344439999999999
  1.6172219999999999  1.6172219999999999  1.6172219999999999
  4.8516659999999998  4.8516659999999998  4.8516659999999998
