La Si Ru
 1.0000000000000000
     4.1230180000000001    0.0000000000000000    0.0000000000000000
     0.0000000000000000    4.4543150000000002   -0.8714140000000000
     0.0000000000000000   -0.2463740000000000    8.3830010000000001
 La  Si  Ru 
   2   4   2
Cartesian
  1.0307545000000000  0.3646054052120000  1.6096921065470000
  3.0922635000000001  3.8433355947879999  5.9018948934530009
  1.0307545000000000  3.5689992454419999  3.5172513496869997
  3.0922635000000001  0.6389417545580000  3.9943356503129999
  3.0922635000000001  2.3767118983280002  0.3030704539399999
  1.0307545000000000  1.8312291016720004  7.2085165460600003
  3.0922635000000001  2.6673844146200003  2.7240750634320001
  1.0307545000000000  1.5405565853800003  4.7875119365680003
