Co
 1.0000000000000000
     2.4966640000000000    0.0000000000000000    0.0000000000000000
    -1.2483320000000000    2.1621750000000000    0.0000000000000000
     0.0000000000000000    0.0000000000000000    4.0306319999999998
 Co 
   2
Cartesian
  1.2483332483320000  0.7207242792749999  3.0229739999999996
 -0.0000012483320000  1.4414507207250000  1.0076579999999999
