Ga O 
 1.0000000000000000
    12.0903700000000001    0.0000000000000000   -2.9451139999999998
     0.0000000000000000    3.0824760000000002    0.0000000000000000
    -0.0001180000000000    0.0000000000000000    5.8743949999999998
 Ga  O  
   8  12
Cartesian
 10.1747150066360010  1.5412380000000001  1.5515034249919999
  1.9155369933640001  1.5412380000000001  1.3777775750079999
 11.0034215146680001  0.0000000000000000 -1.4744876921699999
  1.0868304853320001  0.0000000000000000  4.4037686921699999
  4.1295300066360001  0.0000000000000000  3.0240604249919998
  7.9607219933639994  0.0000000000000000 -0.0947794249919999
  4.9582365146680010  1.5412380000000001 -0.0019306921700000
  7.1320154853319995  1.5412380000000001  2.9312116921700002
  0.0488903647200000  1.5412380000000001  4.3552414460610001
 12.0413616352799995  1.5412380000000001 -1.4259604460609998
  9.9911281020499985  0.0000000000000000  0.1254115999999999
  2.0991238979499998  0.0000000000000000  2.8038694000000000
  1.9766659136980000  0.0000000000000000  0.1586243706670000
 10.1135860863020000  0.0000000000000000  2.7706566293330002
  6.0940753647200001  0.0000000000000000  2.8826844460609999
  5.9961766352799994  0.0000000000000000  0.0465965539390001
  3.9459431020500002  1.5412380000000001  1.5979685999999997
  8.1443088979500011  1.5412380000000001  1.3313124000000001
  8.0218509136979996  1.5412380000000001 -1.3139326293329998
  4.0684010863019999  1.5412380000000001  4.2432136293329998
