Ta Co
 1.0000000000000000
     6.7290099999999997    0.0000000000000000    0.0000000000000000
     0.0000000000000000    6.7290099999999997    0.0000000000000000
     0.0000000000000000    0.0000000000000000    6.7290099999999997
 Ta  Co 
   8  16
Cartesian
  2.5233787500000000  5.8878837499999994  2.5233787500000000
  0.8411262500000000  0.8411262500000000  0.8411262500000000
  2.5233787500000000  2.5233787500000000  5.8878837499999994
  0.8411262500000000  4.2056312499999997  4.2056312499999997
  5.8878837499999994  5.8878837499999994  5.8878837499999994
  4.2056312499999997  0.8411262500000000  4.2056312499999997
  5.8878837499999994  2.5233787500000000  2.5233787500000000
  4.2056312499999997  4.2056312499999997  0.8411262500000000
  1.6822524999999999  3.3645049999999999  1.6822524999999999
  3.3645049999999999  0.0000000000000000  0.0000000000000000
  3.3645049999999999  1.6822524999999999  1.6822524999999999
  1.6822524999999999  1.6822524999999999  3.3645049999999999
  1.6822524999999999  0.0000000000000000  5.0467575000000000
  3.3645049999999999  3.3645049999999999  3.3645049999999999
  3.3645049999999999  5.0467575000000000  5.0467575000000000
  1.6822524999999999  5.0467575000000000  0.0000000000000000
  5.0467575000000000  3.3645049999999999  5.0467575000000000
  0.0000000000000000  0.0000000000000000  3.3645049999999999
  0.0000000000000000  1.6822524999999999  5.0467575000000000
  5.0467575000000000  1.6822524999999999  0.0000000000000000
  5.0467575000000000  0.0000000000000000  1.6822524999999999
  0.0000000000000000  3.3645049999999999  0.0000000000000000
  0.0000000000000000  5.0467575000000000  1.6822524999999999
  5.0467575000000000  5.0467575000000000  3.3645049999999999
