Sc Cu Sn
 1.0000000000000000
     4.4238970000000002    0.0000000000000000    0.0000000000000000
    -2.2119490000000002    3.8312080000000002    0.0000000000000000
     0.0000000000000000    0.0000000000000000    6.8875560000000000
 Sc  Cu  Sn 
   2   2   2
Cartesian
  0.0000000000000000  0.0000000000000000  6.8731403452919997
  0.0000000000000000  0.0000000000000000  3.4293623452920001
 -0.0000025452820002  2.5541399437360002  5.7051554863679996
  2.2119505452820003  1.2770680562640000  2.2613774863680001
 -0.0000025452820002  2.5541399437360002  1.5798262699440000
  2.2119505452820003  1.2770680562640000  5.0236042699440002
