Tb P 
 1.0000000000000000
     3.4883880000000000    0.0000000000000000    2.0140229999999999
     1.1627970000000001    3.2888839999999999    2.0140229999999999
     0.0000000000000000    0.0000000000000000    4.0280430000000003
 Tb  P  
   1   1
Cartesian
  2.3255925000000000  1.6444420000000000  4.0280445000000000
  0.0000000000000000  0.0000000000000000  0.0000000000000000
