Li Hg Pd
 1.0000000000000000
     0.0000050000000000    3.0917840000000001    3.0917840000000001
     3.0917840000000001    0.0000060000000000    3.0917840000000001
     3.0917849999999998    3.0917849999999998    0.0000050000000000
 Li  Hg  Pd 
   2   1   1
Cartesian
  0.0000000000000000  0.0000000000000000  0.0000000000000000
  3.0917870000000001  3.0917874999999997  3.0917865000000000
  1.5458996835739998  1.5458999335749999  1.5458994335729999
  4.6376805000000001  4.6376812500000000  4.6376797500000002
