Sc Fe C 
 1.0000000000000000
     3.3945930000000000    0.0000000000000000    0.0000000000000000
     0.0000000000000000    4.3529020000000003    0.0000000000000000
     0.0000000000000000    0.0000000000000000   12.1118950000000005
 Sc  Fe  C  
   6   2   8
Cartesian
  0.0000000000000000  2.1764510000000001  0.0000000000000000
  0.0000000000000000  0.0000000000000000  2.2849453274350000
  0.0000000000000000  0.0000000000000000  9.8269496725650001
  1.6972965000000000  0.0000000000000000  6.0559475000000003
  1.6972965000000000  2.1764510000000001  8.3408928274350007
  1.6972965000000000  2.1764510000000001  3.7710021725649998
  1.6972965000000000  0.0000000000000000  0.0000000000000000
  0.0000000000000000  2.1764510000000001  6.0559475000000003
  1.6972965000000000  1.4540782072960001 10.6119215875150008
  1.6972965000000000  2.8988237927039999  1.4999734124849999
  1.6972965000000000  1.4540782072960001  1.4999734124849999
  1.6972965000000000  2.8988237927039999 10.6119215875150008
  0.0000000000000000  3.6305292072960005  4.5559740875150005
  0.0000000000000000  0.7223727927040000  7.5559209124850009
  0.0000000000000000  3.6305292072960005  7.5559209124850009
  0.0000000000000000  0.7223727927040000  4.5559740875150005
