Sm I 
 1.0000000000000000
    11.1661149999999996    0.0000000000000000    0.0000000000000000
    -5.5830570000000002    9.6701390000000007    0.0000000000000000
     0.0000000000000000    0.0000000000000000    4.0751150000000003
 Sm  I  
   2   6
Cartesian
  0.0000003333339997  6.4467722268520005  3.0563362500000002
  5.5830632497239998  3.2233764432870000  1.0187746748850000
 -0.0000109541030000  4.1003710193360003  1.0187746748850000
  2.0320267508669994  7.6199631604710012  1.0187746748850000
 -2.0320482951080003  7.6199631604710012  1.0187746748850000
  5.5830689541030001  5.5697679806640013  3.0563362500000002
  3.5510368321909995  2.0501855096680002  3.0563362500000002
  7.6150895459360006  2.0501855096680002  3.0563362500000002
