Sr As
 1.0000000000000000
     5.6496950000000004   -0.0044400000000000    1.8023240000000000
     1.5301819999999999    5.8338469999999996    1.3894310000000001
    -0.0055850000000000   -0.0130760000000000    6.1891470000000002
 Sr  As 
   2   6
Cartesian
  2.4044182978299999  1.9546704723149999  3.1504841115500000
  4.7698737021700000  3.8616605276850002  6.2304178884500008
  4.7517888074580004  0.7343783770589999  5.3113750091709999
  1.7058605584969999  2.3535737088359996  6.3092424664890006
  4.4607587620770000  0.0114335377860000  1.4412369534080001
  2.7135332379230004  5.8048974622139999  7.9396650465920002
  5.4684314415030002  3.4627572911639994  3.0716595335110002
  2.4225031925420000  5.0819526229409995  4.0695269908289999
