Eu Mg Bi
 1.0000000000000000
     2.4066519999999998   -4.1684440000000000    0.0000000000000000
     2.4066519999999998    4.1684440000000000    0.0000000000000000
     0.0000000000000000    0.0000000000000000    7.8587990000000003
 Eu  Mg  Bi 
   1   2   2
Cartesian
  0.0000000000000000  0.0000000000000000  0.0000000000000000
  2.4066519999999998 -1.3894841122960002  4.9547605819270002
  2.4066519999999998  1.3894841122960000  2.9040384180730001
  2.4066519999999998 -1.3894841122960002  1.9566759162210001
  2.4066519999999998  1.3894841122960000  5.9021230837790002
