Sn Te
 1.0000000000000000
     6.4110860000000001    0.0000000000000000    0.0000000000000000
     0.0000000000000000    6.4110860000000001    0.0000000000000000
     0.0000000000000000    0.0000000000000000    6.4110860000000001
 Sn  Te 
   4   4
Cartesian
  0.0000000000000000  0.0000000000000000  0.0000000000000000
  0.0000000000000000  3.2055430000000000  3.2055430000000000
  3.2055430000000000  0.0000000000000000  3.2055430000000000
  3.2055430000000000  3.2055430000000000  0.0000000000000000
  0.0000000000000000  3.2055430000000000  0.0000000000000000
  0.0000000000000000  0.0000000000000000  3.2055430000000000
  3.2055430000000000  3.2055430000000000  3.2055430000000000
  3.2055430000000000  0.0000000000000000  0.0000000000000000
