Ta Ir
 1.0000000000000000
     3.9281299999999999    0.0000000000000000    0.0000000000000000
     0.0000000000000000    3.9281299999999999    0.0000000000000000
     0.0000000000000000    0.0000000000000000    3.9281299999999999
 Ta  Ir 
   1   3
Cartesian
  0.0000000000000000  0.0000000000000000  0.0000000000000000
  1.9640649999999999  1.9640649999999999  0.0000000000000000
  1.9640649999999999  0.0000000000000000  1.9640649999999999
  0.0000000000000000  1.9640649999999999  1.9640649999999999
