Zn Ge As
 1.0000000000000000
     5.1670959999999999    0.0000000000000000   -2.3422920000000000
    -1.0617820000000000    5.0568270000000002   -2.3422920000000000
     0.0099100000000000    0.0122060000000000    6.8923129999999997
 Zn  Ge  As 
   2   2   4
Cartesian
  0.5003925000000000  3.7987232500000001  1.1038644999999998
  0.0000000000000000  0.0000000000000000  0.0000000000000000
  3.6148314999999993  1.2703097500000000  1.1038644999999998
  2.0526570000000000  2.5284135000000001 -2.3422920000000000
  3.5882613877279996  4.4277751250000001 -2.3730470462560000
  3.1028366345760001  0.6474878858640001  3.4096300462559999
 -0.0089861345760000  3.1634413641360002  3.4154014537439998
  1.5483361122720001  1.8993616250000001 -0.0365264537440002
