Mn Nb Al
 1.0000000000000000
    -0.0000030000000000    2.9949870000000001    2.9949819999999998
     2.9949859999999999   -0.0000030000000000    2.9949819999999998
     2.9949870000000001    2.9949870000000001   -0.0000030000000000
 Mn  Nb  Al 
   2   1   1
Cartesian
 -0.0000030000000000  2.9949870000000001  2.9949819999999998
  2.9949850000030001  2.9949825050130001  2.9949775050179999
  4.4924745050140000  4.4924782500029998  4.4924677550179997
  1.4974984899699999  1.4974987399709998  1.4974962399609999
