Ca Pb
 1.0000000000000000
     4.6275120000000003    0.0000000000000000    0.0000000000000000
     0.0000000000000000    5.0439840000000000    0.0000000000000000
     0.0000000000000000    0.0000000000000000    5.0439840000000000
 Ca  Pb 
   2   2
Cartesian
  0.0000000000000000  0.0000000000000000  0.0000000000000000
  0.0000000000000000  2.5219920000000000  2.5219920000000000
  2.3137560000000001  0.0000000000000000  2.5219920000000000
  2.3137560000000001  2.5219920000000000  0.0000000000000000
