Y 
 1.0000000000000000
     3.6608740000000002    0.0000000000000000    0.0000000000000000
    -1.8304380000000000    3.1704110000000001    0.0000000000000000
     0.0000000000000000    0.0000000000000000    5.6727749999999997
 Y  
   2
Cartesian
 -0.0000024971039999  2.1136083901370002  1.4181937499999999
  1.8304384971040002  1.0568026098629999  4.2545812499999993
