Lu B  Ru
 1.0000000000000000
     5.4387869999999996    0.0000000000000000    0.0000000000000000
    -2.7193930000000002    4.7101270000000000    0.0000000000000000
     0.0000000000000000    0.0000000000000000    3.0105900000000001
 Lu  B   Ru 
   1   2   3
Cartesian
  0.0000000000000000  0.0000000000000000  0.0000000000000000
  2.7193963860599997  1.5700407632909998  0.0000000000000000
 -0.0000023860600004  3.1400862367090001  0.0000000000000000
  2.7193934999999998  0.0000000000000000  1.5052950000000000
 -1.3596965000000001  2.3550635000000000  1.5052950000000000
  1.3596969999999997  2.3550635000000000  1.5052950000000000
