La Cu O 
 1.0000000000000000
    -1.9943420000000001    1.9943420000000001    6.2943970000000000
     1.9943420000000001   -1.9943420000000001    6.2943970000000000
     1.9943420000000001    1.9943420000000001   -6.2943970000000000
 La  Cu  O  
   2   1   4
Cartesian
 -0.0000000000000001  0.0000000000000001  8.1628761606559994
  0.0000000000000001 -0.0000000000000001  4.4259178393439997
  0.0000000000000000  0.0000000000000000  0.0000000000000000
  1.9943420000000001  0.0000000000000000  0.0000000000000000
  0.0000000000000000  1.9943420000000001  0.0000000000000000
 -0.0000000000000001  1.9943420000000001  3.1471985000000000
  1.9943420000000001  0.0000000000000000  3.1471985000000000
