Na Ti O 
 1.0000000000000000
     2.9455339999999999    0.0000000000000000    0.0000000000000000
     0.0000000000000000    9.2444159999999993    0.0000000000000000
     0.0000000000000000    0.0000000000000000   10.7385040000000007
 Na  Ti  O  
   4   8  16
Cartesian
  0.7363835000000000  6.8722526323199995  1.6504973262960001
  2.2091504999999998  2.3721633676800002  9.0880066737040011
  0.7363835000000000  2.2500446323199998  3.7187546737040007
  2.2091504999999998  6.9943713676799995  7.0197493262960009
  2.2091504999999998  8.6481049459199983  9.5434373668479999
  0.7363835000000000  0.5963110540800001  1.1950666331520001
  2.2091504999999998  4.0258969459199996  6.5643186331520011
  0.7363835000000000  5.2185190540799997  4.1741853668480005
  0.7363835000000000  5.3839386339839992  9.6276701922240004
  2.2091504999999998  3.8604773660159997  1.1108338077760000
  0.7363835000000000  0.7617306339840000  6.4800858077760006
  2.2091504999999998  8.4826853660159998  4.2584181922240001
  2.2091504999999998  8.5018490403840001  0.7525543603200001
  0.7363835000000000  0.7425669596159999  9.9859496396800012
  2.2091504999999998  3.8796410403839996  4.6166976396800008
  0.7363835000000000  5.3647749596159997  6.1218063603200008
  2.2091504999999998  4.8200662356479995  8.3876843968400010
  0.7363835000000000  4.4243497643519998  2.3508196031600002
  2.2091504999999998  0.1978582356480000  7.7200716031600001
  0.7363835000000000  9.0465577643520003  3.0184323968399998
  2.2091504999999998  5.6696188216319996  0.2420780956720000
  0.7363835000000000  3.5747971783679997 10.4964259043280013
  2.2091504999999998  1.0474108216319999  5.1271739043280009
  0.7363835000000000  8.1970051783679985  5.6113300956719998
  0.7363835000000000  7.3086075563519994  9.1042218147440011
  2.2091504999999998  1.9358084436479999  1.6342821852560001
  0.7363835000000000  2.6863995563519998  7.0035341852560009
  2.2091504999999998  6.5580164436479995  3.7349698147440002
