Ti Ga Pd
 1.0000000000000000
     0.0000000000000000    3.1055769999999998    3.1055769999999998
     3.1055769999999998    0.0000000000000000    3.1055769999999998
     3.1055769999999998    3.1055769999999998    0.0000000000000000
 Ti  Ga  Pd 
   1   1   2
Cartesian
  4.6583654999999995  4.6583654999999995  4.6583654999999995
  1.5527947111539997  1.5527947111539997  1.5527947111539997
  3.1055707888459998  3.1055707888459998  3.1055707888459998
  0.0000000000000000  0.0000000000000000  0.0000000000000000
