Ca Si Pt
 1.0000000000000000
     4.3860400000000004    0.0000000000000000    0.0000000000000000
     0.0000000000000000    7.1673119999999999    0.0000000000000000
     0.0000000000000000    0.0000000000000000    7.2433940000000003
 Ca  Si  Pt 
   4   4   4
Cartesian
  3.2895300000000001  3.6258858023039999  1.3681757190840000
  1.0965100000000001  7.1250821976959999  4.9898727190840004
  3.2895300000000001  0.0422298023040000  2.2535212809159999
  1.0965100000000001  3.5414261976960000  5.8752182809160001
  1.0965100000000001  5.9233819985279998  0.5887358209260001
  1.0965100000000001  2.3397259985279999  3.0329611790740003
  3.2895300000000001  1.2439300014719998  6.6546581790740005
  3.2895300000000001  4.8275860014720005  4.2104328209260000
  1.0965100000000001  4.9506917523840004  2.9163208054920000
  1.0965100000000001  1.3670357523840000  0.7053761945080000
  3.2895300000000001  5.8002762476159999  6.5380178054920002
  3.2895300000000001  2.2166202476160000  4.3270731945080003
