Fe Co
 1.0000000000000000
     5.7067889999999997    0.0000000000000000    0.0000000000000000
     0.0000000000000000    5.7067889999999997    0.0000000000000000
     0.0000000000000000    0.0000000000000000    5.7007469999999998
 Fe  Co 
  13   3
Cartesian
  0.0000000000000000  2.8533944999999998  2.8503734999999999
  1.4237297197200001  4.2830592802799998  4.2803545782269996
  4.2830592802799998  1.4237297197200001  1.4203924217730000
  4.2830592802799998  1.4237297197200001  4.2803545782269996
  4.2830592802799998  4.2830592802799998  4.2803545782269996
  2.8533944999999998  2.8533944999999998  2.8503734999999999
  1.4237297197200001  4.2830592802799998  1.4203924217730000
  1.4237297197200001  1.4237297197200001  4.2803545782269996
  1.4237297197200001  1.4237297197200001  1.4203924217730000
  2.8533944999999998  0.0000000000000000  2.8503734999999999
  0.0000000000000000  2.8533944999999998  0.0000000000000000
  4.2830592802799998  4.2830592802799998  1.4203924217730000
  2.8533944999999998  0.0000000000000000  0.0000000000000000
  2.8533944999999998  2.8533944999999998  0.0000000000000000
  0.0000000000000000  0.0000000000000000  2.8503734999999999
  0.0000000000000000  0.0000000000000000  0.0000000000000000
