Cu Au
 1.0000000000000000
     4.0582450000000003    0.0000000000000000    0.0000000000000000
     0.0000000000000000    4.0582450000000003    0.0000000000000000
     0.0000000000000000    0.0000000000000000    4.0582450000000003
 Cu  Au 
   1   3
Cartesian
  0.0000000000000000  0.0000000000000000  0.0000000000000000
  2.0291225000000002  2.0291225000000002  0.0000000000000000
  2.0291225000000002  0.0000000000000000  2.0291225000000002
  0.0000000000000000  2.0291225000000002  2.0291225000000002
