Nb Te
 1.0000000000000000
     3.7005520000000001    0.0000000000000000    0.0000000000000000
    -1.8502760000000000    7.0358080000000003   -2.6938399999999998
    -0.0000000000000000   -0.0839290000000000    9.6069910000000007
 Nb  Te 
   3   6
Cartesian
  0.0000000000000000  0.0000000000000000  0.0000000000000000
  0.0000037005520002  5.0300956761509994  4.8759330578550006
  1.8502722994480003  1.9217833238490003  2.0372179421450003
 -0.0000000000000001  4.8928917680140005  7.5538237643180004
  1.8502760000000003  2.0589872319859999 -0.6406727643179998
  1.8502741497239998  2.8493307045250003  4.8225972513810005
  0.0000018502760000  4.1025482954750006  2.0905537486190005
  0.0000037005520000  0.0609781003800000  2.8880604704280004
  1.8502722994480001  6.8909008996200001  4.0250905295720010
