Cs K  Pb F 
 1.0000000000000000
     0.0000000000000000    4.8635190000000001    4.8635190000000001
     4.8635190000000001    0.0000000000000000    4.8635190000000001
     4.8635190000000001    4.8635190000000001    0.0000000000000000
 Cs  K   Pb  F  
   2   1   1   6
Cartesian
  2.4317595000000001  2.4317595000000001  2.4317595000000001
  7.2952785000000002  7.2952785000000002  7.2952785000000002
  4.8635190000000001  4.8635190000000001  4.8635190000000001
  0.0000000000000000  0.0000000000000000  0.0000000000000000
  7.4557940810760002  4.8635190000000001  4.8635190000000001
  4.8635190000000001  2.2712439189240001  4.8635190000000001
  4.8635190000000001  7.4557940810760002  4.8635190000000001
  4.8635190000000001  4.8635190000000001  7.4557940810760002
  4.8635190000000001  4.8635190000000001  2.2712439189240001
  2.2712439189240001  4.8635190000000001  4.8635190000000001
