Ca Cu As
 1.0000000000000000
     4.1581260000000002    0.0000000000000000    0.0000000000000000
    -2.0790630000000001    3.6010430000000002    0.0000000000000000
     0.0000000000000000    0.0000000000000000    7.9686070000000004
 Ca  Cu  As 
   2   2   2
Cartesian
  0.0000000000000000  0.0000000000000000  3.9843035000000002
  0.0000000000000000  0.0000000000000000  0.0000000000000000
 -0.0000020790630002  2.4006965336810002  1.9921517500000001
  2.0790650790630001  1.2003464663190000  5.9764552500000008
  2.0790650790630001  1.2003464663190000  1.9921517500000001
 -0.0000020790630002  2.4006965336810002  5.9764552500000008
