Ca Pt
 1.0000000000000000
     5.4009609999999997    0.0000000000000000    0.0000000000000000
    -2.7004809999999999    4.6773699999999998    0.0000000000000000
     0.0000000000000000    0.0000000000000000    4.4335100000000001
 Ca  Pt 
   1   5
Cartesian
  0.0000000000000000  0.0000000000000000  0.0000000000000000
 -0.0000030338140001  3.1182482257899999  0.0000000000000000
  2.7004830338139998  1.5591217742099999  0.0000000000000000
  2.7004804999999998  0.0000000000000000  2.2167550000000000
  1.3502399999999999  2.3386849999999999  2.2167550000000000
 -1.3502405000000000  2.3386849999999999  2.2167550000000000
