Rb Br Cl F 
 1.0000000000000000
     0.0000000000000000    5.0419419999999997    5.0419419999999997
     5.0419419999999997    0.0000000000000000    5.0419419999999997
     5.0419419999999997    5.0419419999999997    0.0000000000000000
 Rb  Br  Cl  F  
   2   1   6   1
Cartesian
  2.5209709999999999  2.5209709999999999  2.5209709999999999
  7.5629130000000000  7.5629130000000000  7.5629130000000000
  5.0419419999999997  5.0419419999999997  5.0419419999999997
  7.4914989335119992  5.0419419999999997  5.0419419999999997
  5.0419419999999997  2.5923850664879997  5.0419419999999997
  5.0419419999999997  7.4914989335119992  5.0419419999999997
  5.0419419999999997  5.0419419999999997  7.4914989335119992
  5.0419419999999997  5.0419419999999997  2.5923850664879997
  2.5923850664879997  5.0419419999999997  5.0419419999999997
  0.0000000000000000  0.0000000000000000  0.0000000000000000
