Pa Te
 1.0000000000000000
     4.5702990000000003    0.0000000000000000    0.0000000000000000
     0.0000000000000000    4.5702990000000003    0.0000000000000000
     0.0000000000000000    0.0000000000000000    4.5702990000000003
 Pa  Te 
   3   1
Cartesian
  0.0000000000000000  2.2851449297010005  2.2851449297010005
  2.2851449297010005  0.0000000000000000  2.2851449297010005
  2.2851449297010005  2.2851449297010005  0.0000000000000000
  0.0000000000000000  0.0000000000000000  0.0000000000000000
