Ce Ge Rh
 1.0000000000000000
     4.5089899999999998    0.0000000000000000    0.0000000000000000
     0.0000000000000000    7.3981009999999996   -0.0001400000000000
     0.0000000000000000   -0.0001540000000000    7.1348019999999996
 Ce  Ge  Rh 
   4   4   4
Cartesian
  1.1272475000000000  1.4662050822729997  6.9644023140620002
  3.3817424999999997  5.9317419177269990  0.1702596859380000
  3.3817424999999997  5.1658578900429992  3.7377108519080000
  1.1272475000000000  2.2320891099570002  3.3969511480919996
  1.1272475000000000  4.3306254213309998  5.8712464988479995
  3.3817424999999997  3.0673215786690000  1.2634155011519999
  3.3817424999999997  0.6319302899999999  4.8310195521360004
  1.1272475000000000  6.7660167099999997  2.3036424478640001
  1.1272475000000000  4.3249866272339998  1.4822232134339999
  3.3817424999999997  3.0729603727660000  5.6524387865660000
  3.3817424999999997  0.6249910100260000  2.0825655277399999
  1.1272475000000000  6.7729559899740002  5.0520964722599997
