Bi Te Pd
 1.0000000000000000
     6.7236219999999998    0.0000000000000000    0.0000000000000000
     0.0000000000000000    6.7236219999999998    0.0000000000000000
     0.0000000000000000    0.0000000000000000    6.7236219999999998
 Bi  Te  Pd 
   4   4   4
Cartesian
  2.4815275132719998  2.4815275132719998  2.4815275132719998
  0.8802834867280001  4.2420944867279999  5.8433385132719993
  5.8433385132719993  0.8802834867280001  4.2420944867279999
  4.2420944867279999  5.8433385132719993  0.8802834867280001
  4.2052355909240005  4.2052355909240005  4.2052355909240005
  5.8801974090759996  2.5183864090759998  0.8434245909239999
  0.8434245909239999  5.8801974090759996  2.5183864090759998
  2.5183864090759998  0.8434245909239999  5.8801974090759996
  0.0266995029620000  0.0266995029620000  0.0266995029620000
  3.3351114970380000  6.6969224970379999  3.3885105029619997
  3.3885105029619997  3.3351114970380000  6.6969224970379999
  6.6969224970379999  3.3885105029619997  3.3351114970380000
