Zr S  O 
 1.0000000000000000
     5.7224360000000001    0.0000000000000000    0.0000000000000000
     0.0000000000000000    5.7224360000000001    0.0000000000000000
     0.0000000000000000    0.0000000000000000    5.7224360000000001
 Zr  S   O  
   4   4   4
Cartesian
  5.3146723779479998  3.2689816220520003  2.4534543779479998
  3.2689816220520003  2.4534543779479998  5.3146723779479998
  2.4534543779479998  5.3146723779479998  3.2689816220520003
  0.4077636220520000  0.4077636220520000  0.4077636220520000
  0.9605394947800000  3.8217574947799999  4.7618965052200002
  4.7618965052200002  0.9605394947800000  3.8217574947799999
  3.8217574947799999  4.7618965052200002  0.9605394947800000
  1.9006785052200001  1.9006785052200001  1.9006785052200001
  0.8891921627320000  4.8332438372679993  1.9720258372680000
  4.8332438372679993  1.9720258372680000  0.8891921627320000
  3.7504101627320003  3.7504101627320003  3.7504101627320003
  1.9720258372680000  0.8891921627320000  4.8332438372679993
