Sc Cd
 1.0000000000000000
     3.5473059999999998    0.0000000000000000    0.0000000000000000
     0.0000000000000000    3.5473059999999998    0.0000000000000000
     0.0000000000000000    0.0000000000000000    3.5473059999999998
 Sc  Cd 
   1   1
Cartesian
  1.7736529999999999  1.7736529999999999  1.7736529999999999
  0.0000000000000000  0.0000000000000000  0.0000000000000000
