Ca N 
 1.0000000000000000
     9.3357650000000003    0.0000000000000000   -3.3006910000000000
    -4.6678829999999998    8.0850100000000005   -3.3006910000000000
     0.0000000000000000    0.0000000000000000    9.9020729999999997
 Ca  N  
  24  16
Cartesian
 -0.8575414977259997  2.1953793603700000 -0.9723043520159999
 -0.8900208561029996  5.9458861392100006 -1.0641691839280003
  6.9654329195529998  0.2987734595400000  2.2365251167629996
  2.0964764999369998  3.7437315404600002 -0.7798245563510006
 -0.0039165814610000  3.6874679558700003  2.3283965500569996
  2.5025264908909999  0.0562554995800000 -0.4843962083959999
  0.8614575791869999  2.2021626837600001  5.6290776479839995
 -1.9564685102759998  3.9862495004200000  5.8215640450309998
  1.0339589308729999  6.1816288607900001 -3.7850971104690001
  5.7992790782360002  1.8471256396300002 -0.4843962083960002
 -0.1400224933090000  0.3550370441300000  2.5208697443399997
  3.2603664401980006  1.8403423162400001  2.2365185153810003
  6.6243505102760007  4.0987604995800000 -2.5208730450310002
  3.8064244208130003  5.8828473162400003 -2.3283866479839999
  2.1653555091090002  8.0287545004199998  3.7850872083959999
  4.6717985814609992  4.3975420441299997  0.9722944499429998
  2.5714055000630003  4.3412784595400007  4.0805155563509992
 -2.2975509195529997  7.7862365404600000  1.0641658832370002
  5.5579028561030013  2.1391238607900003  4.3648601839280001
  5.5254234977260008  5.8896306396300000  4.2729953520159993
  3.6339230691270008  1.9033811392100000  7.0857881104689993
 -1.1313970782359997  6.2378843603700007  3.7850872083959999
  4.8079044933090014  7.7299729558700010  0.7798212556599995
  1.4075155598020013  6.2446676837600004  1.0641724846189993
 -0.9819174463479997  5.7432353635600002  1.3886403119919999
 -3.1308051823399996  6.0637575000000004  5.2127416880080002
  7.1868772640080003  0.3205221364400000  4.6893313119919995
  3.1308046823400000  2.0212525000000001  4.6893313119919995
  4.4828287359920003  3.7219828635600001 -1.3886403119920003
  3.3158579463479998  6.3842796364400005 -4.6893313119919995
  5.6497994463480001  2.3417746364400003  1.9120506880080002
  7.7986871823400010  2.0212525000000001 -1.9120506880080002
 -2.5189952640079998  7.7644878635600003 -1.3886403119919999
  1.5370773176600006  6.0637575000000004 -1.3886403119920003
  0.1850532640080004  4.3630271364400004  4.6893313119919995
  1.3520240536520003  1.7007303635600000  7.9900223119919991
 -2.3339414999999999  4.0425050000000002 -1.6503455000000000
  4.6678825000000002  0.0000000000000000 -1.6503455000000000
  0.0000000000000000  0.0000000000000000  4.9510364999999998
  2.3339410000000003  4.0425050000000002  1.6503454999999998
