Cs Ca Br
 1.0000000000000000
     5.6789180000000004    0.0000000000000000    0.0000000000000000
     0.0000000000000000    5.6789180000000004    0.0000000000000000
    -2.8394590000000002   -2.8394590000000002    9.0607509999999998
 Cs  Ca  Br 
   2   1   4
Cartesian
  0.0000028394590001  0.0000028394590001  6.4845348504229996
  2.8394561605410007  2.8394561605410007  2.5762161495769997
  0.0000000000000000  0.0000000000000000  0.0000000000000000
 -0.0000000000000000 -0.0000000000000000  2.8936414393599996
  2.8394589999999997  2.8394589999999997  6.1671095606400002
  0.0000000000000000  2.8394590000000002  0.0000000000000000
  2.8394590000000002  0.0000000000000000  0.0000000000000000
