Li Ca Pb
 1.0000000000000000
     2.4745029999999999   -4.2859670000000003    0.0000000000000000
     2.4745029999999999    4.2859670000000003    0.0000000000000000
     0.0000000000000000    0.0000000000000000   10.9617609999999992
 Li  Ca  Pb 
   3   3   3
Cartesian
  2.4745029999999999 -1.4286585239780001  8.8182105599719982
  2.4745029999999999  1.4286585239780001  5.4808804999999996
  2.4745029999999999 -1.4286585239780001  2.1435504400279997
  0.0000000000000000  0.0000000000000000  3.6552868995379995
  0.0000000000000000  0.0000000000000000  7.3064741004619993
  0.0000000000000000  0.0000000000000000  0.0000000000000000
  2.4745029999999999  1.4286585239780001  1.6612877648329998
  2.4745029999999999  1.4286585239780001  9.3004732351669990
  2.4745029999999999 -1.4286585239780001  5.4808804999999996
