Ba Ni Sn
 1.0000000000000000
    -2.4189889999999998    2.4189889999999998    5.5055329999999998
     2.4189889999999998   -2.4189889999999998    5.5055329999999998
     2.4189889999999998    2.4189889999999998   -5.5055329999999998
 Ba  Ni  Sn 
   1   1   3
Cartesian
 -0.0000000000000000  0.0000000000000000  0.0108018557460000
 -0.0000000000000001  0.0000000000000001  7.2653105570540006
  2.4189889999999998  0.0000000000000002  2.7537685070059998
  0.0000000000000000 -0.0000000000000000  4.7052267009879998
  0.0000000000000000  2.4189889999999998  2.7537685070059998
