Te H  O 
 1.0000000000000000
     9.2497279999999993    0.0000000000000000    0.0000000000000000
     0.0000000000000000    6.4143650000000001   -0.0057420000000000
     0.0000000000000000    1.4291149999999999    8.1213809999999995
 Te  H   O  
   4  24  24
Cartesian
  4.6248639999999996  3.2071825000000000 -0.0028710000000000
  0.0000000000000000  3.9217399999999998  4.0578194999999999
  4.6248639999999996  0.7145575000000000  4.0606904999999998
  0.0000000000000000  0.0000000000000000  0.0000000000000000
  7.7048661786240000  4.9929925793000001  2.4412309111679997
  3.0800021786239995  2.1359299206999998  1.6137175888319999
  1.5448618213759999  2.8504874206999999  5.6744080888319992
  6.1697258213759989  5.7075500792999998  6.5019214111679995
  4.2790814181759993  3.0843557878199999  6.1824173454000002
  8.9039454181759989  5.4736817121800003  5.9939121545999994
  6.5085433580159995  1.5838958210350003  0.0976542187530000
  1.8836793580159998  5.5450266789649998  3.9572942812469996
  2.7411846419839994  6.2595841789649995  8.0179847812469998
  7.3660486419839994  2.2984533210350002  4.1583447187529998
  5.4952449053439993  2.8047976060450002  3.0065368416869998
  0.8703809053439999  4.3241248939550001  1.0484116583129999
  3.7544830946559995  5.0386823939549998  5.1091021583130001
  8.3793470946559996  3.5193551060449999  7.0672273416869995
  5.2694960437759990  0.5630547693350000  1.6476324790199999
  0.6446320437760000  6.5658677306650004  2.4073160209800002
  3.9802319562239998  7.2804252306650001  6.4680065209799995
  8.6050959562239999  1.2776122693350001  5.7083229790200001
  7.2434434973439989  4.9571665022149993  0.2314282625520000
  2.6185794973439998  2.1717559977850001  3.8235202374479997
  2.0062845026559999  2.8863134977849998  7.8842107374479991
  6.6311485026560000  5.6717240022149999  4.2921187625519996
  4.9706465818240000  4.7591242121799997  1.9332216545999998
  0.3457825818240000  2.3697982878199997  2.1217268453999996
  6.2373875816959998  5.4492352461549993  7.4615525491559991
  1.6125235816959997  3.1088022538450004  4.7147769508439996
  3.0123404183039999  2.3942447538450002  0.6540864508440000
  7.6372044183039991  4.7346777461549996  3.4008620491560002
  0.4625326486400000  3.3463243703700001  2.2920377465849997
  5.0873966486399995  3.7825981296300002  1.7629107534149999
  5.5455634256639996  1.5674788970749998  0.3705009520680000
  0.9206994256640000  5.5614436029250003  3.6844475479319998
  3.7041645743359997  6.2760011029250000  7.7451380479319996
  8.3290285743359984  2.2820363970749997  4.4311914520680000
  8.0783239466239998  2.9164709057849998  7.8026484769739994
  3.4534599466240001  5.6415665942150000  4.3736810230260001
  1.1714040533760000  4.9270090942149993  0.3129905230260000
  5.7962680533760000  2.2019134057850001  3.7419579769739997
  5.0577235212159994  6.3271412129000000  2.3678830187789996
  0.4328595212160000  0.8017812871000000  1.6870654812210000
  4.1920044787839998  1.5163387871000000  5.7477559812210002
  8.8168684787840004  7.0416987128999997  6.4285735187789994
  6.0761925718399992  6.2202299789250004  4.9160004048479991
  1.4513285718399997  2.3378075210749998  7.2603290951519996
  3.1735354281599997  1.6232500210749998  3.1996385951519999
  7.7983994281599998  5.5056724789249998  0.8553099048480000
  8.7871953513599994  4.4971556296299999  5.8236012534150001
  4.1623313513599998  4.0608818703700003  6.3527282465849995
