Zr Au
 1.0000000000000000
     3.1845780000000001    0.0000000000000000   -0.8664950000000000
    -0.2357650000000000    3.1758400000000000   -0.8664950000000000
    -0.0026580000000000   -0.0028640000000000    6.2755340000000004
 Zr  Au 
   2   1
Cartesian
  1.9444829735579998  2.0941868892639999  0.8611457810660001
  1.0016720264420000  1.0787891107359999  3.6813982189340004
  0.0000000000000000  0.0000000000000000  0.0000000000000000
