Hf Zn
 1.0000000000000000
     3.2244600000000001   -0.0022800000000000    0.0001920000000000
    -0.0022800000000000    3.2244600000000001    0.0001920000000000
    -1.6107510000000000   -1.6107510000000000    5.6014609999999996
 Hf  Zn 
   2   1
Cartesian
  1.6114456630680003  1.6114456630680003  1.7774396801839998
 -0.0000166630680000 -0.0000166630680000  3.8244053198159995
  0.0000000000000000  0.0000000000000000  0.0000000000000000
