Mg B 
 1.0000000000000000
     3.0627620000000002    0.0000000000000000    0.0000000000000000
    -1.5313810000000001    2.6524299999999998    0.0000000000000000
     0.0000000000000000    0.0000000000000000    3.5208699999999999
 Mg  B  
   1   2
Cartesian
  0.0000000000000000  0.0000000000000000  0.0000000000000000
  1.5313825313810003  0.8841424491900000  1.7604350000000000
 -0.0000015313809999  1.7682875508100000  1.7604350000000000
