Bi Br O 
 1.0000000000000000
     3.9278270000000002    0.0000000000000000    0.0000000000000000
     0.0000000000000000    3.9278270000000002    0.0000000000000000
     0.0000000000000000    0.0000000000000000    8.3943189999999994
 Bi  Br  O  
   2   2   2
Cartesian
  2.9458702500000000  2.9458702500000000  7.1472841523169990
  0.9819567500000000  0.9819567500000000  1.2470348476829998
  0.9819567500000000  0.9819567500000000  5.5846313045529996
  2.9458702500000000  2.9458702500000000  2.8096960897659997
  2.9458702500000000  0.9819567500000000  0.0000000000000000
  0.9819567500000000  2.9458702500000000  0.0000000000000000
