Ba Zn
 1.0000000000000000
     5.3098910000000004   -0.0000160000000000   -0.0000020000000000
    -0.0000200000000000    6.5844810000000003   -1.7126429999999999
    -0.0000020000000000   -0.0479720000000000    6.8033939999999999
 Ba  Zn 
   2  10
Cartesian
  3.9824108656780002  2.1939737823590000  1.7087141639009999
  1.3274581343220000  4.3425192176409997  3.3820348360989998
  2.6549451729010003  1.2921402908990001  5.0826851439630003
 -0.0000110532290000  5.2444004558149997  0.0080205632050001
  1.3274656853669999  0.5213544943650000  0.4060428905130000
  3.9824033146330007  6.0151385056350009  4.6847061094870002
  1.3274579530830002  3.0680171164979999 -0.2660490248699999
  3.9824110469190006  3.4684759314740004  5.3567912214759996
  1.3274808700700000  0.4934050290700001  3.0397334785379999
  3.9823881299300004  6.0430879709300003  2.0510155214619998
  5.3098800532290005  1.2920925441850002  5.0827284367950005
  2.6549238270990001  5.2443527091010003  0.0080638560370002
