Zn Fe C 
 1.0000000000000000
     3.7736299999999998    0.0000000000000000    0.0000000000000000
     0.0000000000000000    3.7736299999999998    0.0000000000000000
     0.0000000000000000    0.0000000000000000    3.7736299999999998
 Zn  Fe  C  
   1   3   1
Cartesian
  0.0000000000000000  0.0000000000000000  0.0000000000000000
  1.8868149999999999  0.0000000000000000  1.8868149999999999
  0.0000000000000000  1.8868149999999999  1.8868149999999999
  1.8868149999999999  1.8868149999999999  0.0000000000000000
  1.8868149999999999  1.8868149999999999  1.8868149999999999
