Sm Zn P  O 
 1.0000000000000000
     0.3792550000000000    1.9820340000000001   -3.4119709999999999
     0.3792550000000000   -1.9820340000000001   -3.4119709999999999
    -9.9791150000000002    0.0000000000000000   -3.4119709999999999
 Sm  Zn  P   O  
   2   2   2   2
Cartesian
 -8.2722259139349994 -0.0000000000000000 -5.5249944043869998
 -0.9483790860650002  0.0000000000000000 -4.7109185956130002
 -3.9537949261950001 -0.0000000000000000 -2.7422318004389998
 -5.2667793779499998  0.0000000000000000 -7.4936777875900002
 -6.5050195228100005 -0.0000000000000000 -3.0258109461619997
 -2.7155854771900003 -0.0000000000000001 -7.2101020538379998
 -8.6095886833050006 -0.0000000000000000 -7.8652448414609992
 -0.6110163166950000  0.0000000000000000 -2.3706681585389999
