As Ir
 1.0000000000000000
     5.6091309999999996    0.0000000000000000   -2.3814030000000002
     0.0000000000000000    6.0981310000000004    0.0000000000000000
     0.0184770000000000    0.0000000000000000    6.1939799999999998
 As  Ir 
   8   4
Cartesian
  0.8822962229589999  5.3297725921310004  5.0465279146289994
  4.7545502770410000  2.2807070921310002  1.8630390853709999
  4.7453117770409996  0.7683584078690000 -1.2339509146290000
  0.8730577229590000  3.8174239078690002  1.9495379146289999
  1.9007982756530000  2.2632481430780005  0.3333856556099998
  3.7175712243470000  5.3123136430780002  0.3822013443899998
  3.7268097243470000  3.8348828569220004  3.4791913443899998
  1.9100367756529999  0.7858173569220001  3.4303756556099998
  1.5415032549890000  3.0463396354430006  4.2543978068010002
  4.0953432450109997  6.0954051354430003  2.6551691931989994
  4.0861047450109993  3.0517913645569998 -0.4418208068010000
  1.5322647549889998  0.0027258645570000  1.1574078068010001
