Ca Ga
 1.0000000000000000
     3.9902319999999998    0.0000000000000000   -1.4616100000000001
     0.0000000000000000    4.3281919999999996    0.0000000000000000
    -0.0461950000000000    0.0000000000000000    6.0514080000000003
 Ca  Ga 
   2   2
Cartesian
  2.5577306066700003  1.0820479999999999  0.8051345712240000
  1.3863063933299999  3.2461439999999997  3.7846634287760001
  3.6906967130149995  1.0820479999999999  3.8981788674380002
  0.2533402869850000  3.2461439999999997  0.6916191325620000
