Nb Fe
 1.0000000000000000
     4.8177329999999996    0.0000000000000000    0.0000000000000000
    -2.4088660000000002    4.1722789999999996    0.0000000000000000
     0.0000000000000000    0.0000000000000000    7.8544669999999996
 Nb  Fe 
   4   8
Cartesian
  2.4088690755330000  1.3907582759069999  3.4375231914839999
 -0.0000020755330002  2.7815207240929998  7.3647566914839997
 -0.0000020755330002  2.7815207240929998  4.4169438085159998
  2.4088690755330000  1.3907582759069999  0.4897103085160000
  3.6024430727689993  0.7016479871510000  5.8908502499999997
  0.0000001681689999  1.4032959743019999  1.9636167499999999
  1.1935769045999998  3.4706310128489997  1.9636167499999999
  1.2152900953999999  0.7016479871510000  5.8908502499999997
  0.0000000000000000  0.0000000000000000  0.0000000000000000
 -1.1935760727690001  3.4706310128489997  1.9636167499999999
  2.4088668318309994  2.7689830256979997  5.8908502499999997
  0.0000000000000000  0.0000000000000000  3.9272334999999998
