Rb H  O 
 1.0000000000000000
     4.2210349999999996    0.0000000000000000    0.0000000000000000
    -2.1105170000000002    5.4372829999999999    0.0000000000000000
     0.0000000000000000    0.0000000000000000    5.9397909999999996
 Rb  H   O  
   2   6   4
Cartesian
  2.1105178463199992  3.7660796971199999  1.5717637352560001
  0.0000001536799999  1.6712033028800002  4.5416592352559997
  0.0000047106449999  5.3242962592599996  0.1282994856000000
  2.1105132893549996  0.1129867407400000  3.0981949855999997
  0.8147041837719999  1.1734146069469999  1.7786407159950000
  1.2958138162279993  4.2638683930529995  4.7485362159949993
 -1.2958130320370000  4.2638683930529995  4.7485362159949993
  3.4063310320369995  1.1734146069469999  1.7786407159950000
  2.1105178413899992  3.7124680867400004  4.4871081947119995
  0.0000046876369995  5.0740942447319997  5.1293659159599994
  0.0000001586099999  1.7248149132599999  1.5172126947119999
  2.1105133123630000  0.3631887552680000  2.1594704159600000
