Ca Ga
 1.0000000000000000
     4.4432609999999997    0.0000000000000000    0.0000000000000000
    -2.2216309999999999    3.8479790000000000    0.0000000000000000
     0.0000000000000000    0.0000000000000000    7.3876640000000000
 Ca  Ga 
   2   4
Cartesian
  0.0000000000000000  0.0000000000000000  1.8469160000000000
  0.0000000000000000  0.0000000000000000  5.5407479999999998
 -0.0000025549640001  2.5653206159930000  0.3141677992640000
  2.2216325549639997  1.2826583840070001  4.0079997992639997
  2.2216325549639997  1.2826583840070001  7.0734962007360007
 -0.0000025549640001  2.5653206159930000  3.3796642007359998
