Fe W 
 1.0000000000000000
     4.6797120000000003    0.0000000000000000    0.0000000000000000
    -2.3398560000000002    4.0527490000000004    0.0000000000000000
     0.0000000000000000    0.0000000000000000    7.7859439999999998
 Fe  W  
   8   4
Cartesian
  0.0000000000000000  0.0000000000000000  0.0000000000000000
  0.0000000000000000  0.0000000000000000  3.8929719999999999
 -1.1430336951359998  3.3617634009980000  1.9464859999999999
  1.1968176251520002  0.6909855990020001  5.8394579999999996
  2.3398536601440001  2.6707818547450000  5.8394579999999996
  0.0000023398560001  1.3819671452550002  1.9464859999999999
  1.1430383748480002  3.3617634009980000  1.9464859999999999
  3.4828896951360000  0.6909855990020001  5.8394579999999996
 -0.0000023398560001  2.7018340175830002  7.2467440201679993
  2.3398583398560002  1.3509149824170001  3.3537720201679999
  2.3398583398560002  1.3509149824170001  0.5391999798320000
 -0.0000023398560001  2.7018340175830002  4.4321719798319998
