Ba In O 
 1.0000000000000000
    -2.1072340000000001    2.1072340000000001   10.9174009999999999
     2.1072340000000001   -2.1072340000000001   10.9174009999999999
     2.1072340000000001    2.1072340000000001  -10.9174009999999999
 Ba  In  O  
   3   2   6
Cartesian
 -0.0000000000000001  0.0000000000000001 14.9101347285220012
 -0.0000000000000000  0.0000000000000000  6.9246672714780004
  0.0000000000000000  0.0000000000000000 10.9174009999999999
  0.0000000000000000 -0.0000000000000000 19.5972588302479984
 -0.0000000000000000  0.0000000000000000  2.2375431697520001
 -0.0000000000000001  0.0000000000000001 17.5130614749419991
  0.0000000000000000 -0.0000000000000000  4.3217405250579999
  2.1072340000000001  0.0000000000000000  9.0793692024419990
  0.0000000000000000  2.1072340000000001  9.0793692024419990
  0.0000000000000000  2.1072340000000001  1.8380317975580009
  2.1072340000000001  0.0000000000000000  1.8380317975580001
