Tl Sb Te
 1.0000000000000000
     4.3176589999999999    0.0115490000000000    7.1107560000000003
     1.9985450000000000    3.8272879999999998    7.1107560000000003
     0.0190010000000000    0.0115490000000000    8.3189340000000005
 Tl  Sb  Te 
   1   1   2
Cartesian
  0.0000000000000000  0.0000000000000000  0.0000000000000000
  3.1676025000000001  1.9251929999999999 11.2702230000000014
  1.5153556951800000  0.9209969296560000  5.3915845214160001
  4.8198493048200000  2.9293890703440004 17.1488614785840028
