Nb Sb Rh
 1.0000000000000000
     6.2357100000000001    0.0000000000000000    0.0000000000000000
     0.0000000000000000    6.2357100000000001    0.0000000000000000
     0.0000000000000000    0.0000000000000000    6.2357100000000001
 Nb  Sb  Rh 
   4   4   4
Cartesian
  0.0000000000000000  0.0000000000000000  0.0000000000000000
  0.0000000000000000  3.1178550000000000  3.1178550000000000
  3.1178550000000000  0.0000000000000000  3.1178550000000000
  3.1178550000000000  3.1178550000000000  0.0000000000000000
  3.1178550000000000  0.0000000000000000  0.0000000000000000
  3.1178550000000000  3.1178550000000000  3.1178550000000000
  0.0000000000000000  0.0000000000000000  3.1178550000000000
  0.0000000000000000  3.1178550000000000  0.0000000000000000
  4.6767824999999998  4.6767824999999998  4.6767824999999998
  4.6767824999999998  1.5589275000000000  1.5589275000000000
  1.5589275000000000  4.6767824999999998  1.5589275000000000
  1.5589275000000000  1.5589275000000000  4.6767824999999998
