Ga Fe Co
 1.0000000000000000
     3.4706470000000000    0.0000000000000000    2.0037780000000001
     1.1568820000000000    3.2721559999999998    2.0037780000000001
    -0.0000000000000000    0.0000000000000000    4.0075589999999996
 Ga  Fe  Co 
   1   1   2
Cartesian
  2.3137645000000000  1.6360779999999999  4.0075574999999999
  0.0000000000000000  0.0000000000000000  0.0000000000000000
  1.1568822500000000  0.8180390000000000  2.0037787499999999
  3.4706467500000002  2.4541170000000001  6.0113362499999994
