Li Pm Tl
 1.0000000000000000
    -0.0000040000000000    3.4577160000000000    3.4577160000000000
     3.4577170000000002   -0.0000040000000000    3.4577160000000000
     3.4577170000000002    3.4577170000000002   -0.0000040000000000
 Li  Pm  Tl 
   2   1   1
Cartesian
  6.9154230845700004  6.9154220845709995  6.9154210845719994
  3.4577219154300005  3.4577214154290004  3.4577209154280002
  1.7288505845700002  1.7288503345710000  1.7288500845720001
  5.1865655845700003  5.1865648345709996  5.1865640845719998
