Lu As O 
 1.0000000000000000
     5.5478030000000000    0.0097850000000000   -1.6643150000000000
    -3.0688490000000002    4.6217280000000001   -1.6643150000000000
    -0.0052380000000000   -0.0097850000000000    5.7920650000000000
 Lu  As  O  
   2   2   8
Cartesian
 -1.9930770000000002  4.0427888750000003 -0.2162987500000000
  4.4667930000000000  0.5789391250000001  2.6797337500000000
  0.1584669999999997  2.8849106249999998  2.6797337500000000
  2.3152490000000001  1.7368173750000000 -0.2162987500000000
  2.1938360882860000  3.4176425210570001 -0.0532705424700001
 -0.4176944766769998  3.7161236218120002  1.3219354118449997
  1.6244137197260000  3.7161236315970001  2.8427619575300000
  3.3264557714149996  1.7184136204090001 -1.5740970881549998
  2.8914104766769997  0.9056043781880000  1.1414995881549999
  0.2798799117139999  1.2040854789430002  2.5167055424699996
 -0.8527397714150001  2.9033143795909999  4.0375320881550003
  0.8493022802740001  0.9056043684030000 -0.3793269575300000
