Nb In C 
 1.0000000000000000
     1.5968800000000001   -2.7658770000000001    0.0000000000000000
     1.5968800000000001    2.7658770000000001    0.0000000000000000
     0.0000000000000000    0.0000000000000000   14.4540480000000002
 Nb  In  C  
   4   2   2
Cartesian
  1.5968800000000001  0.9219608439180000  6.0229006232639994
  1.5968800000000001 -0.9219608439180002  8.4311473767359999
  1.5968800000000001 -0.9219608439180002 13.2499246232640004
  1.5968800000000001  0.9219608439180000  1.2041233767360000
  1.5968800000000001  0.9219608439180000 10.8405360000000002
  1.5968800000000001 -0.9219608439180002  3.6135120000000001
  0.0000000000000000  0.0000000000000000  7.2270240000000001
  0.0000000000000000  0.0000000000000000  0.0000000000000000
