Hf Si S 
 1.0000000000000000
     3.5258910000000001    0.0000000000000000    0.0000000000000000
     0.0000000000000000    3.5258910000000001    0.0000000000000000
     0.0000000000000000    0.0000000000000000    7.9839500000000001
 Hf  Si  S  
   2   2   2
Cartesian
  2.6444182500000002  2.6444182500000002  5.8401716015499998
  0.8814727500000000  0.8814727500000000  2.1437783984499998
  2.6444182500000002  0.8814727500000000  0.0000000000000000
  0.8814727500000000  2.6444182500000002  0.0000000000000000
  0.8814727500000000  0.8814727500000000  4.9577455277999993
  2.6444182500000002  2.6444182500000002  3.0262044721999999
