Rb Co S 
 1.0000000000000000
     3.5914640000000002    0.0000000000000000   -0.9397450000000001
    -0.2458950000000000    3.5830359999999999   -0.9397450000000001
     0.0510400000000000    0.0546620000000000    7.5277529999999997
 Rb  Co  S  
   1   2   2
Cartesian
  0.0000000000000000  0.0000000000000000  0.0000000000000000
  0.7389647500000001  2.7146080000000001  2.8241315000000000
  2.6576442500000002  0.9230900000000000  2.8241315000000000
  1.2055393237500001  1.2911074118760000  4.6072424592139996
  2.1910696762499997  2.3465905881239997  1.0410205407859998
