Be Si Ru
 1.0000000000000000
     0.0000000000000000    2.8472490000000001    2.8472490000000001
     2.8472490000000001    0.0000000000000000    2.8472490000000001
     2.8472490000000001    2.8472490000000001    0.0000000000000000
 Be  Si  Ru 
   1   1   2
Cartesian
  1.4236245000000001  1.4236245000000001  1.4236245000000001
  4.2708735000000004  4.2708735000000004  4.2708735000000004
  0.0000000000000000  0.0000000000000000  0.0000000000000000
  2.8472490000000001  2.8472490000000001  2.8472490000000001
