Li Y  Os
 1.0000000000000000
    -0.0000030000000000    3.4663550000000001    3.4663560000000002
     3.4663569999999999   -0.0000040000000000    3.4663569999999999
     3.4663560000000002    3.4663539999999999   -0.0000020000000000
 Li  Y   Os 
   1   2   1
Cartesian
  1.7331844327099999  1.7331831827049997  1.7331846827109998
  0.0000000000000000  0.0000000000000000  0.0000000000000000
  3.4663550000000001  3.4663525000000002  3.4663554999999997
  5.1995325000000001  5.1995287499999998  5.1995332500000000
