Sc Nb Tc
 1.0000000000000000
    -0.0000040000000000    3.2012170000000002    3.2012179999999999
     3.2012130000000001    0.0000020000000000    3.2012119999999999
     3.2012119999999999    3.2012119999999999    0.0000020000000000
 Sc  Nb  Tc 
   1   1   2
Cartesian
  4.8018189512080003  4.8018296524290003  4.8018272012200001
  1.6006052500040000  1.6006045487830001  1.6006047987820000
  6.4024177987919995  6.4024245975709997  6.4024287987799999
  3.2012105000040001  3.2012122987830001  3.2012127987820000
