Sc Au
 1.0000000000000000
     3.4125969999999999    0.0000000000000000    0.0000000000000000
     0.0000000000000000    3.4125969999999999    0.0000000000000000
     0.0000000000000000    0.0000000000000000    3.4125969999999999
 Sc  Au 
   1   1
Cartesian
  1.7062984999999999  1.7062984999999999  1.7062984999999999
  0.0000000000000000  0.0000000000000000  0.0000000000000000
