Hf Tl
 1.0000000000000000
    -2.1516199999999999    2.1516199999999999    4.7162509999999997
     2.1516199999999999   -2.1516199999999999    4.7162509999999997
     2.1516199999999999    2.1516199999999999   -4.7162509999999997
 Hf  Tl 
   3   1
Cartesian
 -0.0000000000000002  2.1516200000000003  2.3581254999999999
  2.1516199999999999  0.0000000000000000  2.3581254999999999
  0.0000000000000000  0.0000000000000000  4.7162509999999997
  0.0000000000000000  0.0000000000000000  0.0000000000000000
