Er S  F 
 1.0000000000000000
     3.7200199999999999    0.0000000000000000    0.0000000000000000
     0.0000000000000000    3.7200199999999999    0.0000000000000000
     0.0000000000000000    0.0000000000000000    6.7699800000000003
 Er  S   F  
   2   2   2
Cartesian
  2.7900149999999999  2.7900149999999999  5.2338783079800004
  0.9300050000000000  0.9300050000000000  1.5361016920199999
  0.9300050000000000  0.9300050000000000  4.3636718487600001
  2.7900149999999999  2.7900149999999999  2.4063081512399997
  0.9300050000000000  2.7900149999999999  0.0000000000000000
  2.7900149999999999  0.9300050000000000  0.0000000000000000
