La Ni P 
 1.0000000000000000
     3.7312989999999999    0.0000000000000000   -1.4331860000000001
    -0.5504829999999999    3.6904699999999999   -1.4331860000000001
     0.0044670000000000    0.0051820000000000    5.5854439999999999
 La  Ni  P  
   1   2   2
Cartesian
  0.0000000000000000  0.0000000000000000  0.0000000000000000
  2.6630870000000000  0.9252085000000000  1.3595359999999999
  0.5221960000000000  2.7704434999999998  1.3595359999999999
  2.0189158163159999  2.3424013283619995 -0.3175767959640001
  1.1663671836839999  1.3532506716379999  3.0366487959639996
