Rb Li In Cl
 1.0000000000000000
     0.0000000000000000    5.1586119999999998    5.1586119999999998
     5.1586119999999998    0.0000000000000000    5.1586119999999998
     5.1586119999999998    5.1586119999999998    0.0000000000000000
 Rb  Li  In  Cl 
   2   1   1   6
Cartesian
  7.7379179999999996  7.7379179999999996  7.7379179999999996
  2.5793059999999999  2.5793059999999999  2.5793059999999999
  5.1586119999999998  5.1586119999999998  5.1586119999999998
  0.0000000000000000  0.0000000000000000  0.0000000000000000
  2.5485503552559998  5.1586119999999998  5.1586119999999998
  5.1586119999999998  5.1586119999999998  2.5485503552559998
  7.7686736447440001  5.1586119999999998  5.1586119999999998
  5.1586119999999998  2.5485503552559998  5.1586119999999998
  5.1586119999999998  7.7686736447440001  5.1586119999999998
  5.1586119999999998  5.1586119999999998  7.7686736447440001
