Ti B 
 1.0000000000000000
     3.0353509999999999    0.0000000000000000    0.0000000000000000
    -1.5176760000000000    2.6286920000000000    0.0000000000000000
     0.0000000000000000    0.0000000000000000    3.2233920000000000
 Ti  B  
   1   2
Cartesian
  0.0000000000000000  0.0000000000000000  0.0000000000000000
 -0.0000018510090000  1.7524622095640001  1.6116960000000000
  1.5176768510090000  0.8762297904360000  1.6116960000000000
