Rb Br O 
 1.0000000000000000
     4.4631990000000004   -0.0016980000000000    0.1838900000000000
     0.1764000000000000    4.4597110000000004    0.1838900000000000
    -0.0017680000000000   -0.0016980000000000    4.4669850000000002
 Rb  Br  O  
   1   1   3
Cartesian
  0.0084872307300000  0.0081550564500000  0.0088476199500000
  2.1956697790060002  2.1097353851900005  2.2889034548900002
  0.5528210945390000  2.3570705142040000  2.4781970532199997
  2.4530797949699998  2.3570705142040000  0.6553418028850000
  2.3772527413459996  0.4583260736670000  2.4781970532199997
