Si Pd
 1.0000000000000000
     7.5346359999999999    0.0000000000000000    0.0000000000000000
     0.0000000000000000    9.1832139999999995    0.0000000000000000
     0.0000000000000000    0.0000000000000000    9.5565739999999995
 Si  Pd 
   8  36
Cartesian
  5.6509770000000001  5.7899521445019992  7.5409587513639993
  1.8836590000000000  3.3932618554979994  2.0156152486359997
  5.6509770000000001  1.1983451445019999  6.7939022486359999
  1.8836590000000000  7.9848688554980001  2.7626717513640000
  5.6509770000000001  7.0958786410139991  1.7040996059580000
  1.8836590000000000  2.0873353589860000  7.8524743940419999
  5.6509770000000001  2.5042716410140002  3.0741873940419997
  1.8836590000000000  6.6789423589860002  6.4823866059579993
  7.0373048161840002  8.2475087758979999  6.5081320163139997
  3.2699868161839998  0.9357052241020000  3.0484419836860002
  4.2646491838160001  3.6559017758979997  7.8267289836859995
  0.4973311838159999  5.5273122241019994  1.7298450163140000
  0.4973311838159999  0.9357052241020000  3.0484419836860002
  4.2646491838160001  8.2475087758979999  6.5081320163139997
  3.2699868161839998  5.5273122241019994  1.7298450163140000
  7.0373048161840002  3.6559017758979997  7.8267289836859995
  7.0995710480880003  5.6215136333139997  5.6754963934159992
  3.3322530480879999  3.5617003666859999  3.8810776065839994
  4.2023829519120000  1.0299066333139999  8.6593646065839991
  0.4350649519120000  8.1533073666859988  0.8972093934159999
  0.4350649519120000  3.5617003666859999  3.8810776065839994
  4.2023829519120000  5.6215136333139997  5.6754963934159992
  3.3322530480879999  8.1533073666859988  0.8972093934159999
  7.0995710480880003  1.0299066333139999  8.6593646065839991
  7.0921645009000001  7.5060285278959995  3.6078838256459997
  3.3248465008999997  1.6771854721039998  5.9486901743539997
  4.2097894991000002  2.9144215278959997  1.1704031743540000
  0.4424714991000000  6.2687924721039998  8.3861708256459995
  0.4424714991000000  1.6771854721039998  5.9486901743539997
  4.2097894991000002  7.5060285278959995  3.6078838256459997
  3.3248465008999997  6.2687924721039998  8.3861708256459995
  7.0921645009000001  2.9144215278959997  1.1704031743540000
  5.6509770000000001  7.8109204159100001  8.9131298725799990
  1.8836590000000000  1.3722935840900001  0.6434441274200000
  5.6509770000000001  3.2193134159099999  5.4217311274199993
  1.8836590000000000  5.9639005840899992  4.1348428725800002
  5.6509770000000001  5.0514288914079994  3.2070333292159998
  1.8836590000000000  4.1317851085920001  6.3495406707840001
  5.6509770000000001  0.4598218914079999  1.5712536707839999
  1.8836590000000000  8.7233921085919999  7.9853203292159991
  5.6509770000000001  5.1328472667320000  0.2919915619960000
  1.8836590000000000  4.0503667332679996  9.2645824380040001
  5.6509770000000001  0.5412402667320000  4.4862954380039994
  1.8836590000000000  8.6419737332679993  5.0702785619959991
