Ti Zn Ni
 1.0000000000000000
     0.0000000000000000    2.9071120000000001    2.9071120000000001
     2.9071120000000001    0.0000000000000000    2.9071120000000001
     2.9071120000000001    2.9071120000000001    0.0000000000000000
 Ti  Zn  Ni 
   1   1   2
Cartesian
  1.4535560000000001  1.4535560000000001  1.4535560000000001
  4.3606680000000004  4.3606680000000004  4.3606680000000004
  0.0000000000000000  0.0000000000000000  0.0000000000000000
  2.9071120000000001  2.9071120000000001  2.9071120000000001
