Ti Ir
 1.0000000000000000
     2.9436939999999998    0.0000000000000000    0.0000000000000000
     0.0000000000000000    2.9436939999999998    0.0000000000000000
     0.0000000000000000    0.0000000000000000    3.4934690000000002
 Ti  Ir 
   1   1
Cartesian
  1.4718469999999999  1.4718469999999999  1.7467345000000001
  0.0000000000000000  0.0000000000000000  0.0000000000000000
