Zr In
 1.0000000000000000
     3.9616630000000002    0.0000000000000000   -1.5743739999999999
    -0.6256590000000000    3.9119480000000002   -1.5743739999999999
     0.0044760000000000    0.0052490000000000    5.7829030000000001
 Zr  In 
   1   3
Cartesian
  0.0000000000000000  0.0000000000000000  0.0000000000000000
  2.8170705000000003  0.9806115000000001  1.3170775000000001
  0.5234095000000001  2.9365855000000001  1.3170775000000001
  1.6680020000000000  1.9559740000000001 -1.5743739999999999
