Be Al Ir
 1.0000000000000000
     0.0000000000000000    2.9043779999999999    2.9043779999999999
     2.9043779999999999    0.0000000000000000    2.9043779999999999
     2.9043779999999999    2.9043779999999999    0.0000000000000000
 Be  Al  Ir 
   1   1   2
Cartesian
  4.3565670000000001  4.3565670000000001  4.3565670000000001
  1.4521890000000000  1.4521890000000000  1.4521890000000000
  0.0000000000000000  0.0000000000000000  0.0000000000000000
  2.9043779999999999  2.9043779999999999  2.9043779999999999
