Rb Au O 
 1.0000000000000000
     4.3710259999999996    0.0000000000000000   -1.6204780000000001
     0.0000000000000000    6.0477869999999996    0.0000000000000000
    -0.0491200000000000    0.0000000000000000    6.5728780000000002
 Rb  Au  O  
   2   2   4
Cartesian
  1.2818614367159997  4.5358402499999997  3.4576525516680001
  3.0400445632839994  1.5119467499999999  1.4947474483320000
  4.3109548986019997  1.5119467499999999  4.9228541396079999
  0.0109511013980000  4.5358402499999997  0.0295458603920000
  3.8601118838119994  3.0536848987619996  3.7067644314379997
  0.4617941161880000  2.9941021012380000  1.2456355685620000
  3.8601118838119994  6.0179956012379998  3.7067644314379997
  0.4617941161880000  0.0297913987620000  1.2456355685620000
