Ba B  Rh
 1.0000000000000000
     3.7194530000000001    0.0000000000000000   -1.2224610000000000
    -0.4017830000000000    3.6976879999999999   -1.2224610000000000
     0.0343440000000000    0.0382780000000000    6.3741130000000004
 Ba  B   Rh 
   1   2   2
Cartesian
  0.0000000000000000  0.0000000000000000  0.0000000000000000
  2.2792191719579997  2.5402892750439996  0.6651145961040004
  1.0727948280419999  1.1956767249560001  3.2640764038960004
  0.6456980000000000  2.7924050000000000  1.9645955000000002
  2.7063160000000002  0.9435610000000000  1.9645955000000002
