Li Cu Pd
 1.0000000000000000
     0.0001590000000000    2.9735630000000000    2.9735649999999998
     2.9735540000000000    0.0001670000000000    2.9735570000000000
     2.9735510000000001    2.9735520000000002    0.0001690000000000
 Li  Cu  Pd 
   1   1   2
Cartesian
  4.4604480001439999  4.4604793404879999  4.4604563566250004
  1.4868070793619999  1.4867967124190000  1.4868376164329999
  0.0000089206560000  0.0000059472710000  0.0000029738950000
  2.9736260527330001  2.9736380261030000  2.9736365793209996
