Na Zn Si O 
 1.0000000000000000
     5.2288500000000004    0.0000000000000000   -0.0201970000000000
     0.0000000000000000    5.4449449999999997    0.0000000000000000
     0.0010890000000000    0.0000000000000000    6.9575529999999999
 Na  Zn  Si  O  
   4   2   2   8
Cartesian
  0.0680201751900000  3.6803417794550000  5.1988414627389998
  2.6594533987230000  4.4510247396999993  6.8892378795360001
  2.6819006751900005  1.7646032205450000  1.7099664627390001
  0.0444838987230000  0.9939202603000000  3.4205598795359999
  2.6124312861900005  4.4229233785549997  3.4544943874250000
  5.2274007861900014  1.0220216214450000  6.9231723874249997
  5.2059166937580006  3.7414776219149997  1.6863855535049999
  2.5920361937580001  1.7034673780849998  5.1752605535049998
  3.3130241702580001  1.1377375925850000  6.5264162916429997
  0.6980546702580001  4.3072074074149995  3.0577382916430000
  3.0209478437490005  0.8622887149250000  3.8344062671160000
  0.4059783448380001  4.5826562850750001  0.3657352246690000
  0.9739816754910000  1.5767145034299999  5.3655169799370004
  0.3929867461740000  2.1674801460399999  1.5149929601340000
  3.0079562461739999  3.2774648539599998  4.9836709601339999
  3.5878621754910003  3.8682304965699998  1.8766419799370000
