Ca Si Pd
 1.0000000000000000
     4.2398749999999996    0.0000000000000000    0.0000000000000000
     0.0000000000000000    4.2398749999999996    0.0000000000000000
     0.0000000000000000    0.0000000000000000    9.8773619999999998
 Ca  Si  Pd 
   2   4   4
Cartesian
  0.0000000000000000  0.0000000000000000  0.0000000000000000
  2.1199374999999998  2.1199374999999998  4.9386809999999999
  2.1199374999999998  2.1199374999999998  8.6810554240079991
  2.1199374999999998  2.1199374999999998  1.1963065759920000
  0.0000000000000000  0.0000000000000000  3.7423744240079997
  0.0000000000000000  0.0000000000000000  6.1349875759919996
  0.0000000000000000  2.1199374999999998  7.4080215000000003
  2.1199374999999998  0.0000000000000000  7.4080215000000003
  2.1199374999999998  0.0000000000000000  2.4693404999999999
  0.0000000000000000  2.1199374999999998  2.4693404999999999
