Mn Pt N 
 1.0000000000000000
     3.9788809999999999    0.0000000000000000    0.0000000000000000
     0.0000000000000000    3.9788809999999999    0.0000000000000000
     0.0000000000000000    0.0000000000000000    3.9788809999999999
 Mn  Pt  N  
   3   1   1
Cartesian
  0.0000000000000000  1.9894404999999999  1.9894404999999999
  1.9894404999999999  1.9894404999999999  0.0000000000000000
  1.9894404999999999  0.0000000000000000  1.9894404999999999
  0.0000000000000000  0.0000000000000000  0.0000000000000000
  1.9894404999999999  1.9894404999999999  1.9894404999999999
