Ho C  F 
 1.0000000000000000
     3.6319859999999999    0.0000000000000000    0.0000000000000000
    -1.8159940000000001    3.1453920000000002    0.0000000000000000
     0.0000000000000000    0.0000000000000000    6.2698260000000001
 Ho  C   F  
   2   1   2
Cartesian
 -0.0000024826600002  2.0969290484640002  1.3378366624020002
  1.8159944826599999  1.0484629515360000  4.9319893375980000
  0.0000000000000000  0.0000000000000000  0.0000000000000000
  1.8159944826599999  1.0484629515360000  2.4288929734440003
 -0.0000024826600002  2.0969290484640002  3.8409330265559998
