Zn S 
 1.0000000000000000
     5.4510100000000001    0.0000000000000000    0.0000000000000000
     0.0000000000000000    5.4510100000000001    0.0000000000000000
     0.0000000000000000    0.0000000000000000    5.4510100000000001
 Zn  S  
   4   4
Cartesian
  0.0000000000000000  0.0000000000000000  0.0000000000000000
  0.0000000000000000  2.7255050000000001  2.7255050000000001
  2.7255050000000001  0.0000000000000000  2.7255050000000001
  2.7255050000000001  2.7255050000000001  0.0000000000000000
  1.3627525000000000  4.0882575000000001  4.0882575000000001
  1.3627525000000000  1.3627525000000000  1.3627525000000000
  4.0882575000000001  4.0882575000000001  1.3627525000000000
  4.0882575000000001  1.3627525000000000  4.0882575000000001
