Zr N 
 1.0000000000000000
     5.4130029999999998    0.0000000000000000    0.0000000000000000
     0.0000000000000000    5.4130029999999998    0.0000000000000000
     0.0000000000000000    0.0000000000000000    3.3077890000000001
 Zr  N  
   4   2
Cartesian
  1.6029255133750000  1.6029255133750000  0.0000000000000000
  3.8100720736220000  3.8100720736220000  0.0000000000000000
  4.3094270133750001  1.1035813996279999  1.6538978077890001
  1.1035813996279999  4.3094270133750001  1.6538978077890001
  0.0000000000000000  0.0000000000000000  0.0000000000000000
  2.7065014999999999  2.7065014999999999  1.6538978077890001
