Ca Si Ni
 1.0000000000000000
     3.9505560000000002    0.0000000000000000    0.0000000000000000
    -1.9752790000000000    3.4212820000000002    0.0000000000000000
     0.0000000000000000    0.0000000000000000    9.9083869999999994
 Ca  Si  Ni 
   2   2   4
Cartesian
  1.9752796419450003  1.1404261929060000  7.4312902500000000
 -0.0000026419450000  2.2808558070939999  2.4770967499999998
  0.0000000000000000  0.0000000000000000  4.9541934999999997
  0.0000000000000000  0.0000000000000000  0.0000000000000000
  1.9752796419450003  1.1404261929060000  4.5637336934909998
 -0.0000026419450000  2.2808558070939999  5.3446533065089996
 -0.0000026419450000  2.2808558070939999  9.5179271934909995
  1.9752796419450003  1.1404261929060000  0.3904598065090000
