Zr Sb Pt
 1.0000000000000000
     7.8567739999999997   -0.0000000000000000    0.0000000000000000
    -3.9283880000000000    6.8041660000000004    0.0000000000000000
     0.0000000000000000    0.0000000000000000    3.7134209999999999
 Zr  Sb  Pt 
   6   2   1
Cartesian
  4.6737748629279992  0.0000000000000000  0.0000000000000000
  1.5914991634079998  2.7565581632480001  0.0000000000000000
 -2.3368880263359997  4.0476078367520003  0.0000000000000000
  1.9645077709599998  0.0000000000000000  1.8567104999999999
  2.9461323645599999  5.1028523333600004  1.8567104999999999
 -0.9822541355200000  1.7013136666399999  1.8567104999999999
  3.9283905950539997  2.2680530652780000  1.8567104999999999
 -0.0000045950540004  4.5361129347220004  1.8567104999999999
  0.0000000000000000  0.0000000000000000  0.0000000000000000
