Li Sb Pt
 1.0000000000000000
     6.3639830000000002    0.0000000000000000    0.0000000000000000
     0.0000000000000000    6.3639830000000002    0.0000000000000000
     0.0000000000000000    0.0000000000000000    6.3639830000000002
 Li  Sb  Pt 
   8   4   4
Cartesian
  0.0000000000000000  0.0000000000000000  3.1819915000000001
  4.7729872499999999  4.7729872499999999  4.7729872499999999
  0.0000000000000000  3.1819915000000001  0.0000000000000000
  4.7729872499999999  1.5909957500000000  1.5909957500000000
  3.1819915000000001  0.0000000000000000  0.0000000000000000
  1.5909957500000000  4.7729872499999999  1.5909957500000000
  3.1819915000000001  3.1819915000000001  3.1819915000000001
  1.5909957500000000  1.5909957500000000  4.7729872499999999
  0.0000000000000000  0.0000000000000000  0.0000000000000000
  0.0000000000000000  3.1819915000000001  3.1819915000000001
  3.1819915000000001  0.0000000000000000  3.1819915000000001
  3.1819915000000001  3.1819915000000001  0.0000000000000000
  1.5909957500000000  4.7729872499999999  4.7729872499999999
  1.5909957500000000  1.5909957500000000  1.5909957500000000
  4.7729872499999999  4.7729872499999999  1.5909957500000000
  4.7729872499999999  1.5909957500000000  4.7729872499999999
