Sc Co Ir
 1.0000000000000000
    -0.0016310000000000    3.1914690000000001    3.1911450000000001
     3.1912440000000002   -0.0016880000000000    3.1912039999999999
     3.1894689999999999    3.1897509999999998    0.0000870000000000
 Sc  Co  Ir 
   2   1   1
Cartesian
  3.1894275289420002  3.1897318742400000  0.0002625111720000
  3.1895569382760001  3.1897915222919995  3.1910424882720001
  1.5947864508949998  1.5948925658769999  1.5956153826690000
  4.7843274591940004  4.7846426085619997  4.7868238092060000
