Co Re
 1.0000000000000000
     5.3891520000000002    0.0000080000000000    0.0000000000000000
    -2.6945700000000001    4.6671410000000000    0.0000010000000000
     0.0000000000000000    0.0000000000000000    4.3399150000000004
 Co  Re 
   2   6
Cartesian
  0.0000686698799998  3.1114735601160004  3.2549325767610000
  2.6945052463860000  1.5556707727269998  1.0849747434080002
  0.0000289476240000  1.5571649264200000  1.0849704038140000
  1.3460130754500002  3.8885505334750001  1.0849752432600002
 -1.3460219393399999  3.8885792072620000  1.0849752432670001
  2.6945746088400000  3.1098720621320002  3.2549325764170001
  1.3486497618780000  0.7786358038050001  3.2549277370030008
  4.0405042401180005  0.7786397997650001  3.2549277370030008
