Zn Sn F 
 1.0000000000000000
     4.5644660000000004    0.0389310000000000    3.0737690000000000
     1.6561140000000001    4.2536050000000003    3.0737679999999998
     0.0564170000000000    0.0389310000000000    5.5026549999999999
 Zn  Sn  F  
   1   1   6
Cartesian
  3.1384984999999999  2.1657335000000000  5.8250960000000003
  0.0000000000000000  0.0000000000000000  0.0000000000000000
  2.6329009730320001  3.8029633539040004  6.8919972324909997
  5.0840436285730002  2.6777844801460007  5.9896833526600002
  2.9907299264310003  3.2194044081360005  4.1097617202870005
  1.1929533714270000  1.6536825198540002  5.6605086473400004
  3.6440960269680005  0.5285036460960000  4.7581947675089999
  3.2862670735690003  1.1120625918640001  7.5404302797130001
