Ho
 1.0000000000000000
     3.6150790000000002   -0.0000000000000000    0.0000000000000000
    -1.8075410000000001    3.1307510000000001    0.0000000000000000
     0.0000000000000000    0.0000000000000000    5.5424780000000000
 Ho 
   2
Cartesian
 -0.0000028075400001  2.0871683769170000  1.3856195000000000
  1.8075408075399999  1.0435826230830001  4.1568585000000002
