Li Y  Ge
 1.0000000000000000
     7.0850619999999997    0.0000000000000000    0.0000000000000000
    -3.5425309999999999    6.1358430000000004    0.0000000000000000
     0.0000000000000000    0.0000000000000000    4.2301390000000003
 Li  Y   Ge 
   3   3   3
Cartesian
  1.6511666140379999  0.0000000000000000  2.1150695000000002
  2.7169476929809999  4.7058909246930005  2.1150695000000002
 -0.8255833070190000  1.4299520753070001  2.1150695000000002
 -2.0482241161109997  3.5476278415830000  0.0000000000000000
  4.0964482322219995  0.0000000000000000  0.0000000000000000
  1.4943068838889999  2.5882151584170003  0.0000000000000000
 -0.0000035425310000  4.0905640452809999  2.1150695000000002
  3.5425345425310004  2.0452789547190000  2.1150695000000002
  0.0000000000000000  0.0000000000000000  0.0000000000000000
