Co Si
 1.0000000000000000
     5.3615040000000000    0.0000000000000000    0.0000000000000000
     0.0000000000000000    5.3615040000000000    0.0000000000000000
     0.0000000000000000    0.0000000000000000    5.3615040000000000
 Co  Si 
   4   8
Cartesian
  0.0000000000000000  0.0000000000000000  0.0000000000000000
  0.0000000000000000  2.6807520000000000  2.6807520000000000
  2.6807520000000000  0.0000000000000000  2.6807520000000000
  2.6807520000000000  2.6807520000000000  0.0000000000000000
  4.0211280000000000  1.3403760000000000  1.3403760000000000
  1.3403760000000000  4.0211280000000000  4.0211280000000000
  4.0211280000000000  4.0211280000000000  4.0211280000000000
  1.3403760000000000  1.3403760000000000  1.3403760000000000
  1.3403760000000000  1.3403760000000000  4.0211280000000000
  4.0211280000000000  4.0211280000000000  1.3403760000000000
  1.3403760000000000  4.0211280000000000  1.3403760000000000
  4.0211280000000000  1.3403760000000000  4.0211280000000000
