La Sb
 1.0000000000000000
     4.4996280000000004   -0.0007600000000000   -1.1163840000000000
    -0.2778070000000000    4.4910319999999997   -1.1163870000000000
     0.0401880000000000    0.0427390000000000    9.7859800000000003
 La  Sb 
   4   2
Cartesian
  1.3750445761460002  1.4624952292260001  5.5426455378580002
  2.8869930506880008  3.0705988691969996  2.0110542094280000
  4.4008731005400010  2.2874578818919997  8.1111474711120000
  2.0121325869740003  4.5333629104949997  8.1111591062380004
  3.6736318475890006  3.9071073109029997  5.1812793433010000
  0.5884506158700001  0.6258813072549999  2.3719369484500001
