Sr Al Te
 1.0000000000000000
     6.7185709999999998    0.0033750000000000    0.0033750000000000
     3.3561649999999998    5.9458669999999998   -0.0007090000000000
     3.3561649999999998   -0.0007090000000000    5.9458669999999998
 Sr  Al  Te 
   1   2   4
Cartesian
  8.3950932500000004  5.9480355088639998  0.0021849911360000
  5.0358077500000000  2.9728161992480002  2.9740293007520000
  8.3950932499999986  2.9756276021119992  2.9745928978879999
  3.3578909165509998  2.9732835899409999  0.9456379451890000
  6.7137245834490002  5.0012075548109998  2.9735619100589998
  6.7170290698229991  0.9471116488850000  2.9743053538609998
 10.0731574301769999  2.9759151461390001  5.0031088511149999
