Rb Ti Cl
 1.0000000000000000
     3.6151209999999998   -6.2626749999999998    0.0145440000000000
     3.6160630000000000    6.2632110000000001   -0.0063320000000000
     0.0065320000000000   -0.0095970000000000    5.7058330000000002
 Rb  Ti  Cl 
   2   2   6
Cartesian
  3.6165650304630002 -2.0900894567949999  1.4337125927059999
  3.6211292703950000  2.0810409906700000  4.2803266559489996
  3.6193249602370003  6.2583316956810009  2.8462194582759999
  7.2311229945309998  0.0005666383690007  0.0086112863180000
  5.4457482371849997 -1.0408373084549993  4.2870716242080000
  3.6171631661140000  4.1912884661390004  1.4288642337990001
  5.4406564802190003  1.0326593004599998  1.4244002028389999
  1.7964377222410000 -1.0412945432079999  4.2896890278089996
  1.7926077083699998  1.0321083494520000  1.4269393143419999
  3.6206142000029997 -4.2010571069629989  4.2851420746660001
