Pr S  F 
 1.0000000000000000
     3.9812680000000000    0.0000000000000000    0.0000000000000000
     0.0000000000000000    3.9812680000000000    0.0000000000000000
     0.0000000000000000    0.0000000000000000    6.9619109999999997
 Pr  S   F  
   2   2   2
Cartesian
  2.9859510000000000  2.9859510000000000  5.3709194029920004
  0.9953170000000000  0.9953170000000000  1.5909915970080000
  0.9953170000000000  0.9953170000000000  4.5202295740800000
  2.9859510000000000  2.9859510000000000  2.4416814259199997
  0.9953170000000000  2.9859510000000000  0.0000000000000000
  2.9859510000000000  0.9953170000000000  0.0000000000000000
