Sc Zn Os
 1.0000000000000000
    -0.0003080000000000    3.2562370000000000    3.2567870000000001
     3.2562150000000001   -0.0000930000000000    3.2565710000000001
     3.2563300000000002    3.2561360000000001   -0.0002090000000000
 Sc  Zn  Os 
   2   1   1
Cartesian
  3.2561889398450004  0.0000307377260000  3.2566491646370004
  3.2561510723920000  3.2560227745540002  3.2565028485120000
  4.8841777500000001  4.8842099999999995  4.8848617499999998
  1.6280592500000002  1.6280700000000001  1.6282872500000001
