Li Zn Cl
 1.0000000000000000
    -0.0001520000000000    5.1423889999999997    5.1423930000000002
     5.1423810000000003   -0.0001440000000000    5.1423850000000000
     5.1423850000000000    5.1423850000000000   -0.0001480000000000
 Li  Zn  Cl 
   4   2   8
Cartesian
  3.8567692500000001  3.8567712500000000  1.2855047499999999
  3.8567723925330006  1.2855016074670000  3.8567712499920002
  1.2855767501519999  1.2855736076110000  1.2855736076070001
  1.2855007500000002  3.8567732500000003  3.8567752500000001
  5.1422967153860002  5.1423047153699999  5.1423047153700008
  7.7134656420810002  7.7134879271629995  7.7134827846379999
  9.0327870672839996  6.3941684751089998  6.3941664227130000
  3.8230275696220000  3.8230489447969997  3.8230386597430006
  9.0327347878409991  9.0327385552069988  9.0327539827980008
  3.8229804325640000  6.4616241672799992  6.4616262196800003
  6.4616141147119999  3.8229956273689996  6.4616272572730002
  6.4616213099489999  6.4616118299579997  3.8229832901789997
  6.3941585275210002  9.0328021574049995  6.3941653849720002
  6.3941564752689999  6.3941602425869997  9.0327990674120002
