Ti Ga
 1.0000000000000000
     3.8545989999999999   -0.0001430000000000   -0.6142750000000000
    -0.0978000000000000    3.8532950000000001   -0.6143040000000000
     0.0016600000000000    0.0016100000000000   12.4409620000000007
 Ti  Ga 
   4   8
Cartesian
  0.7321888550120000  1.7395025312110002 10.8231369606820014
  0.1601990965120000  1.1528786763910002  7.2230356596399998
  3.5981240618240000  2.7017637719620002  3.9885798351540003
  3.0264013712330002  2.1154098678690003  0.3901709768730000
  1.7665070397609999  0.8233575781880000  4.8972455071310002
  1.9919630383559999  3.0314236910780004  6.3151574604480007
  1.1009958387329999  0.1408143209290000  0.7098838643610001
  2.6574630584870000  3.7139515275360004 10.5024611984489997
  0.3999314602960000  3.3746891644780002  8.7274102720820004
  1.3869220438620000  2.4115113830859998  2.5088725611380003
  3.3585316777430001  0.4800612658340000  2.4848993107830002
  2.3715302182999998  1.4432120778100002  8.7034680466039998
