Mg Cu Sn
 1.0000000000000000
     7.0884359999999997    0.0000000000000000    0.0000000000000000
     0.0000000000000000    7.0884359999999997    0.0000000000000000
     0.0000000000000000    0.0000000000000000    7.0884359999999997
 Mg  Cu  Sn 
   4  16   4
Cartesian
  1.7721089999999999  5.3163269999999994  5.3163269999999994
  1.7721089999999999  1.7721089999999999  1.7721089999999999
  5.3163269999999994  5.3163269999999994  1.7721089999999999
  5.3163269999999994  1.7721089999999999  5.3163269999999994
  4.4265865132800002  2.6618494867200000  2.6618494867200000
  4.4265865132800002  0.8823685132799999  0.8823685132799999
  6.2060674867199994  2.6618494867200000  0.8823685132799999
  6.2060674867199994  0.8823685132799999  2.6618494867200000
  4.4265865132800002  6.2060674867199994  6.2060674867199994
  4.4265865132800002  4.4265865132800002  4.4265865132800002
  6.2060674867199994  6.2060674867199994  4.4265865132800002
  6.2060674867199994  4.4265865132800002  6.2060674867199994
  0.8823685132799999  2.6618494867200000  6.2060674867199994
  0.8823685132799999  0.8823685132799999  4.4265865132800002
  2.6618494867200000  2.6618494867200000  4.4265865132800002
  2.6618494867200000  0.8823685132799999  6.2060674867199994
  0.8823685132799999  6.2060674867199994  2.6618494867200000
  0.8823685132799999  4.4265865132800002  0.8823685132799999
  2.6618494867200000  6.2060674867199994  0.8823685132799999
  2.6618494867200000  4.4265865132800002  2.6618494867200000
  0.0000000000000000  0.0000000000000000  0.0000000000000000
  0.0000000000000000  3.5442179999999999  3.5442179999999999
  3.5442179999999999  0.0000000000000000  3.5442179999999999
  3.5442179999999999  3.5442179999999999  0.0000000000000000
