Rb P  S 
 1.0000000000000000
     6.1455019999999996    0.0000000000000000    3.4023599999999998
     2.8199420000000002    6.3293179999999998    2.1578140000000001
    -0.0032750000000000   -0.0311630000000000    7.2572390000000002
 Rb  P   S  
   2   2   6
Cartesian
  5.1592805109570001  4.6769986063010007  5.1837175270750002
  3.8028884890430001  1.6211563936989999  7.6336954729249999
  1.9361402622600001  2.1504672358199999  3.7541779486920004
  7.0260287377399990  4.1476877641800005  9.0632350513080002
  0.8990533853700001  2.0017103324099996  5.6274117757500006
  0.8174043829090000  1.4695548043050000  2.2855096473030003
  5.1875183271810004  4.8286001956949995  8.8946707088970012
  1.9176136146300002  4.2964446675900003  3.7876412242500002
  3.7746506728189999  1.4695548043050000  3.9227422911030003
  8.1447646170909991  4.8286001956949995 10.5319033526970003
