Ti
 1.0000000000000000
     4.5828610000000003    0.0000000000000000    0.0000000000000000
    -2.2914300000000001    3.9688750000000002    0.0000000000000000
     0.0000000000000000    0.0000000000000000    2.8263020000000001
 Ti 
   3
Cartesian
  0.0000000000000000  0.0000000000000000  0.0000000000000000
 -0.0000019580970001  2.6459179896250000  1.4131510000000000
  2.2914329580969999  1.3229570103749999  1.4131510000000000
