Sm S  F 
 1.0000000000000000
     3.8754400000000002    0.0000000000000000    0.0000000000000000
     0.0000000000000000    3.8754400000000002    0.0000000000000000
     0.0000000000000000    0.0000000000000000    6.8851389999999997
 Sm  S   F  
   2   2   2
Cartesian
  2.9065799999999999  2.9065799999999999  5.3186941409710000
  0.9688600000000001  0.9688600000000001  1.5664448590289999
  0.9688600000000001  0.9688600000000001  4.4563442514989990
  2.9065799999999999  2.9065799999999999  2.4287947485009997
  0.9688600000000001  2.9065799999999999  0.0000000000000000
  2.9065799999999999  0.9688600000000001  0.0000000000000000
