Ho In Cu
 1.0000000000000000
     7.3962990000000000    0.0000000000000000    0.0000000000000000
    -3.6981500000000000    6.4053829999999996    0.0000000000000000
     0.0000000000000000    0.0000000000000000    3.9067720000000001
 Ho  In  Cu 
   3   3   3
Cartesian
 -2.1817494795499996  3.7789005385309995  1.9533860000000001
  1.5164001104070000  2.6264824614689997  1.9533860000000001
  4.3634983691429996  0.0000000000000000  1.9533860000000001
  2.7563857719580001  4.7742009759859991  0.0000000000000000
 -0.9417634827000000  1.6311820240139998  0.0000000000000000
  1.8835267107420000  0.0000000000000000  0.0000000000000000
 -0.0000040314830001  4.2702574684609997  0.0000000000000000
  0.0000000000000000  0.0000000000000000  1.9533860000000001
  3.6981530314829998  2.1351255315389999  0.0000000000000000
