Ca Ga N 
 1.0000000000000000
     7.1726130000000001   -0.0000690000000000    0.0000000000000000
    -3.5862660000000002    6.2116930000000004    0.0000000000000000
     0.0000000000000000    0.0000000000000000    5.0649110000000004
 Ca  Ga  N  
   6   2   6
Cartesian
  4.3500044554920008  4.0280385526889999  1.2662277500000001
  4.8997402673939998  0.4303773173330000  1.2662277500000001
  1.5092188632989998  1.7531204949680002  1.2662277500000001
 -0.7636574554920000  2.1835854473110001  3.7986832500000003
 -1.3133896811280001  5.7812404709740006  3.7986832500000003
  2.0771353093140004  4.4585035049630006  3.7986832500000003
  3.5863200001080004  2.0705348977560001  3.7986832500000003
  0.0000269998920001  4.1410891022440008  1.2662277500000001
  4.3893518623379997  3.7906037396509999  3.7986832500000003
  4.6744382861189999  0.5150381784230000  3.7986832500000003
  1.6951662653579997  1.9059317169360002  3.7986832500000003
 -0.8030048623380002  2.4210202603490001  1.2662277500000001
 -1.0880912861190000  5.6965858215770000  1.2662277500000001
  1.8911807346419993  4.3056922830640003  1.2662277500000001
