Ga Pd
 1.0000000000000000
     4.0595730000000003    0.0000000000000000    0.0000000000000000
     0.0000000000000000    5.5443030000000002    0.0000000000000000
     0.0000000000000000    0.0000000000000000    7.7994919999999999
 Ga  Pd 
   4   8
Cartesian
  3.0446797500000002  3.9097870325700002  6.9569440772080000
  1.0148932500000001  1.6345159674300000  0.8425479227920000
  3.0446797500000002  1.1376355325700001  4.7422939227919993
  1.0148932500000001  4.4066674674300002  3.0571980772080001
  3.0446797500000002  3.6758728890000003  4.4156355988479996
  1.0148932500000001  1.8684301110000001  3.3838564011520003
  3.0446797500000002  0.9037213890000001  7.2836024011519998
  1.0148932500000001  4.6405816110000000  0.5158895988479999
  3.0446797500000002  3.0023675934690002  1.6138552856560000
  1.0148932500000001  2.5419354065310000  6.1856367143439996
  3.0446797500000002  0.2302160934690000  2.2858907143440002
  1.0148932500000001  5.3140869065310001  5.5136012856560006
