Mo Ir
 1.0000000000000000
     5.0038739999999997    0.0000000000000000    0.0000000000000000
     0.0000000000000000    5.0038739999999997    0.0000000000000000
     0.0000000000000000    0.0000000000000000    5.0038739999999997
 Mo  Ir 
   6   2
Cartesian
  2.5019369999999999  1.2509684999999999  0.0000000000000000
  2.5019369999999999  3.7529054999999998  0.0000000000000000
  1.2509684999999999  0.0000000000000000  2.5019369999999999
  3.7529054999999998  0.0000000000000000  2.5019369999999999
  0.0000000000000000  2.5019369999999999  1.2509684999999999
  0.0000000000000000  2.5019369999999999  3.7529054999999998
  2.5019369999999999  2.5019369999999999  2.5019369999999999
  0.0000000000000000  0.0000000000000000  0.0000000000000000
