Rb Te
 1.0000000000000000
     5.2432600000000003    0.0000000000000000    3.0271979999999998
     1.7477540000000000    4.9433930000000004    3.0271979999999998
    -0.0000000000000000    0.0000000000000000    6.0543969999999998
 Rb  Te 
   2   1
Cartesian
  1.7477535000000000  1.2358482500000001  3.0271982499999996
  5.2432605000000008  3.7075447500000003  9.0815947499999989
  0.0000000000000000  0.0000000000000000  0.0000000000000000
