Ni H 
 1.0000000000000000
     2.2519030000000000    0.0000000000000000    1.3001370000000001
     0.7506360000000000    2.1231140000000002    1.3001370000000001
     0.0000000000000000    0.0000000000000000    2.6002749999999999
 Ni  H  
   1   1
Cartesian
  0.0000000000000000  0.0000000000000000  0.0000000000000000
  1.5012695000000000  1.0615570000000001  2.6002745000000003
