Cs Cd Br
 1.0000000000000000
     7.7505480000000002   -0.0000000000000000    0.0000000000000000
    -3.8752740000000001    6.7121719999999998    0.0000000000000000
     0.0000000000000000    0.0000000000000000    6.7592499999999998
 Cs  Cd  Br 
   2   2   6
Cartesian
 -0.0000038752740000  4.4747835707240000  5.0694374999999994
  3.8752778752740000  2.2373884292759998  1.6898124999999999
  0.0000000000000000  0.0000000000000000  0.0000000000000000
  0.0000000000000000  0.0000000000000000  3.3796249999999999
 -1.9485148941180002  5.5997570222680002  1.6898124999999999
  1.9267668564300000  1.1124149777319998  5.0694374999999994
  3.8752778752740000  4.4873353323640002  5.0694374999999994
 -0.0000038752740000  2.2248366676360001  1.6898124999999999
  1.9485071435700005  5.5997570222680002  1.6898124999999999
  5.8237888941180005  1.1124149777319998  5.0694374999999994
