Li Dy S 
 1.0000000000000000
     6.2412060000000000   -1.9493739999999999   -0.0028420000000000
     6.2412060000000000    1.9493739999999999   -0.0028420000000000
     5.6338530000000002    0.0000000000000000    3.3184969999999998
 Li  Dy  S  
   1   1   2
Cartesian
  9.0581324999999993  0.0000000000000000  1.6564064999999999
  0.0000000000000000  0.0000000000000000  0.0000000000000000
  4.5250444391700002 -0.0000000000000000  0.8274678055139999
 13.5912205608300010 -0.0000000000000001  2.4853451944859999
