Er In
 1.0000000000000000
     4.5940799999999999    0.0000000000000000    0.0000000000000000
     0.0000000000000000    4.5940799999999999    0.0000000000000000
     0.0000000000000000    0.0000000000000000    4.5940799999999999
 Er  In 
   1   3
Cartesian
  0.0000000000000000  0.0000000000000000  0.0000000000000000
  2.2970400000000000  0.0000000000000000  2.2970400000000000
  0.0000000000000000  2.2970400000000000  2.2970400000000000
  2.2970400000000000  2.2970400000000000  0.0000000000000000
