Li In I  O 
 1.0000000000000000
     4.9780490000000004    0.0000000000000000    0.0000000000000000
     0.0773750000000000    6.5918880000000000    0.0000000000000000
     0.1224450000000000    0.7761560000000000    8.6601649999999992
 Li  In  I   O  
   1   1   4  12
Cartesian
  2.5502470000000002  0.3880780000000000  4.3300824999999996
  2.5889345000000001  3.6840220000000001  4.3300824999999996
  2.6706930097570001  5.4245226623400002  1.3523627062349999
  0.1032915614350000  2.0478790763839996  2.0695369503799999
  5.0745774385650000  5.3201649236159998  6.5906280496199994
  2.5071759902430002  1.9435213376600000  7.3078022937649987
  3.7624989669530002  4.1659343569439997  0.6135553699199999
  3.5512638838020001  0.3441833244480000  0.8806348585199999
  1.1973327195730001  3.4532104318720003  2.6543405724999998
  1.1258235105380001  0.6684396805160000  2.6472652176949998
  3.3023974058000003  5.3383246008520002  3.1341743346549995
  3.8417686425080002  2.0815137664959997  3.4469535139599996
  1.3361003574920001  5.2865302335040001  5.2132114860399987
  1.8754715942000002  2.0297193991480000  5.5259906653449997
  4.0520454894620004  6.6996043194840000  6.0128997823049994
  3.9805362804270006  3.9148335681280000  6.0058244274999995
  1.6266051161980000  7.0238606755519992  7.7795301414799995
  1.4153700330470003  3.2021096430559997  8.0466096300799990
