Hf Cu Si
 1.0000000000000000
     6.3184750000000003    0.0000000000000000    0.0000000000000000
    -3.1592380000000002    5.4719600000000002    0.0000000000000000
     0.0000000000000000    0.0000000000000000    3.9818920000000002
 Hf  Cu  Si 
   3   4   2
Cartesian
 -1.8513450603800001  3.2066232796000000  1.9909460000000001
  1.3078925256300000  2.2653367204000001  1.9909460000000001
  3.7026895347500002  0.0000000000000000  1.9909460000000001
  1.5641321677750000  0.0000000000000000  0.0000000000000000
 -0.7820662076620001  1.3545782260399999  0.0000000000000000
  0.0000000000000000  0.0000000000000000  1.9909460000000001
  2.3771710398870001  4.1173817739600000  0.0000000000000000
  3.1592404925710000  1.8239848426800001  0.0000000000000000
 -0.0000034925710001  3.6479751573200003  0.0000000000000000
