Ca Si Pt
 1.0000000000000000
     6.8902330000000003    0.0000000000000000   -2.3891670000000000
     0.0000000000000000    5.8903290000000004    0.0000000000000000
    -0.0001640000000000    0.0000000000000000    5.9494920000000002
 Ca  Si  Pt 
   4   4   4
Cartesian
  0.7876806100500000  0.7589394400050000  1.6193716502820001
  4.2327151100500009  2.1862250599950004  3.3995341502819998
  6.1023883899499998  5.1313895599950001  1.9409533497180005
  2.6573538899500004  3.7041039400050000  0.1607908497180000
  6.5283215245630002  3.6546133957469999 -1.1917596368610002
  0.3617474754370000  2.2357156042530000  4.7520846368610004
  3.8069459754370003  0.7094488957470000  0.5827551368609998
  3.0831230245630001  5.1808801042530002  2.9775698631389997
  1.3198135154940003  3.5862148953990003  2.9269507435020001
  5.5702554845060002  2.3041141046010001  0.6333742564980003
  4.7650120154940003  5.2492786046010007 -1.2423787564980002
  2.1250569845060001  0.6410503953990000  4.8027037564980004
