Hf Zn N 
 1.0000000000000000
    -0.0001130000000000    5.9603429999999999    5.9603440000000001
     5.9603440000000001   -0.0001140000000000    5.9603440000000001
     5.9603440000000001    5.9603440000000001   -0.0001140000000000
 Hf  Zn  N  
  12  12   4
Cartesian
  2.2201779096749998  5.9602802307810006  5.9602989258960006
  5.9603348748900009  2.2201351864820000  5.9602870049800005
  5.9602520471540004  5.9602086964640009  9.7003849842900003
  9.7004149730520002  5.9601974032739999  5.9602095104339998
  5.9602460868099998  9.7003722497459997  5.9602154707780004
  5.9603289145459994  5.9602748979319999  2.2201413333000000
  0.7598588020250000  2.9801225740729995  2.9801349312360004
  2.9801767180679999  0.7598225391760000  2.9801289706639995
  2.9801286643200000  2.9800860686180002  5.2004107539879998
  5.2004406201320004  2.9800804807820001  2.9800924654380001
  2.9801346246639997  5.2004043571679999  2.9800984256680003
  2.9801826785250003  2.9801169860090000  0.7598285633740000
  6.9345447638970006  6.9345618087290006  4.9859752580980006
  4.9860844681300005  4.9861015129480002  4.9860959707679999
  4.9859163982629999  6.9346091650070010  6.9346039497500005
  6.9345388034399997  4.9859867607419996  6.9345562665419997
  7.9661859064520000  7.9661961639039998  9.9147482017899993
  9.9146819637179995  9.9146981816319997  9.9146811319879991
  9.9146950623810000  7.9662203325269996  7.9662267978120003
  7.9661561045060001  9.9147592913140006  7.9661791146040004
  4.4700622037080002  4.4702636092080006  7.4506422456939996
  7.4502520864349995  7.4504534919649998  7.4504064333219997
  7.4506781349950000  4.4700852971430001  4.4700377384359999
  4.4701277680570000  7.4506416199789998  4.4702701940180001
  4.4702557962530003  4.4702197835150006  1.4899909085099998
  1.4900778357960001  1.4900477835140000  1.4900538689680001
  1.4900094148820000  4.4702252439699999  4.4702318294260008
  4.4702557961400000  1.4899907833999999  4.4702318293119996
