Ca Co N 
 1.0000000000000000
     8.0525179999999992    0.0000000000000000    0.0000000000000000
     0.0000000000000000    8.0525179999999992    0.0000000000000000
     0.0000000000000000    0.0000000000000000   12.0500469999999993
 Ca  Co  N  
  20   8  16
Cartesian
  4.0262589999999996  0.0000000000000000  7.8261560751369998
  0.0000000000000000  4.0262589999999996  4.2238909248629994
  4.0262589999999996  0.0000000000000000  1.8011325751369998
  5.4239506542959992  3.0815617457939997  7.1722120744939994
  0.9446972542059999  6.6548263457039996  1.1471885744939998
  3.0815617457939997  5.4239506542959992 10.9028584255059986
  2.6285673457039995  3.0815617457939997  1.1471885744939998
  6.6548263457039996  7.1078207457939993 10.9028584255059986
  7.1078207457939993  6.6548263457039996  7.1722120744939994
  4.9709562542059995  2.6285673457039995 10.9028584255059986
  2.6285673457039995  4.9709562542059995  7.1722120744939994
  1.3976916542959998  0.9446972542059999 10.9028584255059986
  0.0000000000000000  4.0262589999999996 10.2489144248629991
  6.6548263457039996  0.9446972542059999  4.8778349255059998
  1.3976916542959998  7.1078207457939993  4.8778349255059998
  7.1078207457939993  1.3976916542959998  1.1471885744939998
  5.4239506542959992  4.9709562542059995  1.1471885744939998
  3.0815617457939997  2.6285673457039995  4.8778349255059998
  0.9446972542059999  1.3976916542959998  7.1722120744939994
  4.9709562542059995  5.4239506542959992  4.8778349255059998
  5.3037426655919999  2.7487753344079997  3.0125117499999998
  6.7750343344079988  1.2774836655919999  9.0375352499999995
  1.2774836655919999  1.2774836655919999  3.0125117499999998
  5.3037426655919999  5.3037426655919999  9.0375352499999995
  2.7487753344079997  5.3037426655919999  3.0125117499999998
  2.7487753344079997  2.7487753344079997  9.0375352499999995
  1.2774836655919999  6.7750343344079988  9.0375352499999995
  6.7750343344079988  6.7750343344079988  3.0125117499999998
  3.1372046451739997  2.4067848949479997  7.3179332928649998
  5.6457331050519999  3.1372046451739997  4.7321137071350003
  5.6457331050519999  4.9153133548260000 10.7571372071349991
  6.4330438949479989  7.1634636451739988  1.2929097928650000
  2.4067848949479997  3.1372046451739997 10.7571372071349991
  1.6194741050519996  0.8890543548259999  1.2929097928650000
  7.1634636451739988  6.4330438949479989  4.7321137071350003
  7.1634636451739988  1.6194741050519996 10.7571372071349991
  3.1372046451739997  5.6457331050519999  1.2929097928650000
  4.9153133548260000  5.6457331050519999  7.3179332928649998
  2.4067848949479997  4.9153133548260000  4.7321137071350003
  0.8890543548259999  6.4330438949479989 10.7571372071349991
  1.6194741050519996  7.1634636451739988  7.3179332928649998
  0.8890543548259999  1.6194741050519996  4.7321137071350003
  6.4330438949479989  0.8890543548259999  7.3179332928649998
  4.9153133548260000  2.4067848949479997  1.2929097928650000
