Er Co B 
 1.0000000000000000
     3.3092530000000000    0.0000000000000000   -1.1942710000000001
    -0.4309980000000000    3.2810649999999999   -1.1942710000000001
     0.0176950000000000    0.0201700000000000    5.2310319999999999
 Er  Co  B  
   1   2   2
Cartesian
  0.0000000000000000  0.0000000000000000  0.0000000000000000
  0.5129122500000000  2.4708837500000000  1.4212449999999999
  2.3830377499999997  0.8303512500000000  1.4212449999999999
  1.0204808520899999  1.1632955300099999  2.8276864923239997
  1.8754691479099999  2.1379394699899996  0.0148035076760000
