Li Tb Hg
 1.0000000000000000
     0.0000000000000000    3.5318779999999999    3.5318779999999999
     3.5318779999999999    0.0000000000000000    3.5318779999999999
     3.5318779999999999    3.5318779999999999    0.0000000000000000
 Li  Tb  Hg 
   1   1   2
Cartesian
  1.7659319362440000  1.7659319362440000  1.7659319362440000
  5.2978170000000002  5.2978170000000002  5.2978170000000002
  0.0000000000000000  0.0000000000000000  0.0000000000000000
  3.5318779999999999  3.5318779999999999  3.5318779999999999
