Ho Cr C 
 1.0000000000000000
     3.3626369999999999    0.0000000000000000    0.0000000000000000
    -1.6813190000000000    5.0008119999999998   -1.4347010000000000
     0.0000000000000000    0.0278660000000000    5.4946099999999998
 Ho  Cr  C  
   2   2   3
Cartesian
  1.6813200755720004  1.0803751375219999  4.1801230899170001
 -0.0000020755719999  3.9483028624779997 -0.1202140899169999
  1.6813198373389997  3.4574490235839996  2.3838508452009997
 -0.0000018373390000  1.5712289764159999  1.6760581547990001
  0.0000013955449998  2.8785455675279996  3.1919124174929996
  1.6813166044549999  2.1501324324720001  0.8679965825069998
  0.0000000000000000  0.0139330000000000  2.7473049999999999
