La B 
 1.0000000000000000
     4.1526079999999999    0.0000000000000000    0.0000000000000000
     0.0000000000000000    4.1526079999999999    0.0000000000000000
     0.0000000000000000    0.0000000000000000    4.1526079999999999
 La  B  
   1   6
Cartesian
  0.0000000000000000  0.0000000000000000  0.0000000000000000
  3.3225930181759997  2.0763039999999999  2.0763039999999999
  0.8300149818240000  2.0763039999999999  2.0763039999999999
  2.0763039999999999  2.0763039999999999  3.3225930181759997
  2.0763039999999999  2.0763039999999999  0.8300149818240000
  2.0763039999999999  0.8300149818240000  2.0763039999999999
  2.0763039999999999  3.3225930181759997  2.0763039999999999
