Cs Ca F 
 1.0000000000000000
     4.5205310000000001    0.0000000000000000    0.0000000000000000
     0.0000000000000000    4.5205310000000001    0.0000000000000000
     0.0000000000000000    0.0000000000000000    4.5205310000000001
 Cs  Ca  F  
   1   1   3
Cartesian
  0.0000000000000000  0.0000000000000000  0.0000000000000000
  2.2602655000000000  2.2602655000000000  2.2602655000000000
  0.0000000000000000  2.2602655000000000  2.2602655000000000
  2.2602655000000000  0.0000000000000000  2.2602655000000000
  2.2602655000000000  2.2602655000000000  0.0000000000000000
