Ca Al O 
 1.0000000000000000
     5.2947829999999998   -0.0177230000000000    1.2920910000000001
     1.2224999999999999    7.1979850000000001    2.7694500000000000
    -0.0313300000000000   -0.0084710000000000    7.8086029999999997
 Ca  Al  O  
   2   8  14
Cartesian
  1.5356639385199999  1.3854677980639998  7.1538083452679997
  4.9502890614800004  5.7863232019360007  4.7163356547320001
  2.1649072227969994  4.8857505649760000  6.5940470533650002
  1.8228763783230002  3.1525638914230005  4.0303189220430005
  4.3210445547029996  2.2860332370390002  5.2760941771849996
  4.6630766530070007  4.0192271170479996  7.8398172693539996
  1.1227440117470002  0.5509907590220000  2.4130712275069999
  2.5002803497630000  5.3908503352099997  9.6772727906519993
  5.3632089882529996  6.6208002409779994  9.4570727724929995
  3.9856726502369999  1.7809406647900001  2.1928712093480001
  5.7625209160290005  5.3689994784380008  8.2356356974819995
  3.5111810756609994  2.6006423255700000  3.7164558982389999
  0.7234320839710000  1.8027915215619998  3.6345083025179998
  2.9747719243389996  4.5711486744299998  8.1536881017610003
  2.8953340376569998  6.2097988287360000  5.7628565486699994
  1.5579502507529999  4.5040061015910000  2.9906583664989999
  3.5906189936729995  0.9619921797350000  6.1072796427269997
  4.9280015267469999  2.6677777004239998  8.8794828640509991
  4.9974697392269993  0.4299611222670000  2.6911253033420000
  4.0024948330329995  5.9663600013649996 10.3611192144919997
  4.6063672539700002  3.8096139405040002  6.0985602051729995
  1.8795857460300001  3.3621770594960001  5.7715837948269995
  2.4834581669670004  1.2054309986350000  1.5090247855079999
  1.4884832607729999  6.7418298777330001  9.1790186966579999
