Gd Si
 1.0000000000000000
     3.8877069999999998   -0.0056850000000000   -1.1290780000000000
    -0.3291250000000000    3.8737580000000000   -1.1290780000000000
     0.0947570000000000    0.1029980000000000    7.6827850000000000
 Gd  Si 
   2   4
Cartesian
  3.2198436044639998  2.4417691300389999  0.2270792499999998
  0.4334915078290000  1.5293018756460000  5.1975508790780003
  2.5216564313959995  3.8000568638400005  5.1569510764170001
  1.7504052569369999  0.8435473166970000  2.4446442592020001
  1.9029338378199996  3.1275237863009999  2.9799924235829995
  1.1316824738469999  0.1710140331620000  0.2676702407980001
