Sm Te O 
 1.0000000000000000
     3.8348119999999999    0.0000000000000000   -1.1553030000000000
    -0.3480550000000000    3.8189839999999999   -1.1553030000000000
     0.0084680000000000    0.0092750000000000    6.9702240000000000
 Sm  Te  O  
   2   1   2
Cartesian
  2.3070526383079999  2.5268744791950000  0.7157129511840002
  1.1881723616919999  1.3013845208049999  3.9439050488160001
  0.0000000000000000  0.0000000000000000  0.0000000000000000
  0.7018957499999999  2.8688754999999997  2.3298090000000000
  2.7933292499999998  0.9593834999999999  2.3298090000000000
