Ho Ni Pb
 1.0000000000000000
     3.6336670000000000    0.0000000000000000    0.0000000000000000
     0.0000000000000000    3.8140920000000000   -1.0980810000000001
     0.0000000000000000    0.0411780000000000    7.3160299999999996
 Ho  Ni  Pb 
   2   2   1
Cartesian
  1.8168335000000000  2.4555723636479998  1.3562189277040000
  1.8168335000000000  1.3996976363520000  4.8617300722959991
  0.0000000000000000  0.7842847639800000  2.7241317290179996
  0.0000000000000000  3.0709852360200003  3.4938172709819999
  0.0000000000000000  0.0000000000000000  0.0000000000000000
