Pa Al Tc
 1.0000000000000000
     0.0000000000000000    3.2412570000000001    3.2412570000000001
     3.2412570000000001    0.0000000000000000    3.2412570000000001
     3.2412570000000001    3.2412570000000001    0.0000000000000000
 Pa  Al  Tc 
   1   1   2
Cartesian
  4.8618854999999996  4.8618854999999996  4.8618854999999996
  1.6206220174860000  1.6206220174860000  1.6206220174860000
  0.0000000000000000  0.0000000000000000  0.0000000000000000
  3.2412570000000001  3.2412570000000001  3.2412570000000001
