Zr Te
 1.0000000000000000
     4.0112569999999996   -0.0011270000000000    0.0014200000000000
    -2.0066039999999998    3.4747040000000000   -0.0002270000000000
     0.0024790000000000    0.0009970000000000    6.9778339999999996
 Zr  Te 
   1   2
Cartesian
  0.0000000000000000  0.0000000000000000  0.0000000000000000
  2.0066933811739998  1.1582442471580001  5.2120010041619995
  0.0004386188260001  2.3163297528419999  1.7670259958380001
