Tl Cu F 
 1.0000000000000000
     4.1675800000000001    0.0000000000000000    0.0000000000000000
     0.0000000000000000    4.1673429999999998    0.0008860000000000
    -2.0837900000000000   -2.0821969999999999    6.7107720000000004
 Tl  Cu  F  
   2   1   4
Cartesian
 -0.0000041675800002 -0.0002395636110000  4.7706534865460002
  2.0837941675799998  2.0853855636109997  1.9410045134540002
  0.0000000000000000  0.0000000000000000  0.0000000000000000
  0.0000020837900000 -0.0005402113740000  1.8943140537780001
  2.0837879162099999  2.0856862113739996  4.8173439462220005
  0.0000000000000000  2.0836714999999999  0.0004430000000000
  2.0837900000000000  0.0000000000000000  0.0000000000000000
