Mg Ru
 1.0000000000000000
     6.9657790000000004    0.0000000000000000    0.0000000000000000
     0.0000000000000000    6.9657790000000004    0.0000000000000000
     0.0000000000000000    0.0000000000000000    6.9657790000000004
 Mg  Ru 
  12   8
Cartesian
  4.3536118750000004  2.0508716189589999  3.7923163689590007
  4.9149073810410000  0.3094268689590000  6.0950566250000007
  3.7923163689590007  4.3536118750000004  2.0508716189589999
  6.6563521310410003  2.6121671250000000  5.5337611189590010
  2.0508716189589999  3.7923163689590007  4.3536118750000004
  3.1734626310410001  0.8707223750000000  1.4320178810410003
  0.3094268689590000  6.0950566250000007  4.9149073810410000
  5.5337611189590010  6.6563521310410003  2.6121671250000000
  0.8707223750000000  1.4320178810410003  3.1734626310410001
  2.6121671250000000  5.5337611189590010  6.6563521310410003
  6.0950566250000007  4.9149073810410000  0.3094268689590000
  1.4320178810410003  3.1734626310410001  0.8707223750000000
  4.7054812354060003  4.7054812354060003  4.7054812354060003
  6.4469259854059997  4.0017425145940004  2.9640364854060004
  4.0017425145940004  2.9640364854060004  6.4469259854059997
  2.9640364854060004  6.4469259854059997  4.0017425145940004
  1.2225917354060001  5.7431872645940008  2.2602977645940001
  5.7431872645940008  2.2602977645940001  1.2225917354060001
  2.2602977645940001  1.2225917354060001  5.7431872645940008
  0.5188530145940000  0.5188530145940000  0.5188530145940000
