Zr Si Ru
 1.0000000000000000
     6.6867989999999997    0.0000000000000000    0.0000000000000000
    -3.3433989999999998    5.7909369999999996    0.0000000000000000
     0.0000000000000000    0.0000000000000000    3.6911550000000002
 Zr  Si  Ru 
   3   3   3
Cartesian
  1.3877149474000001  2.4035921021569999  1.8455775000000001
  3.9113695202609997  0.0000000000000000  1.8455775000000001
 -1.9556844676609999  3.3873448978429996  1.8455775000000001
  0.0000000000000000  0.0000000000000000  1.8455775000000001
  3.3434030100659999  1.9303104030209999  0.0000000000000000
 -0.0000030100660002  3.8606265969789999  0.0000000000000000
 -0.8167422247149999  1.4146390450449999  0.0000000000000000
  1.6334846937150000  0.0000000000000000  0.0000000000000000
  2.5266575310000006  4.3762979549549996  0.0000000000000000
