Nb Ir
 1.0000000000000000
     2.8846259999999999    0.0000000000000000    0.0000000000000000
     0.0000000000000000    2.8846259999999999    0.0000000000000000
     0.0000000000000000    0.0000000000000000    3.8981690000000002
 Nb  Ir 
   1   1
Cartesian
  1.4423130000000000  1.4423130000000000  1.9490845000000001
  0.0000000000000000  0.0000000000000000  0.0000000000000000
