Ho I 
 1.0000000000000000
    10.9456819999999997    0.0000010000000000    0.0000180000000000
    -5.4728389999999996    9.4796770000000006   -0.0000020000000000
     0.0000080000000000    0.0000030000000000    3.9777870000000002
 Ho  I  
   2   6
Cartesian
  0.0000620616940007  6.3196671740810002  2.9833329833070001
  5.4728491396110002  3.1600043462680003  0.9944978612940001
 -0.0009439532589999  4.0204172947670012  0.9944576727800001
  1.9916798723759999  7.4684700535510000  0.9944436067990000
 -1.9906876092719998  7.4703087471650003  0.9944489925780000
  5.4719013503089995  5.4592447457199995  2.9833652130270001
  3.4820850916570003  2.0094003281179997  2.9833434822189999
  7.4644471012859999  2.0112302697140003  2.9833619658620001
