Sc Nb Ru
 1.0000000000000000
     0.0000730000000000    3.1777880000000001    3.1778179999999998
     3.1778119999999999    0.0000020000000000    3.1778900000000001
     3.1777940000000000    3.1778409999999999    0.0000200000000000
 Sc  Nb  Ru 
   1   1   2
Cartesian
  4.7667497167279995  4.7667264277309993  4.7667959998360008
  1.5889133946309999  1.5889109276819999  1.5889415334140000
  3.1778987777540002  6.3555972219359997  3.1778634234720000
  3.1778299665840000  3.1778441004429996  3.1778385768759998
