Ba Mg Si
 1.0000000000000000
     4.3483960000000002   -0.0000000000000000   -1.6814420000000001
    -0.6501830000000000    4.2995120000000000   -1.6814420000000001
    -0.0178390000000000   -0.0207400000000000    6.4173000000000000
 Ba  Mg  Si 
   1   2   2
Cartesian
  0.0000000000000000  0.0000000000000000  0.0000000000000000
  3.0898317499999997  1.0645080000000000  1.5272079999999999
  0.5905422500000002  3.2142640000000000  1.5272079999999999
  2.2598012175290001  2.6272261810279995 -0.6193470153560002
  1.4205727824709999  1.6515458189719998  3.6737630153560001
