Sc Sb
 1.0000000000000000
     5.8926689999999997    0.0000000000000000    0.0000000000000000
     0.0000000000000000    5.8926689999999997    0.0000000000000000
     0.0000000000000000    0.0000000000000000    5.8926689999999997
 Sc  Sb 
   4   4
Cartesian
  0.0000000000000000  0.0000000000000000  0.0000000000000000
  0.0000000000000000  2.9463344999999999  2.9463344999999999
  2.9463344999999999  0.0000000000000000  2.9463344999999999
  2.9463344999999999  2.9463344999999999  0.0000000000000000
  2.9463344999999999  0.0000000000000000  0.0000000000000000
  2.9463344999999999  2.9463344999999999  2.9463344999999999
  0.0000000000000000  0.0000000000000000  2.9463344999999999
  0.0000000000000000  2.9463344999999999  0.0000000000000000
