Ag
 1.0000000000000000
     2.9426739999999998    0.0000000000000000    0.0000000000000000
    -1.4713369999999999    2.5484309999999999    0.0000000000000000
     0.0000000000000000    0.0000000000000000    9.6313220000000008
 Ag 
   4
Cartesian
  0.0000000000000000  0.0000000000000000  0.0000000000000000
  0.0000000000000000  0.0000000000000000  4.8156610000000004
 -0.0000014713370001  1.6989548494769999  2.4078305000000002
  1.4713384713369999  0.8494761505230000  7.2234915000000006
