Li Zn Ni
 1.0000000000000000
     0.0000000000000000    2.8983660000000002    2.8983660000000002
     2.8983660000000002    0.0000000000000000    2.8983660000000002
     2.8983660000000002    2.8983660000000002    0.0000000000000000
 Li  Zn  Ni 
   1   2   1
Cartesian
  1.4491830000000001  1.4491830000000001  1.4491830000000001
  2.8983602032680005  2.8983602032680005  2.8983602032680005
  0.0000000000000000  0.0000000000000000  0.0000000000000000
  4.3475547967320001  4.3475547967320001  4.3475547967320001
