Li Nb Rh
 1.0000000000000000
     0.0000000000000000    3.0601590000000001    3.0601590000000001
     3.0601590000000001    0.0000000000000000    3.0601590000000001
     3.0601590000000001    3.0601590000000001    0.0000000000000000
 Li  Nb  Rh 
   1   1   2
Cartesian
  1.5300733796820001  1.5300733796820001  1.5300733796820001
  4.5902323796819999  4.5902323796819999  4.5902323796819999
  0.0000000000000000  0.0000000000000000  0.0000000000000000
  3.0601590000000001  3.0601590000000001  3.0601590000000001
