Ti V  Ir
 1.0000000000000000
     0.0005380000000000    3.1071249999999999    3.1093660000000001
     3.1096480000000000    0.0005770000000000    3.1093299999999999
     3.1096320000000000    3.1070739999999999    0.0005910000000000
 Ti  V   Ir 
   2   1   1
Cartesian
  3.1099369910719998  3.1074252881810001  3.1096839239420002
  0.0005504321040000  3.1070939298020002  3.1093349074499996
  4.6648075318599993  4.6610851023909996  4.6644683543709995
  1.5549824845999998  1.5536971091779999  1.5548217528110000
