Hf Pa Tc
 1.0000000000000000
     0.0000000000000000    3.3453040000000001    3.3453040000000001
     3.3453040000000001    0.0000000000000000    3.3453040000000001
     3.3453040000000001    3.3453040000000001    0.0000000000000000
 Hf  Pa  Tc 
   1   1   2
Cartesian
  1.6726453093920000  1.6726453093920000  1.6726453093920000
  5.0179626906079999  5.0179626906079999  5.0179626906079999
  3.3453040000000001  3.3453040000000001  3.3453040000000001
  0.0000000000000000  0.0000000000000000  0.0000000000000000
