Ba Ag
 1.0000000000000000
     5.8904059999999996   -0.0002860000000000   -0.0000020000000000
    -2.9454520000000000    5.1010559999999998   -0.0000060000000000
    -0.0000020000000000   -0.0000070000000000    4.5590250000000001
 Ba  Ag 
   1   5
Cartesian
  0.0000000000000000  0.0000000000000000  0.0000000000000000
 -0.0001807265959999  3.4006205695119998 -0.0000046666780000
  2.9451347265960002  1.7001494304879998 -0.0000033333220000
  2.9452019999999997 -0.0001465000000000  2.2795114999999999
  1.4724759999999999  2.5503814999999999  2.2795084999999999
 -1.4727269999999999  2.5505244999999999  2.2795095000000001
