Ho Zn Rh
 1.0000000000000000
     0.0000000000000000    3.1904659999999998    3.1904659999999998
     3.1904659999999998    0.0000000000000000    3.1904659999999998
     3.1904659999999998    3.1904659999999998    0.0000000000000000
 Ho  Zn  Rh 
   1   1   2
Cartesian
  1.5952329999999999  1.5952329999999999  1.5952329999999999
  4.7856989999999993  4.7856989999999993  4.7856989999999993
  0.0000000000000000  0.0000000000000000  0.0000000000000000
  3.1904596190680001  3.1904596190680001  3.1904596190680001
