Sr Cu O 
 1.0000000000000000
     3.4010520000000000    0.0000000000000000   -0.8943090000000000
    -0.2939550000000000    3.7540309999999999   -1.1179079999999999
    -0.0204290000000000   -0.0207250000000000    6.8365520000000002
 Sr  Cu  O  
   2   1   3
Cartesian
  2.1510331037879999  0.5454709012500000  1.2661418321309998
  0.9356348962120001  3.1878350987499999  3.5581931678689998
 -0.1469775000000000  1.8770154999999999 -0.5589540000000000
  0.0000000000000000  0.0000000000000000  0.0000000000000000
  2.7609050563649999  1.2838996324690000  3.5854532493360001
  0.3257629436350000  2.4494063675310001  1.2388817506640002
