Ta Ti Os
 1.0000000000000000
     0.0000000000000000    3.1322100000000002    3.1322100000000002
     3.1322100000000002    0.0000000000000000    3.1322100000000002
     3.1322100000000002    3.1322100000000002    0.0000000000000000
 Ta  Ti  Os 
   1   1   2
Cartesian
  1.5661050000000001  1.5661050000000001  1.5661050000000001
  4.6983150000000000  4.6983150000000000  4.6983150000000000
  0.0000000000000000  0.0000000000000000  0.0000000000000000
  3.1322100000000002  3.1322100000000002  3.1322100000000002
