Ag Au
 1.0000000000000000
     4.1216320000000000    0.0000000000000000    0.0000000000000000
     0.0000000000000000    4.1216320000000000    0.0000000000000000
     0.0000000000000000    0.0000000000000000    4.1216320000000000
 Ag  Au 
   1   3
Cartesian
  2.0608160000000000  2.0608160000000000  2.0608160000000000
  2.0608160000000000  0.0000000000000000  0.0000000000000000
  0.0000000000000000  2.0608160000000000  0.0000000000000000
  0.0000000000000000  0.0000000000000000  2.0608160000000000
