Sm Co Si
 1.0000000000000000
     4.0276449999999997    0.0000000000000000    0.0000000000000000
     0.0000000000000000    4.0276449999999997    0.0000000000000000
     0.0000000000000000    0.0000000000000000    6.7963519999999997
 Sm  Co  Si 
   2   2   2
Cartesian
  3.0207337499999998  3.0207337499999998  2.1179743591680000
  1.0069112499999999  1.0069112499999999  4.6783776408320001
  3.0207337499999998  1.0069112499999999  0.0000000000000000
  1.0069112499999999  3.0207337499999998  0.0000000000000000
  3.0207337499999998  3.0207337499999998  5.6349709811839999
  1.0069112499999999  1.0069112499999999  1.1613810188160001
