Sr Cd Sb
 1.0000000000000000
     4.7528329999999999   -0.0000000000000000    0.0000000000000000
    -2.3764180000000001    4.1160750000000004    0.0000000000000000
     0.0000000000000000    0.0000000000000000    7.8931110000000002
 Sr  Cd  Sb 
   1   2   2
Cartesian
  0.0000000000000000  0.0000000000000000  0.0000000000000000
 -0.0000033764170003  2.7440513720250004  4.9876884133440003
  2.3764183764169999  1.3720236279750000  2.9054225866560000
 -0.0000033764170003  2.7440513720250004  1.9891271168880000
  2.3764183764169999  1.3720236279750000  5.9039838831119997
