Nb Rh
 1.0000000000000000
     5.1862969999999997    0.0000000000000000    0.0000000000000000
     0.0000000000000000    5.1862969999999997    0.0000000000000000
     0.0000000000000000    0.0000000000000000    5.1862969999999997
 Nb  Rh 
   6   2
Cartesian
  1.2965742499999999  0.0000000000000000  2.5931484999999999
  3.8897227499999998  0.0000000000000000  2.5931484999999999
  0.0000000000000000  2.5931484999999999  1.2965742499999999
  0.0000000000000000  2.5931484999999999  3.8897227499999998
  2.5931484999999999  3.8897227499999998  0.0000000000000000
  2.5931484999999999  1.2965742499999999  0.0000000000000000
  0.0000000000000000  0.0000000000000000  0.0000000000000000
  2.5931484999999999  2.5931484999999999  2.5931484999999999
