Sr Ti N 
 1.0000000000000000
     3.8876309999999998    0.0000000000000000    0.0000000000000000
     0.0000000000000000    3.8876309999999998    0.0000000000000000
     0.0000000000000000    0.0000000000000000    7.7104309999999998
 Sr  Ti  N  
   2   2   4
Cartesian
  2.9157232500000001  2.9157232500000001  1.2471313725260000
  0.9719077500000000  0.9719077500000000  6.4632996274740000
  0.9719077500000000  0.9719077500000000  3.1874459128139998
  2.9157232500000001  2.9157232500000001  4.5229850871860000
  2.9157232500000001  2.9157232500000001  6.3549063884760004
  0.9719077500000000  0.9719077500000000  1.3555246115239998
  2.9157232500000001  0.9719077500000000  3.8552154999999999
  0.9719077500000000  2.9157232500000001  3.8552154999999999
