Mg Ga Rh
 1.0000000000000000
     0.0000080000000000    3.0281590000000000    3.0281590000000000
     3.0281590000000000    0.0000080000000000    3.0281590000000000
     3.0281590000000000    3.0281590000000000    0.0000080000000000
 Mg  Ga  Rh 
   1   1   2
Cartesian
  4.5422384436740000  4.5422384436740000  4.5422384436740000
  1.5140754436740000  1.5140754436740000  1.5140754436740000
  0.0000060563260000  0.0000060563260000  0.0000060563260000
  3.0281630000000002  3.0281630000000002  3.0281630000000002
