Li Ga Au
 1.0000000000000000
     0.0000000000000000    3.1369240000000000    3.1369240000000000
     3.1369240000000000    0.0000000000000000    3.1369240000000000
     3.1369240000000000    3.1369240000000000    0.0000000000000000
 Li  Ga  Au 
   1   1   2
Cartesian
  4.7053859999999998  4.7053859999999998  4.7053859999999998
  1.5684620000000000  1.5684620000000000  1.5684620000000000
  3.1369240000000000  3.1369240000000000  3.1369240000000000
  0.0000000000000000  0.0000000000000000  0.0000000000000000
