Ti Fe
 1.0000000000000000
     4.7860719999999999    0.0000000000000000    0.0000000000000000
    -2.3930359999999999    4.1448590000000003    0.0000000000000000
     0.0000000000000000    0.0000000000000000    7.7726740000000003
 Ti  Fe 
   4   8
Cartesian
 -0.0000023930360000  2.7632407149530001  3.4029932673100003
  2.3930383930360000  1.3816182850470000  7.2893302673099996
  2.3930383930360000  1.3816182850470000  4.3696807326900009
 -0.0000023930360000  2.7632407149530001  0.4833437326900000
  1.1766893037040000  3.4426038293480001  5.8295054999999998
  1.2163466962960001  0.7022551706520000  1.9431685000000001
  3.5697300897759998  0.7022551706520000  1.9431685000000001
 -0.0000023930360000  1.4045144861630001  5.8295054999999998
 -1.1766940897759999  3.4426038293480001  5.8295054999999998
  2.3930383930360000  2.7403445138370004  1.9431685000000001
  0.0000000000000000  0.0000000000000000  3.8863370000000002
  0.0000000000000000  0.0000000000000000  0.0000000000000000
