Ca Mg Sn
 1.0000000000000000
     4.7209870000000000    0.0000000000000000    0.0000000000000000
     0.0000000000000000    7.8899530000000002    0.0000000000000000
     0.0000000000000000    0.0000000000000000    8.8157420000000002
 Ca  Mg  Sn 
   4   4   4
Cartesian
  3.5407402499999998  3.7921086606250003  2.7906231301000002
  3.5407402499999998  7.7370851606250000  1.6172478699000001
  1.1802467500000000  4.0978443393750004  6.0251188699000000
  1.1802467500000000  0.1528678393750000  7.1984941301000003
  3.5407402499999998  6.7546834427359999  4.9592956620999997
  1.1802467500000000  1.1352695572639999  3.8564463379000000
  1.1802467500000000  5.0802460572640005  0.5514246621000000
  3.5407402499999998  2.8097069427359997  8.2643173378999997
  3.5407402499999998  5.7977504931310007  7.7877912198320001
  1.1802467500000000  2.0922025068690000  1.0279507801680001
  3.5407402499999998  1.8527739931310001  5.4358217801680002
  1.1802467500000000  6.0371790068689997  3.3799202198320004
