Li P 
 1.0000000000000000
     7.6193629999999999    0.0000000000000000    0.0000000000000000
     0.0000000000000000    9.7984430000000007    0.0000000000000000
     0.0000000000000000    0.0000000000000000   10.4870880000000000
 Li  P  
  12  28
Cartesian
  6.4693649230469994  3.0166172510810001  8.5585439780639998
  2.6596834230469999  1.8826042489190000  1.9285440219359999
  1.1499980769530000  7.9158387510810009  7.1720880219360001
  4.9596795769530004  6.7818257489190001  3.3149999780640003
  4.3231656112960000  0.2413552479760000  0.1498500004320000
  0.5134841112959999  4.6578662520240002 10.3372379995679999
  3.2961973887039999  5.1405767479760005  5.0936939995680000
  7.1058788887039999  9.5570877520240014  5.3933940004320000
  3.0746110739379997  2.9624122644050006  7.2626650009919995
  6.8842925739380005  1.9368092355950002  3.2244125119199998
  4.5447519260619993  7.8616337644050009  8.4679669990080004
  0.7350704260620000  6.8360307355950001  2.0191314880800002
  2.1596398680830000  8.5670824666329999  3.3529737237120001
  5.9693213680830004  6.1305820333670011  7.1341142762879999
  5.4597231319169994  3.6678609666330004  1.8905702762879999
  1.6500416319169999  1.2313605333670001  8.5965177237119992
  4.8591497015309999  0.4675131108590000  4.0784494973759999
  1.0494682015310000  4.4317083891409998  6.4086385026240000
  2.7602132984690000  5.3667346108590008  1.1650945026240001
  6.5698947984689999  9.3309298891410002  9.3219934973759990
  4.0741419703670001  9.2373547584910014  5.9417848061280001
  0.2644604703670000  5.4603097415089996  4.5453031938719999
  3.5452210296330002  4.3381332584910002  9.7888471938719999
  7.3549025296329997  0.5610882415090001  0.6982408061280000
  3.1030998721950001  1.3023894466740003  5.2044900842879995
  6.9127813721950000  3.5968320533260005  5.2825979157119995
  4.5162631278049998  6.2016109466740001  0.0390539157120000
  0.7065816278050000  8.4960535533260000 10.4480340842880004
  2.3898132049499998  9.1000001845170004  9.2563233523199990
  6.1994947049500002  5.5976643154830006  1.2307646476800000
  5.2295497950499996  4.2007786845170001  6.4743086476800000
  1.4198682950499999  0.6984428154830000  4.0127793523199999
  0.9550033390570001  2.1476815273979999 10.4430002820480006
  4.7646848390569998  2.7515399726020005  0.0440877179520000
  6.6643596609430000  7.0469030273980007  5.2876317179520003
  2.8546781609430001  7.6507614726020003  5.1994667691359995
  7.3586360175029997  0.6897809918710001  7.7037728964480001
  3.5489545175030002  4.2094405081290001  2.7833151035519998
  0.2607269824970000  5.5890024918710006  8.0268591035519989
  4.0704084824970002  9.1086620081290004  2.4602288964480001
