Ta P 
 1.0000000000000000
     3.4084180000000002    0.0000000000000000    0.0000000000000000
     0.0000000000000000   11.5784880000000001    0.0000000000000000
     0.0000000000000000    0.0000000000000000   14.4458009999999994
 Ta  P  
  24  12
Cartesian
  0.0000000000000000  5.4468333743760002  5.6363759593739999
  0.0000000000000000  6.1316546256239999  8.8094250406259995
  1.7042090000000001 11.2360773743760003  1.5865245406259998
  1.7042090000000001  0.3424106256240000 12.8592764593739997
  0.0000000000000000  9.3151946366880001  2.9643217026029998
  0.0000000000000000  2.2632933633120000 11.4814792973969997
  1.7042090000000001  3.5259506366880005  4.2585787973969991
  1.7042090000000001  8.0525373633120001 10.1872222026029995
  0.0000000000000000 10.1719101207840001  6.1038131881320004
  0.0000000000000000  1.4065778792160002  8.3419878118680000
  1.7042090000000001  4.3826661207840001  1.1190873118679998
  1.7042090000000001  7.1958218792160000 13.3267136881319992
  1.7042090000000001 10.5593610647279998  8.3764699388549992
  1.7042090000000001  1.0191269352720000  6.0693166153440004
  0.0000000000000000  4.7701170647279998 13.2922315611449999
  0.0000000000000000  6.8083709352719994  1.1535838846559998
  1.7042090000000001  4.8743002997520000 10.9025493765209998
  1.7042090000000001  6.7041877002480001  3.5432516234789997
  0.0000000000000000 10.6635442997519991 10.7661521234789994
  0.0000000000000000  0.9149437002480000  3.6796488765209996
  1.7042090000000001  4.0404754864320003  7.5550672481939989
  1.7042090000000001  7.5380125135679998  6.8907337518059997
  0.0000000000000000  9.8297194864320012 14.1136342518059994
  0.0000000000000000  1.7487685135680000  0.3321667481940000
  1.7042090000000001  9.4377066182159997 12.2540551806779998
  1.7042090000000001  2.1407813817840000  2.1917458193219996
  0.0000000000000000  3.6484626182160005  9.4146463193219994
  0.0000000000000000  7.9300253817839996  5.0311546806779992
  1.7042090000000001  2.9501176929840001 13.2400388821319996
  1.7042090000000001  8.6283703070159987  1.2057621178680000
  0.0000000000000000  8.7393616929840015  8.4286626178679995
  0.0000000000000000  2.8391263070160000  6.0171383821319999
  1.7042090000000001  0.8870627011440000 10.1842897049999994
  1.7042090000000001 10.6914137203680006  4.2615112950000000
  0.0000000000000000  6.6763182796319995 11.4844117949999998
  0.0000000000000000  4.9021812988560001  2.9613892049999997
