Sc B  C 
 1.0000000000000000
     3.2015549999999999    0.0000000000000000   -0.9523980000000000
    -0.2833190000000000    3.1889930000000000   -0.9523980000000000
    -0.0068950000000000   -0.0075350000000000    5.8341510000000003
 Sc  B   C  
   2   1   2
Cartesian
  1.9014941771550000  2.0779167196649997  0.5346757647090000
  1.0098468228450002  1.1035412803350000  3.3946792352910005
  0.0000000000000000  0.0000000000000000  0.0000000000000000
  2.5091681574820002  2.7419712149659996  2.5774335194940003
  0.4021728425180000  0.4394867850340000  1.3519214805060003
