Zr Sn Pt
 1.0000000000000000
     3.9075229999999999    0.0000000000000000    2.2560099999999998
     1.3025080000000000    3.6840459999999999    2.2560099999999998
     0.0000000000000000    0.0000000000000000    4.5120180000000003
 Zr  Sn  Pt 
   1   1   1
Cartesian
  2.6050154999999999  1.8420230000000000  4.5120190000000004
  0.0000000000000000  0.0000000000000000  0.0000000000000000
  1.3025077500000000  0.9210115000000000  2.2560095000000002
