Np O 
 1.0000000000000000
     3.3208679999999999    0.0000000000000000    1.9173050000000000
     1.1069560000000001    3.1309429999999998    1.9173050000000000
     0.0000000000000000    0.0000000000000000    3.8346079999999998
 Np  O  
   1   2
Cartesian
  0.0000000000000000  0.0000000000000000  0.0000000000000000
  3.3208679999999999  2.3482072499999997  5.7519134999999997
  1.1069560000000001  0.7827357500000000  1.9173045000000000
