Ca V  N 
 1.0000000000000000
     5.0633470000000003    0.0000000000000000    0.0000000000000000
     0.0000000000000000    6.5784520000000004   -1.2945230000000001
     0.0000000000000000   -0.0058040000000000    6.7046089999999996
 Ca  V   N  
   6   2   6
Cartesian
  3.7975102500000002  5.4523060687960001  2.9393354438629999
  1.2658367500000001  1.1203419312040002  2.4707505561369998
  1.2658367500000001  0.7069153749760000  5.8387349575279996
  3.7975102500000002  5.8657326250240001 -0.4286489575280001
  1.2658367500000001  3.9326136942040004  4.7855911033869996
  3.7975102500000002  2.6400343057960001  0.6244948966130000
  1.2658367500000001  4.5850421589760000  1.1272462095279998
  3.7975102500000002  1.9876058410240003  4.2828397904719999
  3.7975102500000002  3.7393161906240002  4.7433412104559993
  1.2658367500000001  2.8333318093760003  0.6667447895439997
  3.7975102500000002  0.8309232524800001  5.6880793054399996
  1.2658367500000001  5.7417247475200002 -0.2779933054400001
  3.7975102500000002  1.1989614480320001  2.6523213311120002
  1.2658367500000001  5.3736865519680004  2.7577646688879995
