Fe Si Tc
 1.0000000000000000
     0.0000000000000000    2.9524029999999999    2.9524029999999999
     2.9524029999999999    0.0000000000000000    2.9524029999999999
     2.9524029999999999    2.9524029999999999    0.0000000000000000
 Fe  Si  Tc 
   1   1   2
Cartesian
  2.9524029999999999  2.9524029999999999  2.9524029999999999
  0.0000000000000000  0.0000000000000000  0.0000000000000000
  1.4762014999999999  1.4762014999999999  1.4762014999999999
  4.4286044999999996  4.4286044999999996  4.4286044999999996
