Mg Rh
 1.0000000000000000
     2.7570720000000000    0.0000000000000000    0.0000000000000000
     1.3785369999999999   -2.3569010000000001    4.3560290000000004
     0.0000000000000000   -4.7138039999999997    0.0000000000000000
 Mg  Rh 
   1   3
Cartesian
  2.7570738785369997 -1.5754305745650001  2.1780188560290004
  2.7570720079119999 -0.0258033551840000  0.0344649014480000
  2.7570785062340000 -4.7396110848099999  4.3215728106100002
  1.3785378785369999 -3.8723871290970000  2.1780188560290004
