Lu Fe B 
 1.0000000000000000
     8.7004470000000005    0.0000000000000000    0.0000000000000000
     0.0000000000000000    8.7004470000000005    0.0000000000000000
     0.0000000000000000    0.0000000000000000   11.7748179999999998
 Lu  Fe  B  
   8  56   4
Cartesian
  7.4522808733800003  1.2481661266200001  0.0000000000000000
  3.1020573733800005  3.1020573733800005  5.8874089999999999
  5.5983896266200004  5.5983896266200004  5.8874089999999999
  1.2481661266200001  7.4522808733800003  0.0000000000000000
  6.3861280980000004  6.3861280980000004  0.0000000000000000
  6.6645424020000004  2.0359045980000001  5.8874089999999999
  2.0359045980000001  6.6645424020000004  5.8874089999999999
  2.3143189020000001  2.3143189020000001  0.0000000000000000
  3.1146295192950002  0.3243613646070000  2.0464044943099999
  5.5858174807050007  8.3760856353930002  2.0464044943099999
  0.3243613646070000  3.1146295192950002  9.7284135056899999
  4.6745848646070005  1.2355939807050000  7.9338134943099998
  4.0258621353930000  7.4648530192950000  7.9338134943099998
  1.2355939807050000  4.6745848646070005  3.8410045056900004
  7.4648530192950000  4.0258621353930000  3.8410045056900004
  8.3760856353930002  5.5858174807050007  9.7284135056899999
  5.5858174807050007  8.3760856353930002  9.7284135056899999
  3.1146295192950002  0.3243613646070000  9.7284135056899999
  8.3760856353930002  5.5858174807050007  2.0464044943099999
  4.0258621353930000  7.4648530192950000  3.8410045056900004
  4.6745848646070005  1.2355939807050000  3.8410045056900004
  7.4648530192950000  4.0258621353930000  7.9338134943099998
  1.2355939807050000  4.6745848646070005  7.9338134943099998
  0.3243613646070000  3.1146295192950002  2.0464044943099999
  4.9213730437620002  1.9512492486900002  1.4788700415280001
  3.7790739562380002  6.7491977513100005  1.4788700415280001
  1.9512492486900002  4.9213730437620002 10.2959479584719986
  6.3014727486900002  8.1292974562380014  7.3662790415280002
  2.3989742513099999  0.5711495437620000  7.3662790415280002
  8.1292974562380014  6.3014727486900002  4.4085389584720005
  0.5711495437620000  2.3989742513099999  4.4085389584720005
  6.7491977513100005  3.7790739562380002 10.2959479584719986
  3.7790739562380002  6.7491977513100005 10.2959479584719986
  4.9213730437620002  1.9512492486900002 10.2959479584719986
  6.7491977513100005  3.7790739562380002  1.4788700415280001
  2.3989742513099999  0.5711495437620000  4.4085389584720005
  6.3014727486900002  8.1292974562380014  4.4085389584720005
  0.5711495437620000  2.3989742513099999  7.3662790415280002
  8.1292974562380014  6.3014727486900002  7.3662790415280002
  1.9512492486900002  4.9213730437620002  1.4788700415280001
  5.9442758971050003  5.9442758971050003  8.8783540698159999
  2.7561711028950002  2.7561711028950002  8.8783540698159999
  5.9442758971050003  5.9442758971050003  2.8964639301840003
  1.5940523971050000  7.1063946028950005  2.9909450698160001
  7.1063946028950005  1.5940523971050000  2.9909450698160001
  7.1063946028950005  1.5940523971050000  8.7838729301839997
  1.5940523971050000  7.1063946028950005  8.7838729301839997
  2.7561711028950002  2.7561711028950002  2.8964639301840003
  7.8576346991100001  7.8576346991100001  9.4424149512879989
  0.8428123008900000  0.8428123008900000  9.4424149512879989
  7.8576346991100001  7.8576346991100001  2.3324030487120000
  3.5074111991099999  5.1930358008900006  3.5550059512880003
  5.1930358008900006  3.5074111991099999  3.5550059512880003
  5.1930358008900006  3.5074111991099999  8.2198120487120008
  3.5074111991099999  5.1930358008900006  8.2198120487120008
  0.8428123008900000  0.8428123008900000  2.3324030487120000
  0.0000000000000000  0.0000000000000000  4.5195401677579996
  4.3502235000000002  4.3502235000000002 10.4069491677580004
  4.3502235000000002  4.3502235000000002  1.3678688322419998
  0.0000000000000000  0.0000000000000000  7.2552778322419993
  4.3502235000000002  0.0000000000000000  0.0000000000000000
  4.3502235000000002  0.0000000000000000  5.8874089999999999
  0.0000000000000000  4.3502235000000002  5.8874089999999999
  0.0000000000000000  4.3502235000000002  0.0000000000000000
  5.4412769546940005  3.2591700453060000  0.0000000000000000
  1.0910534546940003  1.0910534546940003  5.8874089999999999
  7.6093935453060002  7.6093935453060002  5.8874089999999999
  3.2591700453060000  5.4412769546940005  0.0000000000000000
