Sm Cd Au
 1.0000000000000000
     0.0000000000000000    3.5088879999999998    3.5088879999999998
     3.5088879999999998    0.0000000000000000    3.5088879999999998
     3.5088879999999998    3.5088879999999998    0.0000000000000000
 Sm  Cd  Au 
   1   1   2
Cartesian
  5.2633320000000001  5.2633320000000001  5.2633320000000001
  1.7544439999999999  1.7544439999999999  1.7544439999999999
  3.5088950177760001  3.5088950177760001  3.5088950177760001
  0.0000000000000000  0.0000000000000000  0.0000000000000000
