Ca Cd Hg
 1.0000000000000000
     0.0000000000000000    3.6269979999999999    3.6269979999999999
     3.6269979999999999    0.0000000000000000    3.6269979999999999
     3.6269979999999999    3.6269979999999999    0.0000000000000000
 Ca  Cd  Hg 
   1   1   2
Cartesian
  1.8134917460039999  1.8134917460039999  1.8134917460039999
  5.4404969999999997  5.4404969999999997  5.4404969999999997
  0.0000000000000000  0.0000000000000000  0.0000000000000000
  3.6269979999999999  3.6269979999999999  3.6269979999999999
