Ga N 
 1.0000000000000000
     3.2149009999999998    0.0000000000000000    0.0000000000000000
    -1.6074500000000000    2.7841860000000000    0.0000000000000000
     0.0000000000000000    0.0000000000000000    5.2377989999999999
 Ga  N  
   2   2
Cartesian
 -0.0000012741170001  1.8561249280620000  2.6234878119239999
  1.6074522741169999  0.9280610719380000  0.0045883119240000
 -0.0000012741170001  1.8561249280620000  0.6501365630760000
  1.6074522741169999  0.9280610719380000  3.2690360630759998
