Mn Sb Ir
 1.0000000000000000
     6.1169089999999997    0.0000000000000000    0.0000000000000000
     0.0000000000000000    6.1169089999999997    0.0000000000000000
     0.0000000000000000    0.0000000000000000    6.1169089999999997
 Mn  Sb  Ir 
   4   4   4
Cartesian
  3.0584544999999999  0.0000000000000000  0.0000000000000000
  3.0584544999999999  3.0584544999999999  3.0584544999999999
  0.0000000000000000  0.0000000000000000  3.0584544999999999
  0.0000000000000000  3.0584544999999999  0.0000000000000000
  0.0000000000000000  0.0000000000000000  0.0000000000000000
  0.0000000000000000  3.0584544999999999  3.0584544999999999
  3.0584544999999999  0.0000000000000000  3.0584544999999999
  3.0584544999999999  3.0584544999999999  0.0000000000000000
  1.5292272499999999  4.5876817499999998  4.5876817499999998
  1.5292272499999999  1.5292272499999999  1.5292272499999999
  4.5876817499999998  4.5876817499999998  1.5292272499999999
  4.5876817499999998  1.5292272499999999  4.5876817499999998
