Pm Pd Ru
 1.0000000000000000
     0.0000000000000000    3.5230060000000001    3.5230060000000001
     3.5230060000000001    0.0000000000000000    3.5230060000000001
     3.5230060000000001    3.5230060000000001    0.0000000000000000
 Pm  Pd  Ru 
   2   1   1
Cartesian
  0.0000000000000000  0.0000000000000000  0.0000000000000000
  3.5230060000000001  3.5230060000000001  3.5230060000000001
  1.7615100460119999  1.7615100460119999  1.7615100460119999
  5.2845089999999999  5.2845089999999999  5.2845089999999999
