Ba Pt
 1.0000000000000000
     5.5919840000000001    0.0000000000000000    0.0000000000000000
    -2.7959920000000000    4.8428009999999997    0.0000000000000000
     0.0000000000000000    0.0000000000000000    4.3191369999999996
 Ba  Pt 
   1   5
Cartesian
  0.0000000000000000  0.0000000000000000  0.0000000000000000
 -0.0000027959920000  3.2285356142669999  0.0000000000000000
  2.7959947959920002  1.6142653857329998  0.0000000000000000
  2.7959920000000000  0.0000000000000000  2.1595684999999998
  1.3979960000000000  2.4214004999999998  2.1595684999999998
 -1.3979960000000000  2.4214004999999998  2.1595684999999998
