Sc Fe Si
 1.0000000000000000
     4.0539560000000003    0.0000000000000000    0.0000000000000000
     0.0000000000000000    6.5419049999999999    0.0000000000000000
     0.0000000000000000    0.0000000000000000    6.6653469999999997
 Sc  Fe  Si 
   4   4   4
Cartesian
  3.0404670000000005  3.3542505763649997  1.2743810196650001
  1.0134890000000001  6.4586069236350001  4.6070545196649997
  3.0404670000000005  0.0832980763650000  2.0582924803350000
  1.0134890000000001  3.1876544236350002  5.3909659803349994
  1.0134890000000001  4.2720405964349997  2.9193353364890000
  1.0134890000000001  1.0010880964350000  0.4133381635109999
  3.0404670000000005  5.5408169035650001  6.2520088364889999
  3.0404670000000005  2.2698644035649997  3.7460116635109997
  1.0134890000000001  5.2278390845549998  0.7192375987289999
  1.0134890000000001  1.9568865845549999  2.6134359012710000
  3.0404670000000005  1.3140659154449998  5.9461094012710003
  3.0404670000000005  4.5850184154450000  4.0519110987289997
