Hf Zn
 1.0000000000000000
     5.7652219999999996    0.0000320000000000    0.0000000000000000
    -2.8825820000000002    4.9928340000000002   -0.0000010000000000
     0.0000000000000000   -0.0000010000000000    4.3389179999999996
 Hf  Zn 
   2   6
Cartesian
  0.0000250985939995  3.3285725738320004  3.2541878333319998
  2.8826206666279992  1.6642924262000001  1.0847291666679999
  0.0000178648159998  1.5868622869980002  1.0847291821729999
  1.5083938363799996  4.1994193644899998  1.0847286589149998
 -1.5083479359740000  4.1994175985439997  1.0847286589120000
  2.8826279004059994  3.4060027130340003  3.2541878178269998
  1.3742519288419996  0.7934456355420001  3.2541883410849999
  4.3909937011959999  0.7934474014880001  3.2541883410879997
