Pr Ni C 
 1.0000000000000000
     3.9093890000000000    0.0000000000000000    0.0000000000000000
     0.0000000000000000    3.6328550000000002   -1.1126810000000000
     0.0000000000000000   -0.0002040000000000    3.7994349999999999
 Pr  Ni  C  
   1   1   2
Cartesian
  0.0000000000000000  0.0086207003110000  3.7875034702360000
  1.9546945000000000  2.2300727911560001  0.7839655814559999
  1.9546945000000000  1.6513996022150002  2.7082268978239998
  1.9546945000000000  0.5595845482590001  1.9007068625999997
