Ce S 
 1.0000000000000000
     3.4802480000000000    0.0000000000000000    2.0093220000000001
     1.1600830000000000    3.2812079999999999    2.0093220000000001
     0.0000000000000000    0.0000000000000000    4.0186430000000000
 Ce  S  
   1   1
Cartesian
  0.0000000000000000  0.0000000000000000  0.0000000000000000
  2.3201654999999999  1.6406040000000000  4.0186434999999996
