Mg Ag Au
 1.0000000000000000
     0.0000000000000000    3.2746689999999998    3.2746689999999998
     3.2746689999999998    0.0000000000000000    3.2746689999999998
     3.2746689999999998    3.2746689999999998    0.0000000000000000
 Mg  Ag  Au 
   2   1   1
Cartesian
  0.0000000000000000  0.0000000000000000  0.0000000000000000
  3.2746689999999998  3.2746689999999998  3.2746689999999998
  1.6373279506620000  1.6373279506620000  1.6373279506620000
  4.9119969506619992  4.9119969506619992  4.9119969506619992
