Pr Mg Rh
 1.0000000000000000
     4.1651460000000000    0.0000000000000000    0.0000000000000000
     0.0000000000000000    7.2744220000000004    0.0000000000000000
     0.0000000000000000    0.0000000000000000    8.7418840000000007
 Pr  Mg  Rh 
   4   4   4
Cartesian
  1.0412865000000000  3.9170871120280002  7.1732403350400000
  3.1238595000000000  3.3573348879720002  1.5686436649600000
  1.0412865000000000  0.2798761120280000  5.9395856649600010
  3.1238595000000000  6.9945458879720004  2.8022983350400001
  1.0412865000000000  4.6022503713639997  3.8796918286200004
  3.1238595000000000  2.6721716286360002  4.8621921713800003
  1.0412865000000000  0.9650393713640001  0.4912501713800000
  3.1238595000000000  6.3093826286360004  8.2506338286199998
  3.1238595000000000  5.4340296061100002  5.4720959342920006
  1.0412865000000000  1.8403923938900002  3.2697880657080005
  3.1238595000000000  1.7968186061100002  7.6407300657080004
  1.0412865000000000  5.4776033938899999  1.1011539342920000
