Al Tc
 1.0000000000000000
     7.5332460000000001    0.0000000000000000    0.0000000000000000
     0.0000000000000000    7.5332460000000001    0.0000000000000000
     0.0000000000000000    0.0000000000000000    7.5332460000000001
 Al  Tc 
  24   2
Cartesian
  6.1214780333699998  5.2121097757259998  0.0000000000000000
  5.2121097757259998  0.0000000000000000  6.1214780333699998
  0.0000000000000000  6.1214780333699998  5.2121097757259998
  2.3211362242739999  0.0000000000000000  6.1214780333699998
  0.0000000000000000  1.4117679666300000  2.3211362242739999
  2.3211362242739999  0.0000000000000000  1.4117679666300000
  0.0000000000000000  1.4117679666300000  5.2121097757259998
  0.0000000000000000  6.1214780333699998  2.3211362242739999
  5.2121097757259998  0.0000000000000000  1.4117679666300000
  1.4117679666300000  5.2121097757259998  0.0000000000000000
  6.1214780333699998  2.3211362242739999  0.0000000000000000
  1.4117679666300000  2.3211362242739999  0.0000000000000000
  2.3548550333700002  1.4454867757259999  3.7666230000000001
  1.4454867757259999  3.7666230000000001  2.3548550333700002
  3.7666230000000001  2.3548550333700002  1.4454867757259999
  6.0877592242740004  3.7666230000000001  2.3548550333700002
  3.7666230000000001  5.1783909666300003  6.0877592242740004
  6.0877592242740004  3.7666230000000001  5.1783909666300003
  3.7666230000000001  5.1783909666300003  1.4454867757259999
  3.7666230000000001  2.3548550333700002  6.0877592242740004
  1.4454867757259999  3.7666230000000001  5.1783909666300003
  5.1783909666300003  1.4454867757259999  3.7666230000000001
  2.3548550333700002  6.0877592242740004  3.7666230000000001
  5.1783909666300003  6.0877592242740004  3.7666230000000001
  0.0000000000000000  0.0000000000000000  0.0000000000000000
  3.7666230000000001  3.7666230000000001  3.7666230000000001
