Li Hg Pd
 1.0000000000000000
     0.0000000000000000    3.1703630000000000    3.1703630000000000
     3.1703630000000000    0.0000000000000000    3.1703630000000000
     3.1703630000000000    3.1703630000000000    0.0000000000000000
 Li  Hg  Pd 
   1   1   2
Cartesian
  4.7555381592739998  4.7555381592739998  4.7555381592739998
  1.5851878407259998  1.5851878407259998  1.5851878407259998
  0.0000000000000000  0.0000000000000000  0.0000000000000000
  3.1703630000000000  3.1703630000000000  3.1703630000000000
