Li Ag Ge
 1.0000000000000000
     3.8936370000000000    0.0000000000000000    2.2479930000000001
     1.2978790000000000    3.6709570000000000    2.2479930000000001
     0.0000000000000000    0.0000000000000000    4.4959860000000003
 Li  Ag  Ge 
   1   2   1
Cartesian
  2.5957580000000000  1.8354785000000000  4.4959860000000003
  1.2978790000000000  0.9177392500000000  2.2479930000000001
  3.8936370000000000  2.7532177500000001  6.7439790000000004
  0.0000000000000000  0.0000000000000000  0.0000000000000000
