Ca Mg Si
 1.0000000000000000
     4.4309159999999999    0.0000000000000000    0.0000000000000000
     0.0000000000000000    7.4765230000000003    0.0000000000000000
     0.0000000000000000    0.0000000000000000    8.3208300000000008
 Ca  Mg  Si 
   4   4   4
Cartesian
  1.1077290000000000  0.1464351794780000  6.8215329256200015
  3.3231869999999999  7.3300878205220004  1.4992970743800003
  1.1077290000000000  3.8846966794780000  5.6597120743799998
  3.3231869999999999  3.5918263205220002  2.6611179256200002
  3.3231869999999999  6.4018625370260001  4.6855176188100005
  1.1077290000000000  4.8129219629740003  0.5251026188100000
  3.3231869999999999  2.6636010370260004  7.7957273811900007
  1.1077290000000000  1.0746604629740000  3.6353123811900003
  1.1077290000000000  2.0183172899420003  0.9629446934100001
  3.3231869999999999  1.7199442100580000  5.1233596934100003
  1.1077290000000000  5.7565787899420000  3.1974703065900001
  3.3231869999999999  5.4582057100580004  7.3578853065900010
