Li In Ir
 1.0000000000000000
     3.9709780000000001    0.0000000000000000    2.2926449999999998
     1.3236600000000001    3.7438729999999998    2.2926449999999998
     0.0000000000000000    0.0000000000000000    4.5852909999999998
 Li  In  Ir 
   1   2   1
Cartesian
  2.6473190000000000  1.8719364999999999  4.5852904999999993
  3.9709785000000002  2.8079047499999996  6.8779357499999989
  1.3236595000000000  0.9359682499999999  2.2926452499999996
  0.0000000000000000  0.0000000000000000  0.0000000000000000
