Zr Cu Ge
 1.0000000000000000
     6.4049589999999998    0.0000000000000000    0.0000000000000000
    -3.2024800000000000    5.5468570000000001    0.0000000000000000
     0.0000000000000000    0.0000000000000000    4.0045219999999997
 Zr  Cu  Ge 
   3   4   2
Cartesian
 -1.8942445026400001  3.2809270875010004  2.0022609999999998
  1.3082350888529999  2.2659299124990002  2.0022609999999998
  3.7884884137870003  0.0000000000000000  2.0022609999999998
  0.0000000000000000  0.0000000000000000  2.0022609999999998
  1.5284986306369999  0.0000000000000000  0.0000000000000000
  2.4382298040029995  4.2231384049490002  0.0000000000000000
 -0.7642494346399999  1.3237185950510000  0.0000000000000000
  3.2024825358130005  1.8489504843810001  0.0000000000000000
 -0.0000035358130001  3.6979065156190001  0.0000000000000000
