Ti Ga
 1.0000000000000000
     3.9540860000000002    0.0000000000000000    0.0000000000000000
     0.0000000000000000    3.9540860000000002    0.0000000000000000
     0.0000000000000000    0.0000000000000000    3.9528880000000002
 Ti  Ga 
   2   2
Cartesian
  1.9770430000000001  0.0000000000000000  1.9764440000000001
  0.0000000000000000  1.9770430000000001  1.9764440000000001
  1.9770430000000001  1.9770430000000001  0.0000000000000000
  0.0000000000000000  0.0000000000000000  0.0000000000000000
