Tb Nb O 
 1.0000000000000000
     4.7847260000000000    0.0239410000000000   -1.8296730000000001
    -1.1988460000000001    4.7816799999999997   -2.0157780000000001
    -0.0282820000000000   -0.0009040000000000    6.5708060000000001
 Tb  Nb  O  
   2   2   8
Cartesian
  4.0281701579380007  0.6351252473139999  3.1080554284720003
 -0.4705721579380000  4.1695917526860002 -0.3827004284719999
  0.9630337365199999  2.9137502190169999  2.8213816109689995
  2.5945642634800001  1.8909667809830000 -0.0960266109690000
  1.2297114420620001  0.6159055279780000 -0.2786240095320002
  3.2281391250659999  2.1697445415250001 -1.8406318085650000
  2.3278865296559998  4.1888114711179991  3.0039855803380000
  0.3294588466519999  2.6349724575710001  4.5659933793710001
  1.5741801777880000  3.4346311900009998  0.4900198548570001
  4.1513825470140002  1.0768691919910001  0.7297530861770001
  1.9834178222120000  1.3700858099989999  2.2353351451429999
 -0.5937845470140002  3.7278478080089998  1.9956019138229999
