Hf Co
 1.0000000000000000
     3.1575180000000000    0.0000000000000000    0.0000000000000000
     0.0000000000000000    3.1575180000000000    0.0000000000000000
     0.0000000000000000    0.0000000000000000    3.1575180000000000
 Hf  Co 
   1   1
Cartesian
  0.0000000000000000  0.0000000000000000  0.0000000000000000
  1.5787590000000000  1.5787590000000000  1.5787590000000000
