Ba Au
 1.0000000000000000
     4.9741759999999999    0.0000000000000000    0.0000000000000000
     0.0000000000000000    6.4687780000000004    0.0000000000000000
     0.0000000000000000    0.0000000000000000    8.4469840000000005
 Ba  Au 
   4   4
Cartesian
  1.2435440000000000  5.5638671143579996  5.7800684235839999
  1.2435440000000000  4.1392998856420009  1.5565764235840001
  3.7306319999999999  0.9049108856420002  2.6669155764160002
  3.7306319999999999  2.3294781143580003  6.8904075764160009
  1.2435440000000000  2.3595773383920000  4.5370187051280002
  3.7306319999999999  5.5939663383919997  8.1334572948720005
  1.2435440000000000  0.8748116616080001  0.3135267051280000
  3.7306319999999999  4.1092006616080008  3.9099737418560006
