Pm Si Hg
 1.0000000000000000
     0.0000000000000000    3.6988010000000000    3.6988010000000000
     3.6988010000000000    0.0000000000000000    3.6988010000000000
     3.6988010000000000    3.6988010000000000    0.0000000000000000
 Pm  Si  Hg 
   2   1   1
Cartesian
  0.0000000000000000  0.0000000000000000  0.0000000000000000
  3.6987936023980001  3.6987936023980001  3.6987936023980001
  5.5481941023979999  5.5481941023979999  5.5481941023979999
  1.8494005000000000  1.8494005000000000  1.8494005000000000
