Y  Si Ir
 1.0000000000000000
     4.1402190000000001    0.0000000000000000    0.0000000000000000
     0.0000000000000000    4.1402190000000001    0.0000000000000000
     0.0000000000000000    0.0000000000000000    9.8545210000000001
 Y   Si  Ir 
   2   4   4
Cartesian
  2.0701095000000000  0.0000000000000000  2.5099169351369999
  0.0000000000000000  2.0701095000000000  7.3446040648630007
  2.0701095000000000  2.0701095000000000  4.9272605000000000
  0.0000000000000000  0.0000000000000000  4.9272605000000000
  0.0000000000000000  2.0701095000000000  1.2920065392680000
  2.0701095000000000  0.0000000000000000  8.5625144607320003
  0.0000000000000000  2.0701095000000000  3.6639601804050002
  2.0701095000000000  0.0000000000000000  6.1905608195949995
  2.0701095000000000  2.0701095000000000  0.0000000000000000
  0.0000000000000000  0.0000000000000000  0.0000000000000000
