Ca Mg Si O 
 1.0000000000000000
     4.8688830000000003    0.0000000000000000    0.0000000000000000
     0.0000000000000000    6.4312709999999997    0.0000000000000000
     0.0000000000000000    0.0000000000000000   11.2235890000000005
 Ca  Mg  Si  O  
   4   4   4  16
Cartesian
  0.1014821283690000  4.8234532500000000  3.1096973570520001
  4.7674008716310006  1.6078177499999999  8.1138916429480012
  2.3329593716310000  4.8234532500000000  8.7214918570519995
  2.5359236283689999  1.6078177499999999  2.5020971429480001
  0.0000000000000000  0.0000000000000000  0.0000000000000000
  0.0000000000000000  3.2156354999999999  0.0000000000000000
  2.4344415000000001  0.0000000000000000  5.6117945000000002
  2.4344415000000001  3.2156354999999999  5.6117945000000002
  0.4348934984430000  1.6078177499999999  4.7003156137210000
  1.9995480015570002  1.6078177499999999 10.3121101137209994
  4.4339895015570008  4.8234532500000000  6.5232733862790004
  2.8693349984430001  4.8234532500000000  0.9114788862790001
  1.1099543886270000  2.9282027051970001  3.9579762136720005
  3.5443958886270002  3.5030682948029996  1.6538182863280002
  3.7589286113730003  6.1438382051969995  7.2656127863280009
  1.3244871113730001  0.2874327948030000  9.5697707136719998
  3.7589286113730003  3.5030682948029996  7.2656127863280009
  1.3244871113730001  2.9282027051970001  9.5697707136719998
  1.1099543886270000  0.2874327948030000  3.9579762136720005
  3.5443958886270002  6.1438382051969995  1.6538182863280002
  3.6402593260140006  4.8234532500000000 10.6484922996400009
  1.2058178260140000  1.6078177499999999  6.1868912003599998
  1.2286236739860001  1.6078177499999999  0.5750967003600000
  3.6630651739859998  4.8234532500000000  5.0366977996399998
  1.2352599615150002  4.8234532500000000  0.8712423197140000
  3.6697014615149999  1.6078177499999999  4.7405521802860004
  3.6336230384850006  1.6078177499999999 10.3523466802860007
  1.1991815384850000  4.8234532500000000  6.4830368197140000
