Sr Cd As
 1.0000000000000000
     4.4829699999999999    0.0000000000000000    0.0000000000000000
    -2.2414839999999998    3.8823650000000001    0.0000000000000000
     0.0000000000000000    0.0000000000000000    7.4563329999999999
 Sr  Cd  As 
   1   2   2
Cartesian
  0.0000000000000000  0.0000000000000000  0.0000000000000000
 -0.0000015748180000  2.5882446274549999  4.7110379470609995
  2.2414875748180001  1.2941203725449999  2.7452950529389999
  2.2414875748180001  1.2941203725449999  5.5858000219549995
 -0.0000015748180000  2.5882446274549999  1.8705329780450000
