Ga Cu Se
 1.0000000000000000
     5.1019519999999998    0.0000000000000000   -2.3153260000000002
    -1.0507219999999999    4.9925839999999999   -2.3153260000000002
     0.0200500000000000    0.0247080000000000    6.8230639999999996
 Ga  Cu  Se 
   2   2   4
Cartesian
  2.0256150000000002  2.4962920000000000 -2.3153260000000002
  3.5738084999999997  1.2605000000000000  1.0962059999999996
  0.0000000000000000  0.0000000000000000  0.0000000000000000
  0.4974715000000000  3.7567919999999999  1.0962059999999996
  1.5049179636320000  1.8783960000000000 -0.0219673064160002
 -0.0078956820480000  3.1577879378559999  3.3720423064159997
  3.0763931820480002  0.6237120621440000  3.3895646935839991
  3.5691445363679994  4.3746879999999999 -2.3548156935840003
