Sr Zn N 
 1.0000000000000000
     3.7106479999999999    0.0000000000000000   -1.0602689999999999
    -0.3029580000000000    3.6982599999999999   -1.0602689999999999
    -0.0179480000000000   -0.0194790000000000    6.9604470000000003
 Sr  Zn  N  
   2   1   2
Cartesian
  2.2377416055479995  2.4285511972839999  0.8082229697520004
  1.1520003944519999  1.2502298027160001  4.0316860302480002
  0.0000000000000000  0.0000000000000000  0.0000000000000000
  2.9084318936759996  3.1564302767079999  3.1554553824240008
  0.4813101063240000  0.5223507232919999  1.6844536175760003
