Li Tb Ir
 1.0000000000000000
     0.0006560000000000    3.4766520000000001    3.4766520000000001
     3.4766520000000001    0.0006560000000000    3.4766520000000001
     3.4766520000000001    3.4766520000000001    0.0006560000000000
 Li  Tb  Ir 
   1   2   1
Cartesian
  5.2154699999999998  5.2154699999999998  5.2154700000000007
  6.9537931049599999  6.9537931049599999  6.9537931049599999
  3.4771468950400002  3.4771468950400002  3.4771468950400002
  1.7384969539599999  1.7384969539599999  1.7384969539599999
