Nd Fe Si
 1.0000000000000000
     4.0485749999999996    0.0000000000000000    0.0000000000000000
     0.0000000000000000    4.0485749999999996    0.0000000000000000
     0.0000000000000000    0.0000000000000000    6.9773639999999997
 Nd  Fe  Si 
   2   2   2
Cartesian
  1.0121437499999999  1.0121437499999999  4.8196560471840000
  3.0364312499999997  3.0364312499999997  2.1577079528160001
  3.0364312499999997  1.0121437499999999  0.0000000000000000
  1.0121437499999999  3.0364312499999997  0.0000000000000000
  3.0364312499999997  3.0364312499999997  5.8740962269560004
  1.0121437499999999  1.0121437499999999  1.1032677730439999
