Sr Sn O 
 1.0000000000000000
     5.1518470000000001    0.0000000000000000    0.0000000000000000
     0.0000000000000000    5.1518470000000001    0.0000000000000000
     0.0000000000000000    0.0000000000000000    5.1518470000000001
 Sr  Sn  O  
   3   1   1
Cartesian
  2.5759235000000000  0.0000000000000000  2.5759235000000000
  0.0000000000000000  2.5759235000000000  2.5759235000000000
  2.5759235000000000  2.5759235000000000  0.0000000000000000
  0.0000000000000000  0.0000000000000000  0.0000000000000000
  2.5759235000000000  2.5759235000000000  2.5759235000000000
