Sc Mn Si
 1.0000000000000000
     6.5285380000000002    0.0000000000000000    0.0000000000000000
    -3.2642690000000001    5.6538800000000000    0.0000000000000000
     0.0000000000000000    0.0000000000000000    3.8282210000000001
 Sc  Mn  Si 
   3   3   3
Cartesian
  1.3601392855750001  2.3558304489999999  1.9141105000000000
  3.8082594288500000  0.0000000000000000  1.9141105000000000
 -1.9041297144250000  3.2980495510000001  1.9141105000000000
 -0.7500049739780000  1.2990467765600000  0.0000000000000000
  1.5000099479560001  0.0000000000000000  0.0000000000000000
  2.5142640260219999  4.3548332234400000  0.0000000000000000
  0.0000000000000000  0.0000000000000000  1.9141105000000000
  3.2642722642690001  1.8846247820399999  0.0000000000000000
 -0.0000032642690000  3.7692552179600001  0.0000000000000000
