Na Ta N 
 1.0000000000000000
     5.7036990000000003   -1.5623149999999999   -0.0078690000000000
     5.7036990000000003    1.5623149999999999   -0.0078690000000000
     5.2794489999999996    0.0000000000000000    2.6646740000000002
 Na  Ta  N  
   1   1   2
Cartesian
  8.3434235000000001  0.0000000000000000  1.3244680000000002
  0.0000000000000000  0.0000000000000000  0.0000000000000000
 12.2010721026130007  0.0000000000000001  1.9368463755440002
  4.4857748973869995 -0.0000000000000000  0.7120896244560000
