Rb Tm O 
 1.0000000000000000
     6.5596699999999997   -1.7066690000000000    0.0027780000000000
     6.5596699999999997    1.7066690000000000    0.0027780000000000
     6.1143970000000003    0.0000000000000000    2.9250880000000001
 Rb  Tm  O  
   1   1   2
Cartesian
  0.0000000000000000  0.0000000000000000  0.0000000000000000
  9.6168684999999989  0.0000000000000000  1.4653220000000000
 14.9173209761969989  0.0000000000000001  2.2729518041639998
  4.3164160238029998 -0.0000000000000000  0.6576921958360000
