Ba Al O 
 1.0000000000000000
    10.4804180000000002   -0.0000120000000000   -0.0000110000000000
    -5.2401970000000002    9.0762979999999995   -0.0000050000000000
    -0.0000100000000000   -0.0000100000000000    8.8061349999999994
 Ba  Al  O  
   8  16  32
Cartesian
 -0.0321862764130004  9.0102725798919998  6.6796631610279995
  2.6611753522470001  4.4773019824519995  2.2765980781530000
  7.7871321490780003  4.5330154698479994  2.2766014397449998
 -2.5469055989530003  4.5432512833520002  6.6796533558639988
  2.5790354773010002  4.5990101522160005  6.6796655235549993
  5.2723551842070009  0.0659850970620000  2.2766092469219998
  0.0000344704820000 -0.0000074512380000  6.5616185050209994
  5.2401818672849991  9.0762744725099989  2.1585790357889998
  5.2401129551910000  3.0254030079560001  0.4233987770640000
  0.0001020832430000  6.0508951830380004  4.8264418583799991
  5.2401508761349991  3.0253627020599998  3.9464515942419998
  0.0000456804130003  6.0508911823579998  8.3495475124249996
  5.3449855332430003  6.0979728388379995  8.3728781057779997
 -2.6085389559180001  7.6778517125120000  3.9698523504749996
  2.7132860593850006  7.4964014657100000  3.9698293624479994
  2.5269523657889996  1.5798705181739998  8.3729039025989991
  7.8487092583129998  1.3984111951079998  8.3729249453289984
 -0.1047733091000000  2.9782719162499998  3.9698111286529998
  5.3456653511380008  6.0703575489579986  4.9671494564450001
 -2.5843148598600001  7.6646949288399995  0.5641148535690000
  2.6897928105829996  7.4819922083280002  0.5641359477489999
  2.5504376288019994  1.5942784341320000  4.9671839868499994
  7.8245295786400000  1.4115847899400000  4.9671962749009992
 -0.1054453920810001  3.0059130936039997  0.5640912229500000
  5.2402209997979998  3.0253919317680000  2.1844232358539997
 -0.0000099609340004  6.0509022596560005  6.5874927357849993
  5.7392870727600007  6.1578869249599997  6.6696830522699990
 -2.4632412556849999  8.0493007304399988  2.2665779426989996
  2.9622970730820000  7.1848412392620000  2.2665908605019998
  2.2779347400559997  1.8914890706959999  6.6696563963079987
  7.7033682645910018  1.0269751219059999  6.6696517020139989
 -0.4990395391970002  2.9183435456980003  2.2666258475839998
  5.9747667360710013  4.5300471525360004  4.4296769344869995
 -0.9356766732830003  7.4394654654219998  0.0267278015150000
  1.6703614234830000  6.1670208009279994  0.0266825076390000
  3.5698440355329999  2.9092782910780000  4.4297253643159999
  6.1758926125790001  1.6367973213139999  4.4297593256859997
 -0.7345193552970000  4.5462337869480001  0.0266340699600000
  0.9878838557830000  7.4153336004779993  4.3226578720849993
  4.5524748550369996  4.5632086734919994  8.7257689609389981
  6.9157701702459997  2.8521524758860002  8.7258565212769987
 -1.6755639878380004  6.2241550116419999  4.3227413008209998
  0.6876998862050000  4.5130443564799991  4.3226879630949995
  4.2523432876369993  1.6609557346419999  8.7257638273119991
  3.2843846302310005  0.0049736730460000  4.7999213269270005
  1.6378830382060001  2.8467585072459998  0.3968082368509999
 -3.5936908586310001  6.2344451049039993  0.3968098087199999
  8.8339216780699985  2.8418440701700001  4.7998505774529994
 -3.3557386039830002  9.0489391667219987  8.6368565267730002
  0.9658831349279999  1.6182061868980000  4.2338547301589999
  6.1586235262640008  7.4307302483740001  4.2338601679750001
 -0.9184223822050001  1.6455320596199998  8.6369241762609992
  4.2743232493920011  7.4580651974220000  8.6368943895209984
  8.5959869099910016  0.0273140650060000  4.2338573683439993
  1.9558147477739993  9.0713155018839995  0.3968975697090000
  3.6023373007509996  6.2295125152160002  4.7998873738939993
