Ca N  Cl
 1.0000000000000000
     3.5313129999999999    0.0028740000000000    5.9351640000000003
     1.6343240000000001    3.1303610000000002    5.9351640000000003
     0.0047380000000000    0.0028740000000000    6.9062520000000003
 Ca  N   Cl 
   2   1   1
Cartesian
  3.9870105922499999  2.4183351887339999 14.4791090290800000
  1.1833644077500001  0.7177738112660000  4.2974709709200001
  2.5851875000000000  1.5680544999999999  9.3882900000000014
  0.0000000000000000  0.0000000000000000  0.0000000000000000
