B  H  O 
 1.0000000000000000
     6.2242170000000003    0.0909990000000000    0.0855740000000000
     1.2365349999999999    6.7871170000000003    0.0149370000000000
     1.5327729999999999    3.2309820000000000    5.9354389999999997
 B   H   O  
   4  12  12
Cartesian
  6.5776214314620001  6.2584377519750003  4.5704386050469994
  2.4159035685379999  3.8506602480250001  1.4655113949529999
  3.4629135042949999  7.1554701433180004  3.4392365327669996
  5.5306114957050010  2.9536278566820005  2.5967134672330001
  5.0604607247520006  1.7988929800170002  0.2120279583090000
  2.6079483599560001  2.3168741778060000  3.6785511816549996
  6.3855766400439995  7.7922238221939999  2.3573988183449996
  3.4203143158699998  5.9350776781149994  5.0319064675439993
  3.9330642752479998  8.3102050199830000  5.8239220416909996
  6.1294973091660001  5.5586134503600002  2.7408534888689999
  2.8640276908339999  4.5504845496400002  3.2950965111310002
  6.8627773535829997  8.2263376110010000  4.8319829352290000
  2.1307476464170003  1.8827603889989999  1.2039670647709999
  6.0134995628810000  3.6523734188249999  4.4127694873229997
  2.9800254371190000  6.4567245811750000  1.6231805126769998
  5.5732106841300002  4.1740203218850001  1.0040435324560000
  6.5035627330120001  5.0258111172389999  5.1580294577750001
  6.3650124323270001  6.3948499926830005  3.2236193005030001
  2.6285125676730003  3.7142480073169999  2.8123306994969997
  6.8470618094450009  7.3661312928129998  5.3291900160829995
  2.1464631905550000  2.7429667071869996  0.7067599839169999
  5.7098141755979999  2.8289772909409998  3.9466603622579997
  3.2837108244019997  7.2801207090590001  2.0892896377420000
  5.7089810900630003  4.1700008452050001  1.9893911434639997
  3.2845439099370002  5.9390971547949993  4.0465588565359996
  5.1897946322150004  1.8626477792100002  1.8447658269370000
  3.8037303677849996  8.2464502207899990  4.1911841730629993
  2.4899622669879999  5.0832868827609996  0.8779205422249998
