Mg Bi
 1.0000000000000000
     4.6759700000000004    0.0000000000000000    0.0000000000000000
    -2.3379859999999999    4.0495099999999997    0.0000000000000000
     0.0000000000000000    0.0000000000000000    7.4070099999999996
 Mg  Bi 
   3   2
Cartesian
 -0.0000030046519998  2.6996746831700000  4.6666755453499995
  0.0000000000000000  0.0000000000000000  0.0000000000000000
  2.3379870046520006  1.3498353168299999  2.7403344546499997
 -0.0000030046519998  2.6996746831700000  1.6520595103999998
  2.3379870046520006  1.3498353168299999  5.7549504895999997
