Tm Si Ru
 1.0000000000000000
     3.8519040000000002    0.0000000000000000   -1.5438930000000000
    -0.6188120000000000    3.8018719999999999   -1.5438930000000000
    -0.0093080000000000   -0.0109460000000000    5.5538379999999998
 Tm  Si  Ru 
   1   2   2
Cartesian
  0.0000000000000000  0.0000000000000000  0.0000000000000000
  1.1856176751040000  1.3941964723140001  2.9580377217679996
  2.0381663248960007  2.3967295276859999 -0.4919857217680003
  2.7295710000000000  0.9449950000000000  1.2330260000000000
  0.4942130000000001  2.8459310000000002  1.2330260000000000
