Li Ta Ir
 1.0000000000000000
     0.0000000000000000    3.0618200000000000    3.0618200000000000
     3.0618200000000000    0.0000000000000000    3.0618200000000000
     3.0618200000000000    3.0618200000000000    0.0000000000000000
 Li  Ta  Ir 
   1   1   2
Cartesian
  1.5309038763600000  1.5309038763600000  1.5309038763600000
  4.5927299999999995  4.5927299999999995  4.5927299999999995
  0.0000000000000000  0.0000000000000000  0.0000000000000000
  3.0618200000000000  3.0618200000000000  3.0618200000000000
