Zr In Cu
 1.0000000000000000
     3.9118110000000001   -0.0004000000000000    2.2586729999999999
     1.3035140000000001    3.6883379999999999    2.2587510000000002
     0.0000090000000000    0.0001010000000000    4.5173280000000000
 Zr  In  Cu 
   1   1   2
Cartesian
  2.6077112951400001  1.8443551438329997  4.5174256983539998
  5.2152089571759994  3.6878753120959997  4.5175211208570003
  1.3037722295590000  0.9218806574469999  2.2584960104789999
  3.9116348216480006  2.7658890750629999  6.7761159463889999
