Ta Cu S 
 1.0000000000000000
     3.5118849999999999    0.0000000000000000    0.0000000000000000
     0.0000000000000000    9.5295889999999996    0.0000000000000000
     0.0000000000000000    0.0000000000000000   11.8905309999999993
 Ta  Cu  S  
   4   4  12
Cartesian
  2.6339137500000001  5.7805915098659995  7.5124255952689998
  0.8779712500000000  3.7489974901339997  4.3781054047309995
  2.6339137500000001  1.0157970098659999 10.3233709047310001
  0.8779712500000000  8.5137919901339991  1.5671600952689999
  2.6339137500000001  7.3504674129589995  3.3958405293519998
  0.8779712500000000  6.9439160870409999  9.3411060293519981
  2.6339137500000001  2.5856729129589997  2.5494249706479999
  0.8779712500000000  2.1791215870410001  8.4946904706480009
  2.6339137500000001  0.7687328854520000  1.1723587944759999
  0.8779712500000000  8.7295418850939992  3.8404750455659995
  2.6339137500000001  0.8000471149060000  8.0500559544339989
  0.8779712500000000  3.9647473850940003  2.1047904544340001
  2.6339137500000001  6.8862620735910003  1.1745109805870000
  0.8779712500000000  2.6433269264089998 10.7160200194129995
  2.6339137500000001  2.1214675735910000  4.7707545194129999
  0.8779712500000000  7.4081214264089992  7.1197764805869994
  2.6339137500000001  5.5335273854519995  4.7729067055239991
  0.8779712500000000  3.9960616145479997  7.1176242944760002
  0.8779712500000000  8.7608561145480000 10.7181722055239987
  2.6339137500000001  5.5648416149059994  9.7857405455660000
