Sc Sn Au
 1.0000000000000000
     4.5968980000000004    0.0000000000000000    0.0000000000000000
    -2.2984490000000002    3.9810310000000002    0.0000000000000000
     0.0000000000000000    0.0000000000000000    7.1977570000000002
 Sc  Sn  Au 
   2   2   2
Cartesian
  0.0000000000000000  0.0000000000000000  6.9688755251570003
  0.0000000000000000  0.0000000000000000  3.3699970251569997
  2.2984512984490002  1.3270090063230000  1.4338075899139999
 -0.0000022984490001  2.6540219936770000  5.0326860899139998
  2.2984512984490002  1.3270090063230000  5.8121599864720004
 -0.0000022984490001  2.6540219936770000  2.2132814864719998
