Zr Ir
 1.0000000000000000
     3.9596840000000002    0.0000000000000000    0.0000000000000000
     0.0000000000000000    3.9596840000000002    0.0000000000000000
     0.0000000000000000    0.0000000000000000    3.9596840000000002
 Zr  Ir 
   1   3
Cartesian
  0.0000000000000000  0.0000000000000000  0.0000000000000000
  1.9798420000000001  1.9798420000000001  0.0000000000000000
  1.9798420000000001  0.0000000000000000  1.9798420000000001
  0.0000000000000000  1.9798420000000001  1.9798420000000001
