Ga Se
 1.0000000000000000
     5.8381220000000003    0.0272080000000000    3.3374310000000000
     1.8381810000000001    6.3471729999999997    1.0507810000000000
    -0.0117220000000000    0.0135710000000000    6.7953359999999998
 Ga  Se 
   4   6
Cartesian
  5.1281761290899999  3.2268631671939998  6.3123392197340005
  1.2726166877649998  0.0397171726730000  4.1488491141730002
  3.3398464208750003  3.1956104373749996  3.0728548697670002
  3.4118452391900003  0.0356384802840000  7.5889291229189997
  3.1437293060450000  5.6377400068240000  2.8620781077980002
  3.1307209815179999  2.4777160032159999  7.5266596564740000
  5.2298877756750004  2.3336579453609994  4.1464269890830003
  7.1341391284450015  5.5211311569379999  9.7234904357069993
  1.2878539511680001  2.4931675469100001  4.2411969008439998
  5.2155801561700006  5.6802322888810002  6.2786186761840002
