Sr Sn Hg
 1.0000000000000000
     0.0000000000000000    4.0310800000000002    4.0310800000000002
     4.0310800000000002    0.0000000000000000    4.0310800000000002
     4.0310800000000002    4.0310800000000002    0.0000000000000000
 Sr  Sn  Hg 
   2   1   1
Cartesian
  0.0000000000000000  0.0000000000000000  0.0000000000000000
  4.0310800000000002  4.0310800000000002  4.0310800000000002
  6.0466200000000008  6.0466200000000008  6.0466200000000008
  2.0155480621599997  2.0155480621599997  2.0155480621599997
