Bi Pb Cl O 
 1.0000000000000000
     0.0000000000000000    0.0000000000000000    5.6543310000000000
     5.7156459999999996    0.0000000000000000    0.0000000000000000
     2.8578229999999998    6.3417990000000000    0.0000000000000000
 Bi  Pb  Cl  O  
   2   2   2   4
Cartesian
  5.7156459999999996  1.1107153604580000  4.2407482500000002
  2.8578229999999998  5.2310836395419997  1.4135827500000000
  5.7156459999999987  4.9875585579420001  4.2407482500000002
  2.8578229999999998  1.3542404420580001  1.4135827500000000
  2.8578229999999998  3.1210022254680001  4.2407482500000002
  5.7156459999999996  3.2207967745319999  1.4135827500000000
  1.3587633766419998  0.0000000000000000  2.8271655000000000
  4.3568826233579996  0.0000000000000000  0.0000000000000000
  4.3568826233579996  0.0000000000000000  2.8271655000000000
  1.3587633766419998  0.0000000000000000  0.0000000000000000
