Ti Tc Ru
 1.0000000000000000
     0.0000000000000000    3.0792980000000001    3.0792980000000001
     3.0792980000000001    0.0000000000000000    3.0792980000000001
     3.0792980000000001    3.0792980000000001    0.0000000000000000
 Ti  Tc  Ru 
   2   1   1
Cartesian
  3.0792980000000001  3.0792980000000001  3.0792980000000001
  0.0000000000000000  0.0000000000000000  0.0000000000000000
  4.6189531585960006  4.6189531585960006  4.6189531585960006
  1.5396490000000000  1.5396490000000000  1.5396490000000000
