Hf Al Ru
 1.0000000000000000
     0.0000150000000000    3.1126860000000001    3.1127210000000001
     3.1126830000000001   -0.0000490000000000    3.1127880000000001
     3.1126520000000002    3.1127199999999999   -0.0000200000000000
 Hf  Al  Ru 
   1   1   2
Cartesian
  4.6690062746800001  4.6690177500149996  4.6691167499530000
  1.5563250493600000  1.5563392500300000  1.5563722499060000
  3.1126612116070000  0.0000506064610000  3.1128533664979998
  3.1127185770049999  3.1125820062139997  3.1126791336230002
