Zn Au
 1.0000000000000000
    16.8560389999999991    0.0000000000000000    0.0000000000000000
     0.0000000000000000    5.7393219999999996    0.0000000000000000
     0.0000000000000000    0.0000000000000000    5.7183039999999998
 Zn  Au 
   8  24
Cartesian
  2.2955059591370000  2.8696609999999998  0.0000000000000000
 14.5605330408629978  2.8696609999999998  0.0000000000000000
  2.2955059591370000  0.0000000000000000  2.8591519999999999
 14.5605330408629978  0.0000000000000000  2.8591519999999999
 10.7235254591370008  0.0000000000000000  0.0000000000000000
  6.1325135408630000  0.0000000000000000  0.0000000000000000
 10.7235254591370008  2.8696609999999998  2.8591519999999999
  6.1325135408630000  2.8696609999999998  2.8591519999999999
  0.0000000000000000  1.8263153929420000  1.0411544824960000
  0.0000000000000000  4.6959763929419998  1.8179975175040000
  0.0000000000000000  1.0433456070580001  3.9003064824959996
 14.8475745289939987  2.8696609999999998  2.8591519999999999
 12.6420292500000002  4.3181568256819993  4.2887279999999999
 14.8475745289939987  0.0000000000000000  0.0000000000000000
 12.6420292500000002  4.2908261743180001  1.4295760000000000
  0.0000000000000000  3.9130066070579996  4.6771495175040005
  2.0084644710060000  2.8696609999999998  2.8591519999999999
  2.0084644710060000  0.0000000000000000  0.0000000000000000
 12.6420292500000002  1.4211651743179998  1.4295760000000000
 12.6420292500000002  1.4484958256820000  4.2887279999999999
  8.4280194999999996  4.6959763929419998  1.0411544824960000
  8.4280194999999996  1.8263153929420000  1.8179975175040000
  8.4280194999999996  3.9130066070579996  3.9003064824959996
  6.4195550289940000  0.0000000000000000  2.8591519999999999
  4.2140097499999998  1.4484958256820000  4.2887279999999999
  6.4195550289940000  2.8696609999999998  0.0000000000000000
  4.2140097499999998  1.4211651743179998  1.4295760000000000
  8.4280194999999996  1.0433456070580001  4.6771495175040005
 10.4364839710060000  0.0000000000000000  2.8591519999999999
 10.4364839710060000  2.8696609999999998  0.0000000000000000
  4.2140097499999998  4.2908261743180001  1.4295760000000000
  4.2140097499999998  4.3181568256819993  4.2887279999999999
