C 
 1.0000000000000000
     2.5177330000000002    0.0000000000000000    0.0000000000000000
    -1.2588670000000000    2.1804209999999999    0.0000000000000000
     0.0000000000000000    0.0000000000000000    8.3029030000000006
 C  
   8
Cartesian
  0.0000000000000000  0.0000000000000000  4.9233723919100001
 -0.0000015922000000  1.4536147268069999  2.8600262702830004
  0.0000000000000000  0.0000000000000000  3.3795306080900001
  1.2588675922000001  0.7268062731930000  5.4428767297170007
  0.0000000000000000  0.0000000000000000  7.5309821080900008
 -0.0000015922000000  1.4536147268069999  1.2914252297170001
  0.0000000000000000  0.0000000000000000  0.7719208919100000
  1.2588675922000001  0.7268062731930000  7.0114777702830002
