Mn Cu Sn S 
 1.0000000000000000
    -2.7531279999999998    2.7531279999999998    5.4176140000000004
     2.7531279999999998   -2.7531279999999998    5.4176140000000004
     2.7531279999999998    2.7531279999999998   -5.4176140000000004
 Mn  Cu  Sn  S  
   1   2   1   4
Cartesian
  0.0000000000000000  0.0000000000000000  0.0000000000000000
  0.0000000000000002  2.7531279999999994  2.7088070000000002
  2.7531279999999998  0.0000000000000000  2.7088070000000002
  0.0000000000000000  0.0000000000000000  5.4176140000000004
  1.4062482260959999 -1.4062482260959999  6.8759165012920000
 -1.4062482260960001  1.4062482260960001  6.8759165012920000
  1.4062482260959999  1.4062482260959996  3.9593114987079998
  1.3468797739039999  1.3468797739039999 -1.4583025012920001
