Si Rh
 1.0000000000000000
     5.0944940000000001    0.0000000000000000   -2.2298879999999999
     0.0000000000000000    4.6043820000000002    0.0000000000000000
     0.0007250000000000    0.0000000000000000    4.6201999999999996
 Si  Rh 
   4   4
Cartesian
  0.2954628378020000  2.9793114169199999  1.1207922228960001
  2.2521466621979997  0.6771204169200000  0.0743637771040000
  4.7997561621980003  1.6250705830799999  1.2695197771040001
  2.8430723378019995  3.9272615830800004  2.3159482228960000
  3.1528111400489998  2.9635460129519999  0.0939006961520002
  4.4892923599510004  0.6613550129520001 -1.1286326961520001
  1.9424078599510000  1.6408359870480000  2.2964113038479996
  0.6059266400490000  3.9430269870480004  3.5189446961519999
