Li As Rh
 1.0000000000000000
     0.0000000000000000    2.9414899999999999    2.9414899999999999
     2.9414899999999999    0.0000000000000000    2.9414899999999999
     2.9414899999999999    2.9414899999999999    0.0000000000000000
 Li  As  Rh 
   1   1   2
Cartesian
  4.4122291170199999  4.4122291170199999  4.4122291170199999
  1.4707391170199999  1.4707391170199999  1.4707391170199999
  0.0000000000000000  0.0000000000000000  0.0000000000000000
  2.9414899999999999  2.9414899999999999  2.9414899999999999
