Sn Hg Se
 1.0000000000000000
     5.3669440000000002   -0.0000640000000000   -2.3996369999999998
    -1.0728759999999999    5.2585870000000003   -2.3996949999999999
     0.0047320000000000    0.0058750000000000    7.2121630000000003
 Sn  Hg  Se 
   1   2   4
Cartesian
  0.5394450000000001  3.9468617500000001  1.2064010000000005
  2.1470340000000001  2.6292615000000001 -2.3996659999999999
  3.7593549999999998  1.3175362500000001  1.2064300000000006
  4.4886118836800000  1.8216664426140001 -1.3409448626220000
  0.5229975622120000  0.5022808598330001  5.0451417508090000
  2.7886606859600001  3.5533048894000001  2.3614932570650002
  0.7973298681480001  4.6515438081529998 -1.2400281452519999
