Zn Pt
 1.0000000000000000
     3.9355829999999998    0.0000000000000000    0.0000000000000000
     0.0000000000000000    3.9355829999999998    0.0000000000000000
     0.0000000000000000    0.0000000000000000    3.9355829999999998
 Zn  Pt 
   1   3
Cartesian
  0.0000000000000000  0.0000000000000000  0.0000000000000000
  1.9677914999999999  1.9677914999999999  0.0000000000000000
  1.9677914999999999  0.0000000000000000  1.9677914999999999
  0.0000000000000000  1.9677914999999999  1.9677914999999999
