Ce As
 1.0000000000000000
     3.7269320000000001   -0.0000000000000000    2.1517439999999999
     1.2423109999999999    3.5137860000000001    2.1517439999999999
    -0.0000000000000000   -0.0000000000000000    4.3034900000000000
 Ce  As 
   1   1
Cartesian
  2.4846215000000003  1.7568930000000000  4.3034889999999999
  0.0000000000000000  0.0000000000000000  0.0000000000000000
