Al Ag Te
 1.0000000000000000
     5.7489540000000003   -0.0000000000000000   -2.7009360000000000
    -1.2689360000000001    5.6071629999999999   -2.7009360000000000
     0.0400200000000000    0.0500890000000000    7.5539889999999996
 Al  Ag  Te 
   2   2   4
Cartesian
  4.0144915000000001  1.4268352499999999  1.0760584999999998
  2.2400090000000001  2.8035814999999999 -2.7009360000000000
  0.5055465000000000  4.2304167499999998  1.0760584999999998
  0.0000000000000000  0.0000000000000000  0.0000000000000000
  1.8122345120400003  2.1152083749999999 -0.1946266493600000
 -0.0174731706400001  3.4228353396200002  3.6972116493599998
  3.4375166706400004  0.8576704103800000  3.5823678506399999
  3.8077979879600008  4.9187898749999999 -2.7807188506400000
