Eu Ag
 1.0000000000000000
     5.6339519999999998    0.0000110000000000    0.0000000000000000
    -2.8169670000000000    4.8791430000000000    0.0000000000000000
     0.0000000000000000    0.0000000000000000    4.6392170000000004
 Eu  Ag 
   1   5
Cartesian
  0.0000000000000000  0.0000000000000000  0.0000000000000000
 -0.0000024509250001  3.2527672930330001  0.0000000000000000
  2.8169874509250001  1.6263867069669999  0.0000000000000000
  2.8169759999999999  0.0000055000000000  2.3196085000000002
  1.4084924999999999  2.4395769999999999  2.3196085000000002
 -1.4084835000000000  2.4395715000000000  2.3196085000000002
