Li Sn Pd
 1.0000000000000000
     6.7551730000000001    0.0000000000000000    0.0000000000000000
     0.0000000000000000    6.7551730000000001    0.0000000000000000
     0.0000000000000000    0.0000000000000000    8.7743479999999998
 Li  Sn  Pd 
   2  12   4
Cartesian
  0.0000000000000000  0.0000000000000000  4.3871739999999999
  3.3775865000000000  3.3775865000000000  4.3871739999999999
  5.6517492663150000  2.2741627663149999  0.0000000000000000
  4.4501390930750002  1.0725525930749999  2.8124329900920002
  2.3050339069249999  5.6826204069250004  2.8124329900920002
  1.0725525930749999  2.3050339069249999  5.9619150099080001
  1.0725525930749999  2.3050339069249999  2.8124329900920002
  2.3050339069249999  5.6826204069250004  5.9619150099080001
  4.4810102336849997  5.6517492663150000  0.0000000000000000
  1.1034237336849999  4.4810102336849997  0.0000000000000000
  2.2741627663149999  1.1034237336849999  0.0000000000000000
  4.4501390930750002  1.0725525930749999  5.9619150099080001
  5.6826204069250004  4.4501390930750002  2.8124329900920002
  5.6826204069250004  4.4501390930750002  5.9619150099080001
  3.3775865000000000  3.3775865000000000  1.5774084116999998
  3.3775865000000000  3.3775865000000000  7.1969395882999994
  0.0000000000000000  0.0000000000000000  1.5774084116999998
  0.0000000000000000  0.0000000000000000  7.1969395882999994
