Zr Si Ni
 1.0000000000000000
     3.5269599999999999    0.0000000000000000   -1.2740680000000000
    -0.4602410000000000    3.4968020000000002   -1.2740680000000000
    -0.0054540000000000   -0.0062190000000000    5.5037149999999997
 Zr  Si  Ni 
   1   2   2
Cartesian
  0.0000000000000000  0.0000000000000000  0.0000000000000000
  1.9014349907609995  2.1680961281640001 -0.2551375784060000
  1.1598300092390001  1.3224868718360003  3.2107165784060001
  0.5338322499999999  2.6194920000000002  1.4777894999999999
  2.5274327500000000  0.8710910000000001  1.4777894999999999
