Ca Au
 1.0000000000000000
     7.8946719999999999    0.0000000000000000    0.0000000000000000
     0.0000000000000000    7.8946719999999999    0.0000000000000000
     0.0000000000000000    0.0000000000000000    7.8946719999999999
 Ca  Au 
   4  20
Cartesian
  0.0000000000000000  0.0000000000000000  0.0000000000000000
  0.0000000000000000  3.9473360000000000  3.9473360000000000
  3.9473360000000000  0.0000000000000000  3.9473360000000000
  3.9473360000000000  3.9473360000000000  0.0000000000000000
  4.9318331770880004  0.9844971770880000  0.9844971770880000
  4.9318331770880004  2.9628388229120000  2.9628388229120000
  1.9736680000000000  5.9210039999999999  5.9210039999999999
  6.9101748229119995  2.9628388229120000  0.9844971770880000
  6.9101748229119995  0.9844971770880000  2.9628388229120000
  4.9318331770880004  4.9318331770880004  4.9318331770880004
  4.9318331770880004  6.9101748229119995  6.9101748229119995
  1.9736680000000000  1.9736680000000000  1.9736680000000000
  6.9101748229119995  6.9101748229119995  4.9318331770880004
  6.9101748229119995  4.9318331770880004  6.9101748229119995
  0.9844971770880000  0.9844971770880000  4.9318331770880004
  0.9844971770880000  2.9628388229120000  6.9101748229119995
  5.9210039999999999  5.9210039999999999  1.9736680000000000
  2.9628388229120000  2.9628388229120000  4.9318331770880004
  2.9628388229120000  0.9844971770880000  6.9101748229119995
  0.9844971770880000  4.9318331770880004  0.9844971770880000
  0.9844971770880000  6.9101748229119995  2.9628388229120000
  5.9210039999999999  1.9736680000000000  5.9210039999999999
  2.9628388229120000  6.9101748229119995  0.9844971770880000
  2.9628388229120000  4.9318331770880004  2.9628388229120000
