Li Al
 1.0000000000000000
     2.2291310000000002   -1.2869889999999999    4.7034180000000001
     0.0000000000000000    2.5739790000000000    4.7034180000000001
    -2.2291310000000002   -1.2869889999999999    4.7034180000000001
 Li  Al 
   3   2
Cartesian
  0.0000000000000000  0.0000004030150001  5.6866440158099998
  0.0000000000000001  0.0000005969850000  8.4236099841899996
  0.0000000000000000  0.0000000000000000  0.0000000000000000
 -0.0000000000000001  0.0000008026500001 11.3255953731000005
 -0.0000000000000000  0.0000001973500000  2.7846586269000002
