Pm Mg Si
 1.0000000000000000
     0.0000000000000000    3.6810640000000001    3.6810640000000001
     3.6810640000000001    0.0000000000000000    3.6810640000000001
     3.6810640000000001    3.6810640000000001    0.0000000000000000
 Pm  Mg  Si 
   2   1   1
Cartesian
  0.0000000000000000  0.0000000000000000  0.0000000000000000
  3.6810566378720004  3.6810566378720004  3.6810566378720004
  1.8405246378720002  1.8405246378720002  1.8405246378720002
  5.5215960000000006  5.5215960000000006  5.5215960000000006
