Sb Pd
 1.0000000000000000
     6.5653509999999997    0.0000000000000000    0.0000000000000000
     0.0000000000000000    6.5653509999999997    0.0000000000000000
     0.0000000000000000    0.0000000000000000    6.5653509999999997
 Sb  Pd 
   8   4
Cartesian
  2.4498082028419996  2.4498082028419996  2.4498082028419996
  0.8328672971580000  4.1155427971579996  5.7324837028419999
  5.7324837028419999  0.8328672971580000  4.1155427971579996
  4.1155427971579996  5.7324837028419999  0.8328672971580000
  4.1155427971579996  4.1155427971579996  4.1155427971579996
  5.7324837028419999  2.4498082028419996  0.8328672971580000
  0.8328672971580000  5.7324837028419999  2.4498082028419996
  2.4498082028419996  0.8328672971580000  5.7324837028419999
  0.0000000000000000  0.0000000000000000  0.0000000000000000
  3.2826754999999999  0.0000000000000000  3.2826754999999999
  3.2826754999999999  3.2826754999999999  0.0000000000000000
  0.0000000000000000  3.2826754999999999  3.2826754999999999
