Cs Ru O 
 1.0000000000000000
     6.4708030000000001    0.0000000000000000    0.0000000000000000
     0.0000000000000000    8.5128500000000003    0.0000000000000000
     0.0000000000000000    0.0000000000000000   11.4895490000000002
 Cs  Ru  O  
   8   4  16
Cartesian
  1.6177007500000000  5.6439940114499993  6.7169167304390003
  4.8531022500000001  2.8688559885500000  4.7726322695610000
  1.6177007500000000  1.3875690114500001 10.5174067695610010
  4.8531022500000001  7.1252809885500010  0.9721422304390001
  4.8531022500000001  0.0736616910500000  8.0866203353760007
  1.6177007500000000  8.4391883089499995  3.4029286646240000
  4.8531022500000001  4.3300866910500000  9.1477031646239997
  1.6177007500000000  4.1827633089500003  2.3418458353760001
  4.8531022500000001  2.3512406571500000  0.9091450332720000
  1.6177007500000000  6.1616093428500003 10.5804039667280012
  4.8531022500000001  6.6076656571500001  4.8356294667280002
  1.6177007500000000  1.9051843428500002  6.6539195332720000
  6.3020962241840000  5.9656009715999998  4.0298444162600005
  3.0666947241840004  2.5472490284000000  7.4597045837399998
  3.4041082758159997  1.7091759716000001  1.7149300837400001
  0.1687067758160000  6.8036740284000006  9.7746189162600015
  0.1687067758160000  2.5472490284000000  7.4597045837399998
  3.4041082758159997  5.9656009715999998  4.0298444162600005
  3.0666947241840004  6.8036740284000006  9.7746189162600015
  6.3020962241840000  1.7091759716000001  1.7149300837400001
  1.6177007500000000  0.1381550426500000  6.6685572186980000
  4.8531022500000001  8.3746949573500000  4.8209917813020002
  1.6177007500000000  4.3945800426500004 10.5657662813020004
  4.8531022500000001  4.1182699573499999  0.9237827186980000
  4.8531022500000001  1.7039320560000002 10.7349154216800002
  1.6177007500000000  6.8089179440000001  0.7546335783200000
  4.8531022500000001  5.9603570560000003  6.4994080783200001
  1.6177007500000000  2.5524929439999999  4.9901409216800001
