Rb Ac Te
 1.0000000000000000
     0.0000000000000000    4.1519589999999997    4.1519589999999997
     4.1519589999999997    0.0000000000000000    4.1519589999999997
     4.1519589999999997    4.1519589999999997    0.0000000000000000
 Rb  Ac  Te 
   1   1   2
Cartesian
  6.2279301960819993  6.2279301960819993  6.2279301960819993
  2.0759711960820000  2.0759711960820000  2.0759711960820000
  0.0000000000000000  0.0000000000000000  0.0000000000000000
  4.1519589999999997  4.1519589999999997  4.1519589999999997
