Li Co P 
 1.0000000000000000
     6.4801710000000003    0.0000240000000000    0.0000000000000000
    -3.2400650000000000    5.6119560000000002    0.0000000000000000
     0.0000000000000000    0.0000000000000000    3.3120029999999998
 Li  Co  P  
   1   6   4
Cartesian
  0.0000226806600000  0.0000168359880000  0.0000000000000000
 -1.2912419240589998  4.4868085294320004  1.6560014999999999
  0.0000049800660002  2.2503037645320001  1.6560014999999999
  3.2401064110600002  0.4025809125840000  0.0000000000000000
  4.5115045649060006  2.6047106405760001  0.0000000000000000
  1.9686984249300001  2.6047236708960000  0.0000000000000000
  1.2912649836099999  4.4868124820519997  1.6560014999999999
  4.7114930580110004  1.0212104305559999  1.6560014999999999
  1.7686465213639999  1.0211321877960000  1.6560014999999999
 -0.0000446549679998  3.7412858106000000  0.0000000000000000
  3.2401374206660010  3.5696726055840000  1.6560014999999999
