Tm Al B 
 1.0000000000000000
     0.0000000000000000    0.0000000000000000    3.5211139999999999
     5.9219249999999999    0.0000000000000000    0.0000000000000000
     0.0000000000000000   11.4810239999999997    0.0000000000000000
 Tm  Al  B  
   4   4  16
Cartesian
  3.7288052174250002  4.0170725253119999  0.0000000000000000
  2.1931197825749997  7.4639514746879998  0.0000000000000000
  0.7678427174250000  1.7234394746880000  0.0000000000000000
  5.1540822825749997  9.7575845253119997  0.0000000000000000
  3.7787566548000000  1.0356342888960000  0.0000000000000000
  2.1431683451999999 10.4453897111040011  0.0000000000000000
  0.8177941548000000  4.7048777111039994  0.0000000000000000
  5.1041308452000003  6.7761462888959993  0.0000000000000000
  4.6805414718750002  2.1538515834239997  1.7605569999999999
  1.2413835281250001  9.3271724165759995  1.7605569999999999
  1.7195789718749999  3.5866604165759997  1.7605569999999999
  4.2023460281249996  7.8943635834240000  1.7605569999999999
  5.1336101878500005  0.3530988931200000  1.7605569999999999
  0.7883148121499999 11.1279251068799994  1.7605569999999999
  2.1726476878500001  5.3874131068800004  1.7605569999999999
  3.7492773121499998  6.0936108931199993  1.7605569999999999
  5.2447173446999997  5.2010186822400000  1.7605569999999999
  0.6772076552999999  6.2800053177599997  1.7605569999999999
  2.2837548446999998  0.5394933177600000  1.7605569999999999
  3.6381701553000001 10.9415306822399998  1.7605569999999999
  5.7664093275750004  3.5259602426879999  1.7605569999999999
  0.1555156724250000  7.9550637573119989  1.7605569999999999
  2.8054468275750000  2.2145517573119999  1.7605569999999999
  3.1164781724249999  9.2664722426879997  1.7605569999999999
