Ca Al Zn
 1.0000000000000000
     4.1254619999999997    0.0000000000000000    0.0000000000000000
     0.0000000000000000    4.1254619999999997    0.0000000000000000
     0.0000000000000000    0.0000000000000000   11.4634370000000008
 Ca  Al  Zn 
   2   4   4
Cartesian
  0.0000000000000000  0.0000000000000000  0.0000000000000000
  2.0627309999999999  2.0627309999999999  5.7317185000000004
  0.0000000000000000  2.0627309999999999  8.5975777500000010
  2.0627309999999999  0.0000000000000000  8.5975777500000010
  2.0627309999999999  0.0000000000000000  2.8658592500000002
  0.0000000000000000  2.0627309999999999  2.8658592500000002
  2.0627309999999999  2.0627309999999999 10.2185535955480002
  2.0627309999999999  2.0627309999999999  1.2448834044520001
  0.0000000000000000  0.0000000000000000  4.4868350955479999
  0.0000000000000000  0.0000000000000000  6.9766019044520009
