Pu O 
 1.0000000000000000
     3.2876020000000001   -0.0000000000000000    1.8980990000000000
     1.0958669999999999    3.0995830000000000    1.8980990000000000
    -0.0000000000000000    0.0000000000000000    3.7961990000000001
 Pu  O  
   1   2
Cartesian
  0.0000000000000000  0.0000000000000000  0.0000000000000000
  3.2876017500000003  2.3246872500000002  5.6942977499999996
  1.0958672500000000  0.7748957500000000  1.8980992500000000
