Ti Ir W 
 1.0000000000000000
     0.0000000000000000    3.1204239999999999    3.1204239999999999
     3.1204239999999999    0.0000000000000000    3.1204239999999999
     3.1204239999999999    3.1204239999999999    0.0000000000000000
 Ti  Ir  W  
   2   1   1
Cartesian
  3.1204177591520001  3.1204177591520001  3.1204177591520001
  0.0000000000000000  0.0000000000000000  0.0000000000000000
  1.5602057591520000  1.5602057591520000  1.5602057591520000
  4.6806359999999998  4.6806359999999998  4.6806359999999998
