Cu Hg I 
 1.0000000000000000
    -3.0459350000000001    3.0459350000000001    6.2916559999999997
     3.0459350000000001   -3.0459350000000001    6.2916559999999997
     3.0459350000000001    3.0459350000000001   -6.2916559999999997
 Cu  Hg  I  
   2   1   4
Cartesian
  3.0459350000000001  0.0000000000000000  3.1458279999999998
  0.0000000000000000  3.0459350000000001  3.1458279999999998
  0.0000000000000000  0.0000000000000000  6.2916559999999997
  1.6344669966100001  1.6344669966100001  4.6138475111679984
 -1.6344669966099998  1.6344669966099998  7.9694644888320001
  1.4114680033900000  1.4114680033900000 -1.6778084888319997
  1.6344669966100001 -1.6344669966100001  7.9694644888319992
