Al As Pt
 1.0000000000000000
     3.9505499999999998    0.0000000000000000    0.0000000000000000
     0.0000000000000000    3.9505499999999998    0.0000000000000000
     0.0000000000000000    0.0000000000000000    7.0229840000000001
 Al  As  Pt 
   1   1   5
Cartesian
  1.9752749999999999  1.9752749999999999  0.0000000000000000
  0.0000000000000000  0.0000000000000000  3.5114920000000001
  0.0000000000000000  1.9752749999999999  1.9138474158079999
  0.0000000000000000  1.9752749999999999  5.1091365841920000
  1.9752749999999999  0.0000000000000000  1.9138474158079999
  1.9752749999999999  0.0000000000000000  5.1091365841920000
  0.0000000000000000  0.0000000000000000  0.0000000000000000
