Ir Rh
 1.0000000000000000
    -1.9190890000000000    1.9190890000000000    3.8427099999999998
     1.9190890000000000   -1.9190890000000000    3.8427099999999998
     1.9190890000000000    1.9190890000000000   -3.8427099999999998
 Ir  Rh 
   3   1
Cartesian
  0.0000000000000001  1.9190851618220000  1.9213549999999999
  1.9190851618220000  0.0000000000000001  1.9213549999999999
  0.0000000000000000  0.0000000000000000  3.8427099999999998
  0.0000000000000000  0.0000000000000000  0.0000000000000000
