Sr Zn Sn
 1.0000000000000000
     4.6077279999999998    0.0000000000000000    0.0000000000000000
    -2.3038630000000002    3.9908500000000000    0.0000000000000000
     0.0000000000000000    0.0000000000000000    9.2127149999999993
 Sr  Zn  Sn 
   2   2   2
Cartesian
  0.0000000000000000  0.0000000000000000  4.6063574999999997
  0.0000000000000000  0.0000000000000000  0.0000000000000000
  0.0000029720269999  2.6665383085499998  6.9095362499999995
  2.3038620279730000  1.3243116914499999  2.3031787499999998
 -0.0000016382010003  2.6565611835500000  2.3031787499999998
  2.3038666382009998  1.3342888164500000  6.9095362499999995
