Dy Y  Hg
 1.0000000000000000
     0.0000000000000000    3.6980840000000001    3.6980840000000001
     3.6980840000000001    0.0000000000000000    3.6980840000000001
     3.6980840000000001    3.6980840000000001    0.0000000000000000
 Dy  Y   Hg 
   1   1   2
Cartesian
  1.8490420000000001  1.8490420000000001  1.8490420000000001
  5.5471260000000004  5.5471260000000004  5.5471260000000004
  0.0000000000000000  0.0000000000000000  0.0000000000000000
  3.6980840000000001  3.6980840000000001  3.6980840000000001
