Zr Zn
 1.0000000000000000
     4.5052740000000000   -0.0000000000000000    2.6011229999999999
     1.5017570000000000    4.2476120000000002    2.6011220000000002
     0.0000010000000000    0.0000000000000000    5.2022420000000000
 Zr  Zn 
   2   4
Cartesian
  5.2561529999999994  3.7166605000000001  9.1039261249999992
  0.7508790000000000  0.5309515000000000  1.3005608749999999
  3.0035159999999999  2.1238060000000001  5.2022434999999998
  3.0035154999999998  2.1238060000000001  2.6011224999999998
  0.7508790000000000  2.1238060000000001  3.9016820000000001
  2.2526375000000001  0.0000000000000000  3.9016824999999997
