Nb Al Ru
 1.0000000000000000
     6.2054739999999997    0.0000000000000000    0.0000000000000000
     0.0000000000000000    6.2054739999999997    0.0000000000000000
     0.0000000000000000    0.0000000000000000    6.2054739999999997
 Nb  Al  Ru 
   4   4   8
Cartesian
  3.1027369999999999  3.1027369999999999  3.1027369999999999
  3.1027369999999999  0.0000000000000000  0.0000000000000000
  0.0000000000000000  3.1027369999999999  0.0000000000000000
  0.0000000000000000  0.0000000000000000  3.1027369999999999
  0.0000000000000000  0.0000000000000000  0.0000000000000000
  0.0000000000000000  3.1027369999999999  3.1027369999999999
  3.1027369999999999  0.0000000000000000  3.1027369999999999
  3.1027369999999999  3.1027369999999999  0.0000000000000000
  1.5513684999999999  4.6541055000000000  4.6541055000000000
  4.6541055000000000  1.5513684999999999  1.5513684999999999
  1.5513684999999999  1.5513684999999999  1.5513684999999999
  4.6541055000000000  4.6541055000000000  4.6541055000000000
  4.6541055000000000  4.6541055000000000  1.5513684999999999
  1.5513684999999999  1.5513684999999999  4.6541055000000000
  4.6541055000000000  1.5513684999999999  4.6541055000000000
  1.5513684999999999  4.6541055000000000  1.5513684999999999
