Hf Si Ru
 1.0000000000000000
     0.0000000000000000    3.0711249999999999    3.0711249999999999
     3.0711249999999999    0.0000000000000000    3.0711249999999999
     3.0711249999999999    3.0711249999999999    0.0000000000000000
 Hf  Si  Ru 
   1   1   2
Cartesian
  1.5355624999999999  1.5355624999999999  1.5355624999999999
  4.6066813577499994  4.6066813577499994  4.6066813577499994
  0.0000000000000000  0.0000000000000000  0.0000000000000000
  3.0711188577500002  3.0711188577500002  3.0711188577500002
