Li Si Ir
 1.0000000000000000
    -0.0000010000000000    2.8897309999999998    2.8897309999999998
     2.8897309999999998   -0.0000010000000000    2.8897309999999998
     2.8897309999999998    2.8897309999999998   -0.0000010000000000
 Li  Si  Ir 
   1   1   2
Cartesian
  1.4448594705389999  1.4448594705389999  1.4448594705389999
  4.3345899705389996  4.3345899705389996  4.3345899705389996
  0.0000000000000000  0.0000000000000000  0.0000000000000000
  2.8897304999999998  2.8897304999999998  2.8897304999999998
