Ti Tc Mo
 1.0000000000000000
     0.0000020000000000    3.1007899999999999    3.1007899999999999
     3.1007899999999999    0.0000020000000000    3.1007899999999999
     3.1007899999999999    3.1007899999999999    0.0000020000000000
 Ti  Tc  Mo 
   1   2   1
Cartesian
  4.6511927015820005  4.6511927015819996  4.6511927015819996
  6.2015820000000001  6.2015820000000001  6.2015820000000001
  3.1007847984180001  3.1007847984180001  3.1007847984180001
  1.5503955000000000  1.5503955000000000  1.5503955000000000
