Li Ga
 1.0000000000000000
     3.9215510000000000   -0.0020560000000000    3.4148100000000001
     1.5532260000000000    3.6008410000000000    3.4148100000000001
    -0.0031270000000000   -0.0020560000000000    5.1999500000000003
 Li  Ga 
   3   2
Cartesian
  3.2597026576000001  2.1427297213759999  7.1665441500800009
  2.2119473423999998  1.4539992786240001  4.8630258499200005
  0.0000000000000000  0.0000000000000000  0.0000000000000000
  1.0945816959000001  0.7195112495340000  2.4064673602200002
  4.3770683041000007  2.8772177504660004  9.6231026397800008
