Hf Al Pt
 1.0000000000000000
     7.1609740000000004    0.0000000000000000    0.0000000000000000
    -3.5804879999999999    6.2015859999999998    0.0000000000000000
     0.0000000000000000    0.0000000000000000    7.1382000000000003
 Hf  Al  Pt 
   6   6   6
Cartesian
  1.5426524331800004  2.4233937612199998  1.7845500000000001
  1.3273935347000001  2.5476735446599998  5.3536500000000000
  4.2909236300120011  0.1242859850260000  1.7845500000000001
 -2.0378276243060003  3.7781922387800000  5.3536500000000000
  0.7104428310680000  6.0773000149740000  5.3536500000000000
  4.9078731953460011  3.6539124553400000  1.7845500000000001
 -0.9344858850720000  1.6185767364840000  0.0000000000000000
  1.8689712481560001  0.0000000000000000  3.5691000000000002
  1.8689712481560001  0.0000000000000000  0.0000000000000000
 -0.9344858850720000  1.6185767364840000  3.5691000000000002
  2.6460006369160003  4.5830092635159998  0.0000000000000000
  2.6460006369160003  4.5830092635159998  3.5691000000000002
 -0.0000042471540000  4.1343927338619997  3.3738202625999998
  3.5804902471540005  2.0671932661379997  3.7643797374000001
  0.0000000000000000  0.0000000000000000  1.7845500000000001
  3.5804902471540005  2.0671932661379997  6.9429202626000004
 -0.0000042471540000  4.1343927338619997  0.1952797374000000
  0.0000000000000000  0.0000000000000000  5.3536500000000000
