Al Cu Pt
 1.0000000000000000
     4.0021990000000001    0.0000000000000000    0.0000000000000000
     0.0000000000000000    4.0021990000000001    0.0000000000000000
     0.0000000000000000    0.0000000000000000    3.5370279999999998
 Al  Cu  Pt 
   1   1   2
Cartesian
  0.0000000000000000  0.0000000000000000  0.0000000000000000
  2.0010995000000000  2.0010995000000000  0.0000000000000000
  0.0000000000000000  2.0010995000000000  1.7685139999999999
  2.0010995000000000  0.0000000000000000  1.7685139999999999
