Li Si Rh
 1.0000000000000000
     0.0000000000000000    2.8747010000000000    2.8747010000000000
     2.8747010000000000    0.0000000000000000    2.8747010000000000
     2.8747010000000000    2.8747010000000000    0.0000000000000000
 Li  Si  Rh 
   1   1   2
Cartesian
  1.4373447505979999  1.4373447505979999  1.4373447505979999
  4.3120457505980001  4.3120457505980001  4.3120457505980001
  0.0000000000000000  0.0000000000000000  0.0000000000000000
  2.8747010000000000  2.8747010000000000  2.8747010000000000
