Pr Zn Pd
 1.0000000000000000
     7.4366750000000001   -0.0000000000000000    0.0000000000000000
    -3.7183380000000001    6.4403490000000003    0.0000000000000000
     0.0000000000000000    0.0000000000000000    3.9913310000000002
 Pr  Zn  Pd 
   3   3   3
Cartesian
  4.3983024419500003  0.0000000000000000  1.9956655000000001
  1.5191860747419998  2.6313076295340001  1.9956655000000001
 -2.1991515166919999  3.8090413704660002  1.9956655000000001
  2.8291376081570001  4.9002103804890007  0.0000000000000000
 -0.8891996309819999  1.5401386195110001  0.0000000000000000
  1.7783990228250000  0.0000000000000000  0.0000000000000000
  0.0000000000000000  0.0000000000000000  1.9956655000000001
 -0.0000040516710000  4.2935681467830005  0.0000000000000000
  3.7183410516710005  2.1467808532169999  0.0000000000000000
