Th Fe Ge
 1.0000000000000000
    -2.0227560000000002    2.0227560000000002    5.4054630000000001
     2.0227560000000002   -2.0227560000000002    5.4054630000000001
     2.0227560000000002    2.0227560000000002   -5.4054630000000001
 Th  Fe  Ge 
   1   2   2
Cartesian
  0.0000000000000000  0.0000000000000000  0.0000000000000000
  0.0000000000000000  2.0227560000000002  2.7027315000000001
  2.0227560000000002  0.0000000000000000  2.7027315000000001
  0.0000000000000000 -0.0000000000000000  6.6974551444079999
 -0.0000000000000000  0.0000000000000000  4.1134708555920003
