Ho Fe B 
 1.0000000000000000
     3.2633489999999998   -0.0000000000000000   -1.1437420000000000
    -0.4008600000000000    3.2386349999999999   -1.1437420000000000
     0.0615210000000000    0.0696050000000000    5.4029369999999997
 Ho  Fe  B  
   1   2   2
Cartesian
  0.0000000000000000  0.0000000000000000  0.0000000000000000
  0.5459527499999999  2.4637787499999999  1.5577264999999998
  2.3780572499999999  0.8444612499999999  1.5577264999999998
  1.1331521354250000  1.2820541052450001  3.2331216789089998
  1.7908578645750000  2.0261858947549998 -0.1176686789090001
