Zn Pd Rh
 1.0000000000000000
     0.0000000000000000    3.0074209999999999    3.0074209999999999
     3.0074209999999999    0.0000000000000000    3.0074209999999999
     3.0074209999999999    3.0074209999999999    0.0000000000000000
 Zn  Pd  Rh 
   2   1   1
Cartesian
  0.0000000000000000  0.0000000000000000  0.0000000000000000
  3.0074270148419999  3.0074270148419999  3.0074270148419999
  1.5037104999999999  1.5037104999999999  1.5037104999999999
  4.5111314999999994  4.5111314999999994  4.5111314999999994
