Pm Pt Rh
 1.0000000000000000
     0.0000000000000000    3.5337299999999998    3.5337299999999998
     3.5337299999999998    0.0000000000000000    3.5337299999999998
     3.5337299999999998    3.5337299999999998    0.0000000000000000
 Pm  Pt  Rh 
   2   1   1
Cartesian
  0.0000000000000000  0.0000000000000000  0.0000000000000000
  3.5337299999999998  3.5337299999999998  3.5337299999999998
  1.7668649999999999  1.7668649999999999  1.7668649999999999
  5.3005949999999995  5.3005949999999995  5.3005949999999995
