Li Yb Rh
 1.0000000000000000
     0.0000000000000000    3.4042930000000000    3.4042930000000000
     3.4042930000000000    0.0000000000000000    3.4042930000000000
     3.4042930000000000    3.4042930000000000    0.0000000000000000
 Li  Yb  Rh 
   1   2   1
Cartesian
  3.4042930000000000  3.4042930000000000  3.4042930000000000
  1.7021465000000000  1.7021465000000000  1.7021465000000000
  5.1064395000000005  5.1064395000000005  5.1064395000000005
  0.0000000000000000  0.0000000000000000  0.0000000000000000
