Sr Ge Pt
 1.0000000000000000
     6.6313009999999997    0.0000000000000000    0.0000000000000000
     0.0000000000000000    6.6313009999999997    0.0000000000000000
     0.0000000000000000    0.0000000000000000    6.6313009999999997
 Sr  Ge  Pt 
   4   4   4
Cartesian
  0.8823741736620000  0.8823741736620000  0.8823741736620000
  2.4332763263380000  5.7489268263379998  4.1980246736620002
  4.1980246736620002  2.4332763263380000  5.7489268263379998
  5.7489268263379998  4.1980246736620002  2.4332763263380000
  1.0916514019210000  2.2239990980789996  4.4073019019209996
  2.2239990980789996  4.4073019019209996  1.0916514019210000
  4.4073019019209996  1.0916514019210000  2.2239990980789996
  5.5396495980789995  5.5396495980789995  5.5396495980789995
  3.8715458315290001  6.0754056684709994  0.5558953315289999
  6.0754056684709994  0.5558953315289999  3.8715458315290001
  0.5558953315289999  3.8715458315290001  6.0754056684709994
  2.7597551684710000  2.7597551684710000  2.7597551684710000
