Zr Ag
 1.0000000000000000
     3.4825339999999998    0.0000000000000000    0.0000000000000000
     0.0000000000000000    3.4825339999999998    0.0000000000000000
     0.0000000000000000    0.0000000000000000    6.6014099999999996
 Zr  Ag 
   2   2
Cartesian
  0.8706334999999999  0.8706334999999999  0.9497778637500000
  2.6119005000000000  2.6119005000000000  5.6516321362499999
  0.8706334999999999  0.8706334999999999  4.0505327562599991
  2.6119005000000000  2.6119005000000000  2.5508772437399996
