Al Zn Rh
 1.0000000000000000
     0.0000000000000000    2.9806379999999999    2.9806379999999999
     2.9806379999999999    0.0000000000000000    2.9806379999999999
     2.9806379999999999    2.9806379999999999    0.0000000000000000
 Al  Zn  Rh 
   1   1   2
Cartesian
  1.4903189999999999  1.4903189999999999  1.4903189999999999
  4.4709570000000003  4.4709570000000003  4.4709570000000003
  0.0000000000000000  0.0000000000000000  0.0000000000000000
  2.9806439612760003  2.9806439612760003  2.9806439612760003
