Sr Ti O 
 1.0000000000000000
     3.7374499999999999    0.0000000000000000   -1.1009629999999999
    -0.3243170000000000    3.7233520000000002   -1.1009629999999999
    -0.0061190000000000   -0.0066750000000000    6.8734869999999999
 Sr  Ti  O  
   2   1   4
Cartesian
  2.2008899769069998  2.4009284873520000  0.5771350188220002
  1.2061240230929999  1.3157485126480000  4.0944259811780004
  0.0000000000000000  0.0000000000000000  0.0000000000000000
  2.8696147625470001  3.1304336006160001  2.8472608971580002
  0.5373992374529999  0.5862433993840001  1.8243001028419998
 -0.1621585000000000  1.8616760000000001 -0.5504815000000000
  1.8687250000000000  0.0000000000000000 -0.5504815000000000
