Mg As
 1.0000000000000000
    10.0936740000000000    0.0000000000000000   -3.5686529999999999
    -5.0468370000000000    8.7413790000000002   -3.5686529999999999
     0.0000000000000000    0.0000000000000000   10.7059569999999997
 Mg  As 
  24  16
Cartesian
 -2.2502130258420001  4.3097795711280007  6.2807563892099996
  1.0276167625919996  2.3140178488800003  6.1542012833310000
  2.6480551865520003  0.0609099288720000 -0.6464615520500001
  0.0056019890699999  4.1036403715500001  2.5855630873789996
  2.3340763162709997  4.1645415590430002 -0.8565735441910000
  7.5407163630390004  0.2061479409570000  2.4860939890800000
 -1.0683901587149998  6.4785419251650005 -1.0825549245390000
 -1.0332490326840000  2.3237382623280003 -0.9830854050700000
  1.1466363195630001  6.6335265748349999 -4.2151074008100000
  6.2989673533739996  2.0469512376719998 -0.6464370398189997
 -0.0838481499180000  0.2670491284500000  2.7120972379700001
  3.6213780766979995  2.0566716511199998  2.4861118795090000
  7.2970500258420010  4.4315994288719995 -2.7121053892099996
  4.0192202374079988  6.4273611511200004 -2.5855502833310000
  2.3987818134480006  8.6804690711279999  4.2151125520499999
  5.0412350109300004  4.6377386284500002  0.9830879126210001
  1.4254589233020005  6.6847073488800000  1.0825391204909993
  5.1306851499180004  8.4743298715500011  0.8565537620300001
 -1.2521303533739996  6.6944277623280000  4.2150880398190012
  3.9002006804370000  2.1078524251649999  7.7837584008100000
  6.0800860326840009  6.4176407376720004  4.5517364050699998
  6.1152271587150002  2.2628370748350002  4.6512059245389992
 -2.4938793630389999  8.5352310590429994  1.0825570109199996
  2.7127606837289995  4.5768374409570001  4.4252245441909990
 -1.1506283676300002  6.3636364982100000  1.6272334389600001
 -3.5629659852600000  6.5560342499999997  5.5100700610399995
  7.6813363823700005  0.1923977517900000  5.1958858949400000
  3.5629659852600000  2.1853447500000001  5.1958859389600001
  4.9357561176299996  4.1782917482100004 -1.6272348949400004
  3.6740468676300000  6.7484320017900004 -5.1958874389599998
  6.1974653676300004  2.3777425017899998  1.9414175610399995
  8.6098029852600000  2.1853447500000001 -1.9414190610400006
 -2.6344993823700000  8.5489812482099996 -1.6272348949400004
  1.4838710147400000  6.5560342499999997 -1.6272349389600003
  0.1110808823699997  4.5630872517899999  5.1958858949400000
  1.3727901323700000  1.9929469982100001  8.7645384389600007
 -2.5234185000000000  4.3706895000000001 -1.7843264999999999
  5.0468370000000000  0.0000000000000000 -1.7843264999999999
  0.0000000000000000  0.0000000000000000  5.3529784999999999
  2.5234185000000000  4.3706895000000001  1.7843255000000000
