Zr Ge Te
 1.0000000000000000
     3.7613660000000002    0.0000000000000000    0.0000000000000000
     0.0000000000000000    3.7613660000000002    0.0000000000000000
     0.0000000000000000    0.0000000000000000   10.1263380000000005
 Zr  Ge  Te 
   2   2   2
Cartesian
  0.9403415000000001  0.9403415000000001  2.1600997904700003
  2.8210245000000000  2.8210245000000000  7.9662382095300002
  2.8210245000000000  0.9403415000000001  0.0000000000000000
  0.9403415000000001  2.8210245000000000  0.0000000000000000
  0.9403415000000001  0.9403415000000001  6.6488927727720002
  2.8210245000000000  2.8210245000000000  3.4774452272279999
