Rb I  O 
 1.0000000000000000
    -2.7819710000000000    2.7819710000000000    9.1335429999999995
     2.7819710000000000   -2.7819710000000000    9.1335429999999995
     2.7819710000000000    2.7819710000000000   -9.1335429999999995
 Rb  I   O  
   4   2   1
Cartesian
  0.0000000000000000  2.7819710000000000  0.0000000000000000
 -0.0000000000000000  0.0000000000000000  2.6985600806079999
  0.0000000000000001 -0.0000000000000001 15.5685259193920000
  2.7819710000000000  0.0000000000000000  0.0000000000000000
 -0.0000000000000000  0.0000000000000000  6.4876469283299993
  0.0000000000000000 -0.0000000000000000 11.7794390716699997
  0.0000000000000000  0.0000000000000000  0.0000000000000000
