Nb I  O 
 1.0000000000000000
     3.8125689999999999   -0.0000470000000000   -0.9857690000000000
    -0.5151820000000000    7.3036289999999999   -1.9773520000000000
     0.0798410000000000    0.0591690000000000    8.1694469999999999
 Nb  I   O  
   2   4   2
Cartesian
 -0.0351609499800000  2.1365083700979999 -0.6030841080000000
 -0.1709273656820000  5.2264370181079993  6.7364351607420003
  3.0866967489820003  3.0821926129909998  4.0521390047439994
  2.9088787902709994  6.8571464730059999  3.4470924052670004
  0.4441326432930000  0.5033797494469999  1.7624365206150001
  0.2986002885260001  4.2813046514120003  1.1530914607500000
  1.7708817264439998  2.1017476840110003 -1.0593306208819999
  1.6296253987610001  5.2623170379599991  6.2611948065930001
