Sr Cu Sb
 1.0000000000000000
     4.5106430000000000    0.0000000000000000    0.0000000000000000
    -2.2553209999999999    3.9063319999999999    0.0000000000000000
     0.0000000000000000    0.0000000000000000    8.9143860000000004
 Sr  Cu  Sb 
   2   2   2
Cartesian
  0.0000000000000000  0.0000000000000000  0.0000000000000000
  0.0000000000000000  0.0000000000000000  4.4571930000000002
 -0.0000019219880000  2.6042226354440001  6.6857895000000003
  2.2553239219879999  1.3021093645560000  2.2285965000000001
 -0.0000019219880000  2.6042226354440001  2.2285965000000001
  2.2553239219879999  1.3021093645560000  6.6857895000000003
