Na H  Pd
 1.0000000000000000
     3.3742390000000002    0.0000000000000000   -1.0225660000000001
    -0.3098900000000000    3.3599790000000000   -1.0225660000000001
     0.0230110000000000    0.0252300000000000    6.1543330000000003
 Na  H   Pd 
   2   2   1
Cartesian
  1.9687119594789999  2.1586412032109998  0.4179107333660000
  1.1186480405210000  1.2265677967890001  3.6912902666340002
  2.6212491560640001  2.8741308680070001  2.5711447396949998
  0.4661108209250001  0.5110781067630000  1.5380501059720000
  0.0000000000000000  0.0000000000000000  0.0000000000000000
