Cd Sb O 
 1.0000000000000000
     5.2632989999999999    0.0000000000000000    0.0000000000000000
    -2.6316500000000000    4.5581509999999996    0.0000000000000000
     0.0000000000000000    0.0000000000000000    4.8221410000000002
 Cd  Sb  O  
   1   2   6
Cartesian
  0.0000000000000000  0.0000000000000000  0.0000000000000000
 -0.0000029649830001  3.0387688527169998  2.4110705000000001
  2.6316519649829999  1.5193821472829998  2.4110705000000001
  0.9628703677689999  1.6677408460309999  3.4902849443640003
  3.3375578985809997  0.0000000000000000  3.4902849443640003
 -1.6687792663500001  2.8904101539689999  3.4902849443640003
  1.9257411014190000  0.0000000000000000  1.3318560556360000
 -0.9628707336500001  1.6677408460309999  1.3318560556360000
  1.6687786322309996  2.8904101539689999  1.3318560556360000
