Zr As
 1.0000000000000000
     3.7090310000000000    0.0000000000000000    0.0000000000000000
     0.0000000000000000    6.8354309999999998    0.0000000000000000
     0.0000000000000000    0.0000000000000000    9.0921129999999994
 Zr  As 
   4   8
Cartesian
  2.7817732500000001  1.5416494368779998  1.4689399605060001
  0.9272577500000000  5.2937815631219998  7.6231730394939996
  2.7817732500000001  4.9593649368780000  3.0771165394939999
  0.9272577500000000  1.8760660631219999  6.0149964605059996
  2.7817732500000001  0.8045233932690000  4.1608418564159999
  0.9272577500000000  6.0309076067309997  4.9312711435839995
  2.7817732500000001  4.2222388932690000  0.3852237356970000
  0.9272577500000000  2.6131921067309998  8.7068983564159996
  2.7817732500000001  0.5726313965940000  7.7445618401570000
  0.9272577500000000  6.2627996034060001  1.3475511598430001
  2.7817732500000001  3.9903468965940001  5.8936076598429992
  0.9272577500000000  2.8450841034059997  3.1985053401569998
