Be Re
 1.0000000000000000
     4.3827259999999999    0.0000000000000000    0.0000000000000000
    -2.1913629999999999    3.7955519999999998    0.0000000000000000
     0.0000000000000000    0.0000000000000000    7.1475280000000003
 Be  Re 
   8   4
Cartesian
  0.0000000000000000  0.0000000000000000  0.0000000000000000
  0.0000000000000000  0.0000000000000000  3.5737640000000002
  3.2724807015020003  0.6410004128640000  5.3606460000000000
  0.0000021913630001  1.2819970301759998  1.7868820000000001
  1.0811220842279998  3.1545515871359999  1.7868820000000001
  1.1102409157719999  0.6410004128640000  5.3606460000000000
  2.1913608086370004  2.5135549698239998  5.3606460000000000
 -1.0811177015019999  3.1545515871359999  1.7868820000000001
 -0.0000021913630001  2.5303692651840000  6.7079907656400009
  2.1913651913630003  1.2651827348159999  3.1342267656399998
  2.1913651913630003  1.2651827348159999  0.4395372343600000
 -0.0000021913630001  2.5303692651840000  4.0133012343600001
