Sc Tl Se
 1.0000000000000000
     3.8236629999999998   -0.0144010000000000    7.0573480000000002
     1.7777890000000001    3.3852730000000002    7.0573480000000002
    -0.0239290000000000   -0.0144010000000000    8.0265799999999992
 Sc  Tl  Se 
   1   1   2
Cartesian
  0.0000000000000000  0.0000000000000000  0.0000000000000000
  2.7887615000000001  1.6782355000000002 11.0706379999999989
  4.0801365552359998  2.4553659435720001 16.1970519148319987
  1.4973864447640000  0.9011050564280000  5.9442240851679990
