In Ag S 
 1.0000000000000000
     5.3445710000000002    0.0000000000000000   -2.4368799999999999
    -1.1111050000000000    5.2277990000000001   -2.4368799999999999
    -0.0129470000000000   -0.0159880000000000    7.0509100000000000
 In  Ag  S  
   2   2   4
Cartesian
  2.1167330000000000  2.6138995000000000 -2.4368799999999999
  3.7241784999999998  1.2989557500000000  1.0885750000000001
  0.4963405000000001  3.9128552499999998  1.0885750000000001
  0.0000000000000000  0.0000000000000000  0.0000000000000000
  3.6409142316790000  4.5703271250000004 -2.4743951631200001
  3.1792574576450003  0.7003018415490001  3.4331051631200000
  1.6444447683210002  1.9564276249999999 -0.0923498368800000
 -0.0235784576450000  3.1965654084509998  3.4879398368799999
