Mg Si
 1.0000000000000000
     6.3637439999999996    0.0000000000000000    0.0000000000000000
     0.0000000000000000    6.3637439999999996    0.0000000000000000
     0.0000000000000000    0.0000000000000000    6.3637439999999996
 Mg  Si 
   8   4
Cartesian
  4.7728079999999995  1.5909359999999999  1.5909359999999999
  1.5909359999999999  4.7728079999999995  4.7728079999999995
  4.7728079999999995  4.7728079999999995  4.7728079999999995
  1.5909359999999999  1.5909359999999999  1.5909359999999999
  1.5909359999999999  1.5909359999999999  4.7728079999999995
  4.7728079999999995  4.7728079999999995  1.5909359999999999
  1.5909359999999999  4.7728079999999995  1.5909359999999999
  4.7728079999999995  1.5909359999999999  4.7728079999999995
  0.0000000000000000  0.0000000000000000  0.0000000000000000
  0.0000000000000000  3.1818719999999998  3.1818719999999998
  3.1818719999999998  0.0000000000000000  3.1818719999999998
  3.1818719999999998  3.1818719999999998  0.0000000000000000
