Cd Cu Ge Se
 1.0000000000000000
    -2.9171939999999998    2.9171939999999998    5.6174920000000004
     2.9171939999999998   -2.9171939999999998    5.6174920000000004
     2.9171939999999998    2.9171939999999998   -5.6174920000000004
 Cd  Cu  Ge  Se 
   1   2   1   4
Cartesian
  0.0000000000000000  0.0000000000000000  0.0000000000000000
  0.0000000000000002  2.9171939999999994  2.8087460000000002
  2.9171939999999998  0.0000000000000000  2.8087460000000002
  0.0000000000000000  0.0000000000000000  5.6174920000000004
  1.3508941975200000 -1.3508941975200000  7.1471912465200003
  1.3508971147139999  1.3508971147140001  4.0877871359880009
  1.5662968852860000  1.5662968852860000 -1.5296936290280003
 -1.3508941975200000  1.3508941975200000  7.1471912465200003
