Sc Cd Hg
 1.0000000000000000
     0.0000000000000000    3.4761210000000000    3.4761210000000000
     3.4761210000000000    0.0000000000000000    3.4761210000000000
     3.4761210000000000    3.4761210000000000    0.0000000000000000
 Sc  Cd  Hg 
   1   1   2
Cartesian
  5.2141745477579997  5.2141745477579997  5.2141745477579997
  1.7380535477579999  1.7380535477579999  1.7380535477579999
  0.0000000000000000  0.0000000000000000  0.0000000000000000
  3.4761210000000000  3.4761210000000000  3.4761210000000000
