Re P 
 1.0000000000000000
     2.9443739999999998    0.0000000000000000   -0.7292360000000000
    -0.5901440000000000    5.5216070000000004   -2.3827729999999998
    -0.0065530000000000    0.0114100000000000    6.2822800000000001
 Re  P  
   3   4
Cartesian
  0.5857868708630000  1.7659320403270000  2.3651865504570000
  1.7618901291369999  3.7670849596730003  0.8050844495430002
  0.0000000000000000  0.0000000000000000  0.0000000000000000
 -0.0056229850040000  2.4102752305940003 -0.0227035528939999
  2.3532999850040000  3.1227417694059998  3.1929745528940003
  1.0157862456409998  0.1371712860070000  4.1013448175329996
  1.3318907543590000  5.3958457139930003 -0.9310738175329997
