Ce Cd Ni
 1.0000000000000000
     4.2921519999999997   -0.0000650000000000    2.4779680000000002
     1.4306550000000000    4.0466850000000001    2.4779680000000002
    -0.0000820000000000   -0.0000580000000000    4.9560789999999999
 Ce  Cd  Ni 
   1   1   4
Cartesian
  1.4306898343859999  1.0116404999280000  2.4780037498570002
  4.2921448462689993 -0.0000609532430000  2.4779704781110006
  1.4176832618999999  2.5337147523089998  4.9560329707799999
  3.5831812497000000  2.5336819581839998  6.2062297759800007
  3.5832211901769995  2.5337071740070001  3.7057565844580003
  2.8613786052519998  0.4920241619320000  4.9560255367330006
