Sm Rh
 1.0000000000000000
     3.4811749999999999    0.0000000000000000    0.0000000000000000
     0.0000000000000000    3.4811749999999999    0.0000000000000000
     0.0000000000000000    0.0000000000000000    3.4811749999999999
 Sm  Rh 
   1   1
Cartesian
  1.7405875000000000  1.7405875000000000  1.7405875000000000
  0.0000000000000000  0.0000000000000000  0.0000000000000000
