Rb Hf O 
 1.0000000000000000
     4.0315040000000000    0.0000000000000000    0.0000000000000000
     0.0000000000000000    4.0315040000000000    0.0000000000000000
     0.0000000000000000    0.0000000000000000    9.0139750000000003
 Rb  Hf  O  
   2   2   5
Cartesian
  0.0000000000000000  0.0000000000000000  0.0000000000000000
  0.0000000000000000  0.0000000000000000  4.5069875000000001
  2.0157520000000000  2.0157520000000000  2.5228854068500004
  2.0157520000000000  2.0157520000000000  6.4910895931500008
  2.0157520000000000  0.0000000000000000  2.1267572615000003
  2.0157520000000000  0.0000000000000000  6.8872177384999995
  2.0157520000000000  2.0157520000000000  4.5069875000000001
  0.0000000000000000  2.0157520000000000  2.1267572615000003
  0.0000000000000000  2.0157520000000000  6.8872177384999995
