Tb N 
 1.0000000000000000
     3.0161479999999998    0.0000000000000000    1.7413749999999999
     1.0053829999999999    2.8436530000000002    1.7413749999999999
     0.0000000000000000    0.0000000000000000    3.4827490000000001
 Tb  N  
   1   1
Cartesian
  2.0107654999999998  1.4218265000000001  3.4827494999999997
  0.0000000000000000  0.0000000000000000  0.0000000000000000
