Ca Sb P 
 1.0000000000000000
     5.3824439999999996    0.0000000000000000    0.0000000000000000
     0.0000000000000000    5.3824439999999996    0.0000000000000000
     0.0000000000000000    0.0000000000000000    5.3824439999999996
 Ca  Sb  P  
   3   1   1
Cartesian
  0.0000000000000000  2.6912219999999998  2.6912219999999998
  2.6912219999999998  0.0000000000000000  2.6912219999999998
  2.6912219999999998  2.6912219999999998  0.0000000000000000
  0.0000000000000000  0.0000000000000000  0.0000000000000000
  2.6912219999999998  2.6912219999999998  2.6912219999999998
