Yb Cu
 1.0000000000000000
    -2.1003300000000000    3.3139230000000000    3.5912910000000000
     2.1003300000000000   -3.3139230000000000    3.5912910000000000
     2.1003300000000000    3.3139230000000000   -3.5912910000000000
 Yb  Cu 
   2   4
Cartesian
  2.1003300000000000  1.6569615000000000 -0.3361520201819999
  0.0000000000000000  1.6569615000000000  3.9274430201819999
  2.1003300000000000  0.3499237574159997  2.4140011669620001
 -0.0000000000000001  2.9639992425839998  1.1772898330380002
 -0.0000000000000000  0.3499237574160000  1.1772898330379999
  2.1003300000000005  2.9639992425839998  2.4140011669620001
