Co B  W 
 1.0000000000000000
     3.2335919999999998    0.0000000000000000    0.0000000000000000
     0.0000000000000000    5.6984209999999997    0.0000590000000000
     0.0000000000000000    0.0000680000000000    6.5782420000000004
 Co  B   W  
   4   4   4
Cartesian
  2.4251939999999998  4.8863918521659997  2.9056206140940000
  0.8083979999999999  0.8120686558649999  3.6726935420950002
  2.4251939999999998  2.0370925998309999  0.3836378519690000
  0.8083979999999999  3.6614419871289998  6.1946236790510003
  2.4251939999999998  1.3078757974389998  2.4664003924510003
  0.8083979999999999  4.3905790121029993  4.1119071854370004
  2.4251939999999998  4.1570921000989998  0.8227377206310001
  0.8083979999999999  1.5414196935850000  5.7555632796050000
  2.4251939999999998  5.5433603878069997  5.4276727727730005
  0.8083979999999999  0.1551115169980000  1.1506348052919999
  2.4251939999999998  2.6941225807799993  4.4397689367300002
  0.8083979999999999  3.0043778160619996  2.1385320633880003
