Dy Mg Al
 1.0000000000000000
     0.0000660000000000    3.6634519999999999    3.6634519999999999
     3.6634519999999999    0.0000660000000000    3.6634519999999999
     3.6634519999999999    3.6634519999999999    0.0000660000000000
 Dy  Mg  Al 
   2   1   1
Cartesian
  0.0000000000000000  0.0000000000000000  0.0000000000000000
  3.6634923269700002  3.6634923269700002  3.6634923269700002
  5.4952201730299999  5.4952201730299999  5.4952201730299990
  1.8317424999999998  1.8317424999999998  1.8317425000000001
