Sm Ni
 1.0000000000000000
    -3.7844799999999998   -0.0021900000000000   -0.0000000000000000
    -0.0000000000000000   -0.0000000000000000   -4.2944940000000003
    -1.8952240000000000   -5.1153399999999998   -0.0000000000000000
 Sm  Ni 
   2   2
Cartesian
 -1.8952625885200001 -3.6993850584899999 -3.2208705000000002
 -3.7844433425119997 -1.4182114277900000 -1.0736235000000001
 -1.8945760191200001 -0.7227672200900001 -3.2208705000000002
 -3.7851260498479999 -4.3946962936300000 -1.0736235000000001
