Ag Hg O 
 1.0000000000000000
     6.2238329999999999    0.0000000000000000    0.0000000000000000
     0.0000000000000000    6.2238329999999999    0.0000000000000000
     0.0000000000000000    0.0000000000000000    8.3946500000000004
 Ag  Hg  O  
   8   4   8
Cartesian
  3.1067756139420002  4.6394754000210003  5.2734016049000001
  6.2186921139419997  4.6962740999790000  5.2199108950999999
  1.5275589000209999  0.0051408860580000  7.3720641049000006
  4.6962740999790000  6.2186921139419997  3.1747391049000004
  1.5843575999789998  3.1170573860579998  7.3185733951000005
  0.0051408860580000  1.5275589000209999  1.0225858951000002
  3.1170573860579998  1.5843575999789998  1.0760766048999999
  4.6394754000210003  3.1067756139420002  3.1212483950999999
  1.3140876519539999  1.3140876519539999  4.1973250000000002
  1.7978288480460001  4.4260041519540003  2.0986625000000001
  4.4260041519540003  1.7978288480460001  6.2959875000000007
  4.9097453480460000  4.9097453480460000  0.0000000000000000
  1.5492800771910000  3.8688964124580001  4.0742594309999998
  4.6745529228090001  2.3549365875419999  8.2715844310000008
  3.8688964124580001  1.5492800771910000  4.3203905690000006
  0.7569799124580000  1.5626364228089999  6.1729219310000003
  4.6611965771910002  5.4668530875419998  6.4190530690000003
  2.3549365875419999  4.6745529228090001  0.1230655690000000
  5.4668530875419998  4.6611965771910002  1.9755969310000001
  1.5626364228089999  0.7569799124580000  2.2217280690000001
