Na Mg As
 1.0000000000000000
     4.3858560000000004    0.0000000000000000    0.0000000000000000
     0.0000000000000000    4.3858560000000004    0.0000000000000000
     0.0000000000000000    0.0000000000000000    7.0937419999999998
 Na  Mg  As 
   2   2   2
Cartesian
  1.0964640000000001  1.0964640000000001  2.5982603510500000
  3.2893920000000003  3.2893920000000003  4.4954816489499994
  1.0964640000000001  3.2893920000000003  0.0000000000000000
  3.2893920000000003  1.0964640000000001  0.0000000000000000
  1.0964640000000001  1.0964640000000001  5.5578617320959998
  3.2893920000000003  3.2893920000000003  1.5358802679040000
