Sc Al
 1.0000000000000000
     4.1060800000000004    0.0000000000000000    0.0000000000000000
     0.0000000000000000    4.1060800000000004    0.0000000000000000
     0.0000000000000000    0.0000000000000000    4.1060800000000004
 Sc  Al 
   1   3
Cartesian
  0.0000000000000000  0.0000000000000000  0.0000000000000000
  2.0530400000000002  0.0000000000000000  2.0530400000000002
  0.0000000000000000  2.0530400000000002  2.0530400000000002
  2.0530400000000002  2.0530400000000002  0.0000000000000000
