La In
 1.0000000000000000
     3.9540769999999998    0.0000000000000000    0.0000000000000000
     0.0000000000000000    3.9540769999999998    0.0000000000000000
     0.0000000000000000    0.0000000000000000    3.9540769999999998
 La  In 
   1   1
Cartesian
  1.9770384999999999  1.9770384999999999  1.9770384999999999
  0.0000000000000000  0.0000000000000000  0.0000000000000000
