Li P  S 
 1.0000000000000000
     6.1717659999999999    0.0000000000000000    0.0000000000000000
     0.0000000000000000    8.0185990000000000    0.0000000000000000
     0.0000000000000000    0.0000000000000000   13.0328180000000007
 Li  P   S  
  12   4  16
Cartesian
  2.4032980239320003  0.2685990107030000  4.3340114946280002
  3.7684679760679995  7.7499999892969997  8.6988065053719996
  5.4891810239319998  7.7499999892969997  2.1823975053720002
  0.6825849760679999  0.2685990107030000 10.8504204946280005
  3.7684679760679995  4.2778985107030003  8.6988065053719996
  2.4032980239320003  3.7407004892970002  4.3340114946280002
  0.6825849760679999  3.7407004892970002 10.8504204946280005
  5.4891810239319998  4.2778985107030003  2.1823975053720002
  3.0858829999999999  0.0000000000000000  0.0000000000000000
  0.0000000000000000  0.0000000000000000  6.5164090000000003
  3.0858829999999999  4.0092995000000000  0.0000000000000000
  0.0000000000000000  4.0092995000000000  6.5164090000000003
  0.9405092489740000  2.0046497500000000  1.1660201608240002
  5.2312567510259997  6.0139492499999996 11.8667978391759998
  4.0263922489740001  6.0139492499999996  5.3503888391760004
  2.1453737510259998  2.0046497500000000  7.6824291608240003
  5.0897072978160001  2.0046497500000000  1.3057580354200000
  1.0820587021840000  6.0139492499999996 11.7270599645800004
  2.0038242978160001  6.0139492499999996  5.2106509645800001
  4.1679417021839997  2.0046497500000000  7.8221670354200006
  1.6813310090180000  2.0046497500000000 12.2595548424240004
  4.4904349909820001  6.0139492499999996  0.7732631575760001
  4.7672140090179997  6.0139492499999996  7.2896721575760006
  1.4045519909819999  2.0046497500000000  5.7431458424240001
  1.6723325741900001  0.2928713098760000  2.0052424102980000
  4.4994334258099995  7.7257276901239997 11.0275755897019998
  4.7582155741900003  7.7257276901239997  4.5111665897019995
  1.4135504258099998  0.2928713098760000  8.5216514102980003
  4.4994334258099995  4.3021708098760003 11.0275755897019998
  1.6723325741900001  3.7164281901240002  2.0052424102980000
  1.4135504258099998  3.7164281901240002  8.5216514102980003
  4.7582155741900003  4.3021708098760003  4.5111665897019995
