Au Cl
 1.0000000000000000
     6.5182820000000001    0.0519860000000000    0.0772000000000000
    -2.9092440000000002    5.8332660000000001   -0.0772010000000000
    -2.9092430000000000   -2.2651699999999999    5.3760529999999997
 Au  Cl 
   4   4
Cartesian
 -1.4546215000000000 -1.1325850000000000  2.6880264999999999
  0.0000000000000000  0.0000000000000000  0.0000000000000000
  1.8045190000000000  2.9426260000000002 -0.0000005000000000
  3.2591410000000001  0.0259930000000000  0.0386000000000000
 -2.4319662904800001  3.5159747318400001  3.0364539000799997
 -0.1273799595200001  2.1027232681599997  0.9376845999200000
  0.8271749595200003  1.5173587318400001  4.4383674000799997
  3.1317612904800001  0.1041072681600000  2.3395980999199999
