Ca La Ag
 1.0000000000000000
     0.0000000000000000    3.7525740000000001    3.7525740000000001
     3.7525740000000001    0.0000000000000000    3.7525740000000001
     3.7525740000000001    3.7525740000000001    0.0000000000000000
 Ca  La  Ag 
   1   1   2
Cartesian
  1.8762870000000000  1.8762870000000000  1.8762870000000000
  5.6288534948519997  5.6288534948519997  5.6288534948519997
  3.7525664948520001  3.7525664948520001  3.7525664948520001
  0.0000000000000000  0.0000000000000000  0.0000000000000000
