Sb Cl
 1.0000000000000000
     6.4458560000000000    0.0000000000000000    0.0000000000000000
     0.0000000000000000    8.2800309999999993    0.0000000000000000
     0.0000000000000000    0.0000000000000000    9.2609700000000004
 Sb  Cl 
   4  12
Cartesian
  6.3250864419840003  0.1055207150640000  6.9457275000000003
  3.1021584419840003  4.0344947849360002  2.3152425000000001
  3.3436975580159998  4.2455362150639990  6.9457275000000003
  0.1207695580160000  8.1745102849359998  2.3152425000000001
  0.8358405933760000  1.4333810065029997  4.0077866381699998
  4.0587685933759996  2.7066344934969995  5.2531833618300006
  2.3870874066240000  5.5733965065029993  0.6226983618299999
  5.6100154066240000  6.8466499934969995  8.6382716381700000
  4.3021770076479999  0.5777391630249999  2.3152425000000001
  1.0792490076479999  3.5622763369749997  6.9457275000000003
  5.3666069923519997  4.7177546630249996  2.3152425000000001
  2.1436789923520001  7.7022918369749993  6.9457275000000003
  0.8358405933760000  1.4333810065029997  0.6226983618299999
  4.0587685933759996  2.7066344934969995  8.6382716381700000
  2.3870874066240000  5.5733965065029993  4.0077866381699998
  5.6100154066240000  6.8466499934969995  5.2531833618300006
