Lu O 
 1.0000000000000000
     8.3784890000000001    0.0000000000000000   -2.9622449999999998
    -4.1892449999999997    7.2559849999999999   -2.9622449999999998
     0.0000000000000000   -0.0000000000000000    8.8867300000000000
 Lu  O  
  16  24
Cartesian
 -0.9078557231949996  5.2004442653350003  1.2838998188350002
 -2.8630222296789998  5.4419887500000002  4.6405839311650006
  6.4233224935160003  0.2415444846650000  4.2461434023900004
  2.8630217296790001  1.8139962500000000  4.2461435688349995
  4.0497885064840000  3.3864480153350001 -1.2839034023900000
  3.0024772231949997  5.6835332346650000 -4.2461473188349999
  5.0970997231949999  2.0555407346650001  1.6783401811650003
  7.0522662296790006  1.8139962500000000 -1.6783439311649997
 -2.2340784935159999  7.0144405153350000 -1.2839034023899996
  1.3262222703210007  5.4419887500000002 -1.2839035688349996
  0.1394554935160001  3.8695369846649998  4.2461434023900004
  1.1867667768050001  1.5724517653349999  7.2083873188350003
 -2.0946224999999998  3.6279925000000000 -1.4811224999999999
  4.1892445000000000  0.0000000000000000 -1.4811224999999999
  0.0000000000000000  0.0000000000000000  4.4433650000000000
  2.0946220000000002  3.6279925000000000  1.4811200000000002
 -1.7750082742189999  3.5424009009400002  5.2194481879649999
  0.7680559509130002  1.9695210324900001  5.0913075019049998
  2.2346686877369999  0.0855915990600000 -0.4510731153549999
  0.0049305127990002  3.3084026406749998  2.1290579345850000
  1.8606904140000002  3.3939942397349996 -0.7050391507899998
  6.2393811465299995  0.2339982602650000  1.9892872642400004
 -0.8224202820989996  5.3635152722249995 -0.9729742051449995
 -0.7730120991799999  1.9780758388049999 -0.8331907101299999
  0.9031714090810008  5.5204622277750000 -3.4133121318849997
  5.2406735386500003  1.6499166611950000 -0.4510624033199999
 -0.0856826397810000  0.3195898593250000  2.2572234024449997
  2.9615276355689999  1.6584714675099999  1.9892874254850001
  5.9642522742189996  3.7135840990600002 -2.2572081879650003
  3.4211880490870001  5.2864639675100005 -2.1290675019049994
  1.9545753122630005  7.1703934009400001  3.4133131153550003
  4.1843134872009999  3.9475823593250001  0.8331820654150001
  1.2277163644310003  5.5975135324899998  0.9729525745150006
  4.2749266397810013  6.9363951406749997  0.7050165975550006
 -1.0514295386499994  5.6060683388049997  3.4133024033200008
  3.2860725909190003  1.7355227722250000  6.3755521318850006
  4.9622560991800002  5.2779091611949998  3.7954307101300002
  5.0116642820989998  1.8924697277750002  3.9352142051449999
 -2.0501371465299996  7.0219867397350004  0.9729527357600005
  2.3285535860000004  3.8619907602649999  3.6672791507899998
