Sm
 1.0000000000000000
     3.6496890000000000    0.0000000000000000    0.0000000000000000
    -1.8248439999999999    3.1607229999999999    0.0000000000000000
     0.0000000000000000    0.0000000000000000   11.7208559999999995
 Sm 
   4
Cartesian
  0.0000000000000000  0.0000000000000000  0.0000000000000000
  0.0000000000000000  0.0000000000000000  5.8604279999999997
 -0.0000014915110000  2.1071497202409999  2.9302139999999999
  1.8248464915109999  1.0535732797590001  8.7906420000000001
