Na Al Si
 1.0000000000000000
     4.1101919999999996    0.0000000000000000    0.0000000000000000
     0.0000000000000000    4.1101919999999996    0.0000000000000000
     0.0000000000000000    0.0000000000000000    7.2881549999999997
 Na  Al  Si 
   2   2   2
Cartesian
  1.0275479999999999  1.0275479999999999  4.6502510266799995
  3.0826439999999997  3.0826439999999997  2.6379039733199998
  3.0826439999999997  1.0275479999999999  0.0000000000000000
  1.0275479999999999  3.0826439999999997  0.0000000000000000
  1.0275479999999999  1.0275479999999999  1.5171970908149999
  3.0826439999999997  3.0826439999999997  5.7709579091849994
