In Pt
 1.0000000000000000
     3.9261010000000001    0.0000000000000000    2.2667359999999999
     1.3087020000000000    3.7015650000000000    2.2667359999999999
     0.0000000000000000    0.0000000000000000    4.5334719999999997
 In  Pt 
   2   1
Cartesian
  3.9261022500000005  2.7761737499999999  6.8002079999999996
  1.3087007500000001  0.9253912500000000  2.2667359999999999
  0.0000000000000000  0.0000000000000000  0.0000000000000000
