Mg Pt
 1.0000000000000000
     3.9657309999999999    0.0000000000000000    0.0000000000000000
     0.0000000000000000    3.9657309999999999    0.0000000000000000
     0.0000000000000000    0.0000000000000000    3.9651850000000000
 Mg  Pt 
   1   3
Cartesian
  0.0000000000000000  0.0000000000000000  0.0000000000000000
  1.9828654999999999  1.9828654999999999  0.0000000000000000
  0.0000000000000000  1.9828654999999999  1.9825925000000000
  1.9828654999999999  0.0000000000000000  1.9825925000000000
