Mn P 
 1.0000000000000000
     5.0676490000000003   -0.0028690000000000    0.4582680000000000
     2.5219680000000002    5.2440740000000003    0.0829870000000000
    -0.0005810000000000    0.0082880000000000   16.2921440000000004
 Mn  P  
   6  24
Cartesian
  2.9880598852849998  0.9574166294730001  9.9158133848740011
  2.8749031969350005  4.6125243801310001  1.3570984317430002
  4.7141378707140005  0.6369686170000001 15.4763010265250003
  4.6009761147150003  4.2920763705270000  6.9175856151259998
  3.8735220731560007  2.8833778567950006  4.4866795804250001
  3.7155139268440003  2.3661151432050005 12.3467194195750007
  5.3036347658379999  1.2604917891990000  4.8991921756520007
  5.2262830741050008  3.9514343124529998 12.9092617002489991
  6.1171737519230005  2.7674440231639998  7.5551607548020003
  4.1144127642800008  4.5339995396900008  9.1933304518799996
  4.3149909534690005  2.9856169226320004  2.1979581714009999
  4.4347902214659998  2.5958627847640003 10.2668381578070012
  5.7081731925670001  4.3382173657520005 15.0576242908660003
  5.1704964770760000  0.7728701605070001 13.1571207139909987
  2.2184274841209999  0.7455809974470000 12.0350106103810006
  3.5998019086710000  4.2527236216890003 15.5907738994820004
  6.4493430427509999  2.9914280326980003  1.5574161276340002
  3.4746232357200006  0.7154934603100001  7.6400685481200004
  1.8808628074330001  0.9112756342480001  1.7757747091339999
  1.1396929572490000  2.2580649673019999 15.2759828723660007
  3.2740450465310000  2.2638760773680002 14.6354408285990001
  7.0452901028350006  4.6015096327000000 10.2857251404700012
  2.2854012341620003  3.9890012108010002 11.9342068243480011
  3.9892340913290001  0.9967693783110001  1.2426251005180000
  5.3706085158790007  4.5039120025530002  4.7983883896190003
  2.3627529258950002  1.2980586875470002  3.9241372997510005
  0.5437458971650001  0.6479833672999999  6.5476738595300006
  2.4185395229240001  4.4766228394930003  3.6762782860090000
  3.1542457785340003  2.6536302152360003  6.5665608421929997
  1.4718622480770001  2.4820489768359999  9.2782382451980006
