Cr Si
 1.0000000000000000
     4.5970110000000002    0.0000000000000000    0.0000000000000000
     0.0000000000000000    4.5970110000000002    0.0000000000000000
     0.0000000000000000    0.0000000000000000    4.5970110000000002
 Cr  Si 
   4   4
Cartesian
  3.9633819888150001  2.9321345111850001  1.6648764888150001
  2.9321345111850001  1.6648764888150001  3.9633819888150001
  1.6648764888150001  3.9633819888150001  2.9321345111850001
  0.6336290111850000  0.6336290111850000  0.6336290111850000
  0.7019359976340001  1.5965695023660000  3.0004414976340001
  1.5965695023660000  3.0004414976340001  0.7019359976340001
  3.0004414976340001  0.7019359976340001  1.5965695023660000
  3.8950750023660001  3.8950750023660001  3.8950750023660001
