Ba Zn As
 1.0000000000000000
     4.2630499999999998    0.0000000000000000    0.0000000000000000
     0.0000000000000000   10.0525079999999996    0.0000000000000000
     0.0000000000000000    0.0000000000000000   10.9019600000000008
 Ba  Zn  As 
   4   8   8
Cartesian
  1.0657624999999999  7.5107715622319997  7.3379130407200002
  3.1972874999999998  2.5417364377679998  3.5640469592800001
  1.0657624999999999  2.4845175622319999  9.0150269592800019
  3.1972874999999998  7.5679904377679996  1.8869330407200002
  3.1972874999999998  4.0236470096039998  0.5489245879600000
  1.0657624999999999  6.0288609903959998 10.3530354120400006
  1.0657624999999999  1.0026069903960000  5.9999045879600006
  3.1972874999999998  9.0499010096039996  4.9020554120400002
  3.1972874999999998  9.5793766584719986  9.6199985236000014
  1.0657624999999999  0.4731313415280000  1.2819614764000000
  3.1972874999999998  4.5531226584719997  6.7329414763999997
  1.0657624999999999  5.4993853415279998  4.1690185236000010
  3.1972874999999998  6.5203281065159988  5.0056676398800004
  1.0657624999999999  3.5321899459920001  5.8962923601200004
  1.0657624999999999  8.5584338934840005 10.4566476398800017
  3.1972874999999998  1.4940741065159999  0.4453123601200000
  3.1972874999999998  5.2460922974519999  9.1701400461600002
  1.0657624999999999  4.8064157025479997  1.7318199538400001
  3.1972874999999998  0.2198382974520000  7.1827999538400009
  1.0657624999999999  9.8326697025479994  3.7191600461600003
