Mg Rh
 1.0000000000000000
     3.1271589999999998    0.0000000000000000    0.0000000000000000
     0.0000000000000000    3.1271589999999998    0.0000000000000000
     0.0000000000000000    0.0000000000000000    3.1271589999999998
 Mg  Rh 
   1   1
Cartesian
  0.0000000000000000  0.0000000000000000  0.0000000000000000
  1.5635794999999999  1.5635794999999999  1.5635794999999999
