Sc Si O 
 1.0000000000000000
     4.6490429999999998    0.0009640000000000   -0.6294850000000000
    -0.9156720000000000    5.0949200000000001   -1.3999729999999999
     0.0010320000000000    0.0018410000000000    5.3625170000000004
 Sc  Si  O  
   2   2   7
Cartesian
 -0.2828483112000000  1.5790402393250000  3.2683429092500003
 -0.6317916887999999  3.5177207606750001  0.6942010907500001
  1.6922941258289999  1.1406356083310001  0.6296520229810002
  2.0421088741709998  3.9570893916690002  2.7034069770190006
  2.8137123768449999  4.6969408379290005  1.4683241722030003
  0.6321177041789998  2.0040548727970000 -0.2640564492629999
  0.9206906231549998  0.4007841620710000  1.8647348277970002
  3.1022852958210003  3.0936701272029996  3.5971154492630002
  2.3245214999999999  0.0004820000000000 -0.3147425000000000
  0.7478239449029996  3.0905330886830003  2.2262211581510005
  2.9865790550969997  2.0071919113169998  1.1068378418490001
