Mn Pt
 1.0000000000000000
     2.9459469999999999    0.0000000000000000    0.0000000000000000
     0.0000000000000000    2.9459469999999999    0.0000000000000000
     0.0000000000000000    0.0000000000000000    3.5028329999999999
 Mn  Pt 
   1   1
Cartesian
  0.0000000000000000  0.0000000000000000  0.0000000000000000
  1.4729734999999999  1.4729734999999999  1.7514164999999999
