Na Ca Tl
 1.0000000000000000
     0.0000000000000000    3.9339729999999999    3.9339729999999999
     3.9339729999999999    0.0000000000000000    3.9339729999999999
     3.9339729999999999    3.9339729999999999    0.0000000000000000
 Na  Ca  Tl 
   1   2   1
Cartesian
  3.9339729999999999  3.9339729999999999  3.9339729999999999
  5.9009594999999999  5.9009594999999999  5.9009594999999999
  1.9669865000000000  1.9669865000000000  1.9669865000000000
  0.0000000000000000  0.0000000000000000  0.0000000000000000
