Sc Ni P 
 1.0000000000000000
     3.7329650000000001    0.0000000000000000    0.0000000000000000
     0.0000000000000000    6.3351940000000004    0.0000000000000000
     0.0000000000000000    0.0000000000000000    7.0385150000000003
 Sc  Ni  P  
   4   4   4
Cartesian
  2.7997237500000001  3.0450806832340001  1.3057923413150001
  0.9332412500000000  0.1225163167660000  4.8250498413150007
  2.7997237500000001  6.2126776832340003  2.2134651586850000
  0.9332412500000000  3.2901133167660004  5.7327226586849998
  0.9332412500000000  4.0587814103680007  3.0896969295500005
  0.9332412500000000  0.8911844103680000  0.4295605704500000
  2.7997237500000001  5.4440095896320004  6.6089544295499998
  2.7997237500000001  2.2764125896320002  3.9488180704500002
  0.9332412500000000  4.8624451156260005  0.8260541974300000
  0.9332412500000000  1.6948481156260002  2.6932033025700002
  2.7997237500000001  1.4727488843740002  6.2124608025700008
  2.7997237500000001  4.6403458843740006  4.3453116974299997
