Ca Cu Si
 1.0000000000000000
     4.0659400000000003    0.0000000000000000    0.0000000000000000
     0.0000000000000000    4.0659400000000003    0.0000000000000000
     0.0000000000000000    0.0000000000000000    9.9323049999999995
 Ca  Cu  Si 
   2   4   4
Cartesian
  0.0000000000000000  0.0000000000000000  0.0000000000000000
  2.0329700000000002  2.0329700000000002  4.9661524999999997
  2.0329700000000002  0.0000000000000000  7.4492287499999996
  0.0000000000000000  2.0329700000000002  7.4492287499999996
  0.0000000000000000  2.0329700000000002  2.4830762499999999
  2.0329700000000002  0.0000000000000000  2.4830762499999999
  2.0329700000000002  2.0329700000000002  1.1862747799800000
  2.0329700000000002  2.0329700000000002  8.7460302200199997
  0.0000000000000000  0.0000000000000000  6.1524272799799995
  0.0000000000000000  0.0000000000000000  3.7798777200200000
