Al Re
 1.0000000000000000
     7.5366879999999998    0.0000000000000000    0.0000000000000000
     0.0000000000000000    7.5366879999999998    0.0000000000000000
     0.0000000000000000    0.0000000000000000    7.5366879999999998
 Al  Re 
  24   2
Cartesian
  6.1209739160160002  0.0000000000000000  2.3245180697760000
  5.2121699302239994  6.1209739160160002  0.0000000000000000
  0.0000000000000000  5.2121699302239994  1.4157140839840001
  2.3245180697760000  6.1209739160160002  0.0000000000000000
  0.0000000000000000  2.3245180697760000  6.1209739160160002
  2.3245180697760000  1.4157140839840001  0.0000000000000000
  0.0000000000000000  5.2121699302239994  6.1209739160160002
  0.0000000000000000  2.3245180697760000  1.4157140839840001
  5.2121699302239994  1.4157140839840001  0.0000000000000000
  1.4157140839840001  0.0000000000000000  2.3245180697760000
  6.1209739160160002  0.0000000000000000  5.2121699302239994
  1.4157140839840001  0.0000000000000000  5.2121699302239994
  2.3526299160160002  3.7683439999999999  6.0928620697760003
  1.4438259302240000  2.3526299160160002  3.7683439999999999
  3.7683439999999999  1.4438259302240000  5.1840580839839996
  6.0928620697760003  2.3526299160160002  3.7683439999999999
  3.7683439999999999  6.0928620697760003  2.3526299160160002
  6.0928620697760003  5.1840580839839996  3.7683439999999999
  3.7683439999999999  1.4438259302240000  2.3526299160160002
  3.7683439999999999  6.0928620697760003  5.1840580839839996
  1.4438259302240000  5.1840580839839996  3.7683439999999999
  5.1840580839839996  3.7683439999999999  6.0928620697760003
  2.3526299160160002  3.7683439999999999  1.4438259302240000
  5.1840580839839996  3.7683439999999999  1.4438259302240000
  0.0000000000000000  0.0000000000000000  0.0000000000000000
  3.7683439999999999  3.7683439999999999  3.7683439999999999
