Ce Cd
 1.0000000000000000
     4.4726629999999998    0.0000000000000000    2.5822940000000001
     1.4908880000000000    4.2168659999999996    2.5822940000000001
     0.0000000000000000    0.0000000000000000    5.1645859999999999
 Ce  Cd 
   1   3
Cartesian
  0.0000000000000000  0.0000000000000000  0.0000000000000000
  2.9817754999999999  2.1084329999999998  5.1645870000000000
  1.4908877500000000  1.0542164999999999  2.5822935000000000
  4.4726632500000001  3.1626494999999997  7.7468804999999996
