Ca Pb
 1.0000000000000000
     4.9175170000000001    0.0000000000000000    0.0000000000000000
     0.0000000000000000    4.9175170000000001    0.0000000000000000
     0.0000000000000000    0.0000000000000000    4.9175170000000001
 Ca  Pb 
   1   3
Cartesian
  0.0000000000000000  0.0000000000000000  0.0000000000000000
  0.0000000000000000  2.4587585000000001  2.4587585000000001
  2.4587585000000001  2.4587585000000001  0.0000000000000000
  2.4587585000000001  0.0000000000000000  2.4587585000000001
