Ni Br
 1.0000000000000000
     3.6573449999999998    0.0894320000000000    5.8147510000000002
     1.7438389999999999    3.2160829999999998    5.8147510000000002
     0.1461320000000000    0.0894320000000000    6.8677609999999998
 Ni  Br 
   1   2
Cartesian
  0.0000000000000000  0.0000000000000000  0.0000000000000000
  1.4484485861280001  0.8864478212760000  4.8297833474040006
  4.0988674138720000  2.5084991787240001 13.6674796525960005
