Hg Pd
 1.0000000000000000
     3.0875590000000002    0.0000000000000000    0.0000000000000000
     0.0000000000000000    3.0875590000000002    0.0000000000000000
     0.0000000000000000    0.0000000000000000    3.8211590000000002
 Hg  Pd 
   1   1
Cartesian
  0.0000000000000000  0.0000000000000000  0.0000000000000000
  1.5437795000000001  1.5437795000000001  1.9105795000000001
