Dy Cu Ge
 1.0000000000000000
     2.1160429999999999   -3.6650950000000000    0.0000000000000000
     2.1160429999999999    3.6650950000000000    0.0000000000000000
     0.0000000000000000    0.0000000000000000    7.2032420000000004
 Dy  Cu  Ge 
   2   2   2
Cartesian
  0.0000000000000000  0.0000000000000000  5.4794125472540003
  0.0000000000000000  0.0000000000000000  1.8777915472540001
  2.1160429999999999 -1.2217007767299999  3.9388695871980004
  2.1160429999999999  1.2217007767300001  0.3372485871980000
  2.1160429999999999  1.2217007767300001  3.4928088263479999
  2.1160429999999999 -1.2217007767299999  7.0944298263480006
