Ti Ga Fe
 1.0000000000000000
     3.5458479999999999    0.0030480000000000    2.0436100000000001
     1.1848170000000000    3.3420390000000002    2.0436139999999998
    -0.0006430000000000   -0.0004490000000000    4.0883710000000004
 Ti  Ga  Fe 
   1   1   2
Cartesian
  2.3650665829190003  1.6723457817730001  4.0877872670190003
  4.7306413421740006  3.3450702714220002  4.0872321824769999
  1.1821803439190000  0.8359220663370001  2.0430831996959999
  3.5478085468139997  2.5087025388780004  6.1325077188230006
