Nd Cu Si
 1.0000000000000000
     3.8048709999999999    0.0000000000000000   -1.4416720000000001
    -0.5462520000000000    3.7654540000000001   -1.4416720000000001
    -0.0117140000000000   -0.0135360000000000    5.7108449999999999
 Nd  Cu  Si 
   1   2   2
Cartesian
  0.0000000000000000  0.0000000000000000  0.0000000000000000
  2.7112332500000003  0.9345955000000000  1.4137504999999999
  0.5356717500000000  2.8173225000000000  1.4137504999999999
  2.0231778282950001  2.3378563165899999 -0.4021710662299999
  1.2237271717050000  1.4140616834100002  3.2296720662300000
