Cd N  O 
 1.0000000000000000
     7.5303350000000000    0.0000000000000000    0.0000000000000000
     0.0000000000000000    7.5099950000000000    0.0000000000000000
     0.0000000000000000    0.0000000000000000   15.4421269999999993
 Cd  N   O  
   8  16  48
Cartesian
  2.1334493301899999  7.3561001824600005  9.5893137929679995
  5.8986168301899999  0.1538948175400000  5.8528132070319998
  5.8986168301899999  3.9088923175399994  9.5893137929679995
  2.1334493301899999  3.6011026824600001  5.8528132070319998
  1.9979183608600000  3.5245833434049998 13.5125251364609991
  5.7630858608600004  3.9854116565949997  1.9296018635390000
  5.7630858608600004  0.2304141565950000 13.5125251364609991
  1.9979183608600000  7.2795808434050002  1.9296018635390000
  4.7401350331200005  2.5554034686649998  4.5180111912789993
  6.9502055219350005  5.0916038801150005 14.6844590387449987
  3.1850380219349996  2.4183911198849999  0.7576679612549999
  3.1850380219349996  6.1733886198849994 14.6844590387449987
  6.9502055219350005  1.3366063801149999  0.7576679612549999
  4.4484776282349996  2.7433260735500000 12.1175451517890007
  0.6833101282350000  4.7666689264500004  3.3245818482109999
  0.6833101282350000  1.0116714264500000 12.1175451517890007
  4.4484776282349996  6.4983235735499996  3.3245818482109999
  0.9749675331200001  4.9545915313349997 10.9241158087210000
  0.9749675331200001  1.1995940313350002  4.5180111912789993
  4.7401350331200005  6.3104009686650002 10.9241158087210000
  7.0511044805999994  5.0418576732349996  6.9069082381789997
  3.2859369806000003  2.4681373267650000  8.5352187618209996
  3.2859369806000003  6.2231348267650004  6.9069082381789997
  7.0511044805999994  1.2868601732350000  8.5352187618209996
  1.7481898612550000  4.9526314226399997  3.9589907517519998
  0.4395983662950000  5.1202920610150002  9.7926557213039995
  0.4395983662950000  1.3652945610149998  5.6494712786959997
  4.2047658662950003  6.1447004389849997  9.7926557213039995
  4.3869472609500004  3.5172085283149999  3.7914745580559996
  0.6217797609500000  3.9927864716850001 11.6506524419440005
  0.6217797609500000  0.2377889716850000  3.7914745580559996
  4.3869472609500004  7.2722060283149998 11.6506524419440005
  5.6221481110000004  5.5032567460449995 11.3104778262609980
  1.8569806110000000  2.0067382539549996  4.1316491737389995
  1.8569806110000000  5.7617357539550005 11.3104778262609980
  5.6221481110000004  1.7482592460449999  4.1316491737389995
  6.0747061838300001  1.5121900632150000  7.7713893918929999
  2.3095386838300000  5.9978049367850002  7.6707376081069993
  2.3095386838300000  2.2428074367849997  7.7713893918929999
  6.0747061838300001  5.2671875632149998  7.6707376081069993
  7.3581764812299992  2.1235412061900001  9.4205159027309993
  3.5930089812300001  5.3864537938100003  6.0216110972689991
  3.5930089812300001  1.6314562938099999  9.4205159027309993
  7.3581764812299992  5.8785387061899996  6.0216110972689991
  0.1809388893800000  0.2239480509000000  8.4089948157229983
  3.9461063893800006  7.2860469491000002  7.0331321842769992
  3.9461063893800006  3.5310494490999997  8.4089948157229983
  0.1809388893800000  3.9789455508999998  7.0331321842769992
  7.1966959774900001  5.9212180077749998 13.7708719211710005
  0.1134219057700000  0.2985072812600000  0.6333125125240000
  3.8785894057700001  7.2114877187399999 14.8088144874759990
  3.8785894057700001  3.4564902187400000  0.6333125125240000
  5.5133573612550002  6.3123610773600003  3.9589907517519998
  1.7481898612550000  1.1976339226400001 11.4831362482479982
  4.2047658662950003  2.3897029389850002  5.6494712786959997
  5.5133573612550002  2.5573635773599999 11.4831362482479982
  4.2580731077599996  5.8870024705549993  2.2286849792750001
  0.4929056077600000  1.6229925294450001 13.2134420207249992
  0.4929056077600000  5.3779900294450007  2.2286849792750001
  4.2580731077599996  2.1320049705550002 13.2134420207249992
  3.5640699038250001  7.2808575425550002  3.7470784429310000
  7.3292374038250001  0.2291374574450000 11.6950485570689988
  5.9953816349400002  5.3073209764950002  0.0369066835300000
  3.5640699038250001  3.5258600425549997 11.6950485570689988
  0.1134219057700000  4.0535047812600000 14.8088144874759990
  7.1966959774900001  2.1662205077749999  1.6712550788289999
  3.4315284774900001  5.3437744922250001 13.7708719211710005
  3.4315284774900001  1.5887769922249999  1.6712550788289999
  5.9953816349400002  1.5523234764950000 15.4052203164699986
  2.2302141349399998  5.9576715235049997  0.0369066835300000
  2.2302141349399998  2.2026740235049997 15.4052203164699986
  7.3292374038250001  3.9841349574449998  3.7470784429310000
