Lu Zn Pd
 1.0000000000000000
     0.0000000000000000    3.2293630000000002    3.2293630000000002
     3.2293630000000002    0.0000000000000000    3.2293630000000002
     3.2293630000000002    3.2293630000000002    0.0000000000000000
 Lu  Zn  Pd 
   1   1   2
Cartesian
  1.6146750412740001  1.6146750412740001  1.6146750412740001
  4.8440380412740005  4.8440380412740005  4.8440380412740005
  0.0000000000000000  0.0000000000000000  0.0000000000000000
  3.2293630000000002  3.2293630000000002  3.2293630000000002
