Nb In Ru
 1.0000000000000000
     0.0000000000000000    3.1801870000000001    3.1801870000000001
     3.1801870000000001    0.0000000000000000    3.1801870000000001
     3.1801870000000001    3.1801870000000001    0.0000000000000000
 Nb  In  Ru 
   1   1   2
Cartesian
  3.1801870000000001  3.1801870000000001  3.1801870000000001
  0.0000000000000000  0.0000000000000000  0.0000000000000000
  4.7702805000000001  4.7702805000000001  4.7702805000000001
  1.5900935000000000  1.5900935000000000  1.5900935000000000
