Al Fe C 
 1.0000000000000000
     3.7530800000000002    0.0000000000000000    0.0000000000000000
     0.0000000000000000    3.7530800000000002    0.0000000000000000
     0.0000000000000000    0.0000000000000000    3.7530800000000002
 Al  Fe  C  
   1   3   1
Cartesian
  0.0000000000000000  0.0000000000000000  0.0000000000000000
  0.0000000000000000  1.8765400000000001  1.8765400000000001
  1.8765400000000001  1.8765400000000001  0.0000000000000000
  1.8765400000000001  0.0000000000000000  1.8765400000000001
  1.8765400000000001  1.8765400000000001  1.8765400000000001
