Sm Ge Rh
 1.0000000000000000
     4.6873570000000004   -0.0316540000000000    2.0768610000000001
     1.3390860000000000    4.4921239999999996    2.0768610000000001
    -0.0427680000000000   -0.0316540000000000    5.1266809999999996
 Sm  Ge  Rh 
   2   1   3
Cartesian
  5.2131152845250002  3.8584863619679992  8.0853005428689997
  0.7705597154750001  0.5703296380320000  1.1951024571309998
  2.9918375000000004  2.2144080000000002  4.6402014999999999
  2.3222945000000004 -0.0316540000000000  3.6017709999999998
  3.0132215000000002  2.2302350000000000  2.0768610000000001
  0.6481590000000000  2.2302350000000000  3.6017709999999998
