Pa As
 1.0000000000000000
     3.5402490000000002    0.0000000000000000    2.0439630000000002
     1.1800830000000000    3.3377770000000000    2.0439630000000002
    -0.0000000000000000   -0.0000000000000000    4.0879269999999996
 Pa  As 
   1   1
Cartesian
  2.3601660000000000  1.6688885000000000  4.0879265000000000
  0.0000000000000000  0.0000000000000000  0.0000000000000000
