Al P  Pt
 1.0000000000000000
     3.9175879999999998    0.0000000000000000    0.0000000000000000
     0.0000000000000000    3.9175879999999998    0.0000000000000000
     0.0000000000000000    0.0000000000000000    6.8286110000000004
 Al  P   Pt 
   1   1   5
Cartesian
  1.9587939999999999  1.9587939999999999  0.0000000000000000
  0.0000000000000000  0.0000000000000000  3.4143055000000002
  0.0000000000000000  1.9587939999999999  1.9603303314360001
  0.0000000000000000  1.9587939999999999  4.8682806685640001
  1.9587939999999999  0.0000000000000000  1.9603303314360001
  1.9587939999999999  0.0000000000000000  4.8682806685640001
  0.0000000000000000  0.0000000000000000  0.0000000000000000
