Er Si O 
 1.0000000000000000
     4.4442159999999999    3.4016090000000001   -0.0043660000000000
    -4.4442159999999999    3.4016090000000001   -0.0043660000000000
     0.0000000000000000    0.9855490000000000    4.6194970000000000
 Er  Si  O  
   2   2   7
Cartesian
 -1.7148807394880003  3.4016090000000005 -0.0043660000000000
  1.7148807394880003  3.4016090000000005 -0.0043660000000000
  0.0000000000000000  2.0724457977499999  2.7147176893400000
  0.0000000000000000  5.7163212022499996  1.8960473106600000
  1.3391000556079995  5.4130844340540003  1.0116761214390000
  1.3391000556079999  2.3756825659460001  3.5990888785610000
 -1.3391000556079999  2.3756825659460001  3.5990888785610000
 -1.3391000556079999  5.4130844340540003  1.0116761214390000
  0.0000000000000000  0.4927745000000000  2.3097485000000000
 -0.0000000000000002  4.9018414286039995  3.2993553364740000
  0.0000000000000000  2.8869255713960000  1.3114096635260000
