Li Ag Pb
 1.0000000000000000
     4.0921269999999996   -0.0000000000000000    2.3625889999999998
     1.3640420000000000    3.8580930000000002    2.3625889999999998
    -0.0000000000000000   -0.0000000000000000    4.7251820000000002
 Li  Ag  Pb 
   2   1   1
Cartesian
  1.3640422499999998  0.9645232500000001  2.3625900000000000
  2.7280844999999996  1.9290465000000001  4.7251799999999999
  4.0921267499999994  2.8935697500000002  7.0877699999999999
  0.0000000000000000  0.0000000000000000  0.0000000000000000
