Ac Ir Pd
 1.0000000000000000
     0.0000000000000000    3.7418840000000002    3.7418840000000002
     3.7418840000000002    0.0000000000000000    3.7418840000000002
     3.7418840000000002    3.7418840000000002    0.0000000000000000
 Ac  Ir  Pd 
   2   1   1
Cartesian
  3.7418765162320002  3.7418765162320002  3.7418765162320002
  0.0000000000000000  0.0000000000000000  0.0000000000000000
  1.8709345162320001  1.8709345162320001  1.8709345162320001
  5.6128260000000001  5.6128260000000001  5.6128260000000001
