Hg Cl
 1.0000000000000000
     4.2340730000000004    0.0000000000000000   -1.6077800000000000
    -0.6105120000000001    4.1898280000000003   -1.6077800000000000
     0.0016350000000000    0.0018900000000000    6.3833909999999996
 Hg  Cl 
   2   2
Cartesian
  3.2021189118230002  3.7025252414740004  2.0536682346469992
  0.4230770881770000  0.4891927585260001  1.1141627653530000
  2.3978473733170000  2.7725675020459999 -0.0643853179669999
  1.2273486266830000  1.4191504979539999  3.2322163179669996
