Lu Au
 1.0000000000000000
     3.4966480000000000    0.0000000000000000    0.0000000000000000
     0.0000000000000000    3.4966480000000000    0.0000000000000000
     0.0000000000000000    0.0000000000000000    3.4966480000000000
 Lu  Au 
   1   1
Cartesian
  1.7483240000000000  1.7483240000000000  1.7483240000000000
  0.0000000000000000  0.0000000000000000  0.0000000000000000
