Ni Sn
 1.0000000000000000
     3.6895539999999998    0.0000000000000000    0.0000000000000000
     0.0000000000000000    3.6895870000000000    0.0000000000000000
     0.0000000000000000    0.0000000000000000    3.6895530000000001
 Ni  Sn 
   3   1
Cartesian
  0.0000000000000000  1.8447935000000000  1.8447765000000000
  1.8447769999999999  1.8447935000000000  0.0000000000000000
  1.8447769999999999  0.0000000000000000  1.8447765000000000
  0.0000000000000000  0.0000000000000000  0.0000000000000000
