La Pt
 1.0000000000000000
     5.4285459999999999    0.0000000000000000    0.0000000000000000
    -2.7142729999999999    4.7012580000000002    0.0000000000000000
     0.0000000000000000    0.0000000000000000    4.3933289999999996
 La  Pt 
   1   5
Cartesian
  0.0000000000000000  0.0000000000000000  0.0000000000000000
 -0.0000027142730000  3.1341735670860000  0.0000000000000000
  2.7142757142730001  1.5670844329139999  0.0000000000000000
  2.7142729999999999  0.0000000000000000  2.1966644999999998
  1.3571365000000000  2.3506290000000001  2.1966644999999998
 -1.3571365000000000  2.3506290000000001  2.1966644999999998
