Ta Al Co
 1.0000000000000000
     5.9582720000000000    0.0000000000000000    0.0000000000000000
     0.0000000000000000    5.9582720000000000    0.0000000000000000
     0.0000000000000000    0.0000000000000000    5.9582720000000000
 Ta  Al  Co 
   4   4   8
Cartesian
  0.0000000000000000  0.0000000000000000  0.0000000000000000
  0.0000000000000000  2.9791360000000000  2.9791360000000000
  2.9791360000000000  0.0000000000000000  2.9791360000000000
  2.9791360000000000  2.9791360000000000  0.0000000000000000
  0.0000000000000000  0.0000000000000000  2.9791360000000000
  0.0000000000000000  2.9791360000000000  0.0000000000000000
  2.9791360000000000  0.0000000000000000  0.0000000000000000
  2.9791360000000000  2.9791360000000000  2.9791360000000000
  4.4687039999999998  1.4895680000000000  1.4895680000000000
  1.4895680000000000  4.4687039999999998  4.4687039999999998
  4.4687039999999998  4.4687039999999998  4.4687039999999998
  1.4895680000000000  1.4895680000000000  1.4895680000000000
  1.4895680000000000  1.4895680000000000  4.4687039999999998
  4.4687039999999998  4.4687039999999998  1.4895680000000000
  1.4895680000000000  4.4687039999999998  1.4895680000000000
  4.4687039999999998  1.4895680000000000  4.4687039999999998
