Dy Tl Ag
 1.0000000000000000
     0.0000000000000000    3.6952630000000002    3.6952630000000002
     3.6952630000000002    0.0000000000000000    3.6952630000000002
     3.6952630000000002    3.6952630000000002    0.0000000000000000
 Dy  Tl  Ag 
   2   1   1
Cartesian
  3.6952556094740006  3.6952556094740006  3.6952556094740006
  0.0000000000000000  0.0000000000000000  0.0000000000000000
  5.5428871094740000  5.5428871094740000  5.5428871094740000
  1.8476315000000001  1.8476315000000001  1.8476315000000001
