Tm Sn Rh
 1.0000000000000000
     7.5379899999999997    0.0000000000000000    0.0000000000000000
    -3.7689960000000000    6.5280909999999999    0.0000000000000000
     0.0000000000000000    0.0000000000000000    3.7109310000000000
 Tm  Sn  Rh 
   3   3   3
Cartesian
 -1.5190184578799999  2.6310165157299998  0.0000000000000000
  2.2499763481799997  3.8970744842700000  0.0000000000000000
  3.0380361096999997  0.0000000000000000  0.0000000000000000
  1.0023601853060000  1.7361392733590000  1.8554655000000000
 -2.7666352827959999  4.7919517266409999  1.8554655000000000
  5.5332690974899998  0.0000000000000000  1.8554655000000000
  3.7689984356620001  2.1760281573030000  1.8554655000000000
 -0.0000044356620002  4.3520628426970003  1.8554655000000000
  0.0000000000000000  0.0000000000000000  0.0000000000000000
