Ba Cu Sb
 1.0000000000000000
     4.6001120000000002    0.0000000000000000    0.0000000000000000
    -2.3000560000000001    3.9838130000000000    0.0000000000000000
     0.0000000000000000    0.0000000000000000    9.6299119999999991
 Ba  Cu  Sb 
   2   2   2
Cartesian
  0.0000000000000000  0.0000000000000000  4.8149559999999996
  0.0000000000000000  0.0000000000000000  0.0000000000000000
  2.3000583000560000  1.3279363387290000  7.2224339999999998
 -0.0000023000560001  2.6558766612709999  2.4074779999999998
 -0.0000023000560001  2.6558766612709999  7.2224339999999998
  2.3000583000560000  1.3279363387290000  2.4074779999999998
