Re Pt
 1.0000000000000000
     5.5640760000000000    0.0000000000000000    0.0000000000000000
    -2.7820380000000000    4.8186309999999999    0.0000000000000000
     0.0000000000000000    0.0000000000000000    4.4130680000000000
 Re  Pt 
   6   2
Cartesian
 -0.0000027820380001  1.5306911420910001  1.1032670000000000
  1.4564163672660004  4.0532926569010002  1.1032670000000000
 -1.4564274954180001  4.0532926569010002  1.1032670000000000
  2.7820463461139995  3.2879302206469996  3.3097921738640004
  1.3256188506960001  0.7653527989920000  3.3097921738640004
  4.2384571493039997  0.7653527989920000  3.3097921738640004
  0.0000000000000001  3.2124174542459998  3.3097921738640004
  2.7820380000000000  1.6062039084920001  1.1032670000000000
