Sm Y  Tl
 1.0000000000000000
     0.0000000000000000    3.8147359999999999    3.8147359999999999
     3.8147359999999999    0.0000000000000000    3.8147359999999999
     3.8147359999999999    3.8147359999999999    0.0000000000000000
 Sm  Y   Tl 
   1   1   2
Cartesian
  1.9073603705280000  1.9073603705280000  1.9073603705280000
  5.7221039999999999  5.7221039999999999  5.7221039999999999
  3.8147359999999999  3.8147359999999999  3.8147359999999999
  0.0000000000000000  0.0000000000000000  0.0000000000000000
