Sc P  Pt
 1.0000000000000000
     3.8354979999999999    0.0000000000000000    0.0000000000000000
     0.0000000000000000    6.6873469999999999    0.0000000000000000
     0.0000000000000000    0.0000000000000000    7.4101540000000004
 Sc  P   Pt 
   4   4   4
Cartesian
  2.8766235000000000  3.5542848064179999  1.3477513993660002
  0.9588745000000000  6.4767356935819995  5.0528283993660006
  2.8766235000000000  0.2106113064180000  2.3573256006340002
  0.9588745000000000  3.1330621935820000  6.0624026006339999
  0.9588745000000000  5.0623016169590001  2.7754064893140002
  0.9588745000000000  1.7186281169589999  0.9296705106859999
  2.8766235000000000  1.6250453830409999  4.6347475106860001
  2.8766235000000000  4.9687188830409994  6.4804834893140004
  0.9588745000000000  5.6424757806379997  0.4434458458220000
  0.9588745000000000  2.2988022806380002  3.2616311541780001
  2.8766235000000000  4.3885447193619997  4.1485228458219998
  2.8766235000000000  1.0448712193620000  6.9667081541780007
