Li Si O 
 1.0000000000000000
     4.6502350000000003    0.0000000000000000    0.0000000000000000
     0.0000000000000000    4.6445520000000000   -2.6673049999999998
     0.0000000000000000   -0.0001520000000000    5.3771449999999996
 Li  Si  O  
   4   2   6
Cartesian
  0.0208423532700000  3.8550878552399999 -0.3438392461249999
  2.3459598532700001  0.7893121447600000  3.0536792461249997
  2.3459598532700001  2.4046825121280002  0.4891094265799998
  0.0208423532700000  2.2397174878719999  2.2207305734199996
  2.3347527869200002  3.8443885814400001 -2.2077816946000000
  0.0096352869200000  0.8001634185600000 -0.4595233053999999
  3.9873021486350004  4.1045810290320004 -2.3572067880050001
  1.9445515680700001  2.5256368110079999  2.3603023726400001
  1.9445515680700001  3.8786489655200000 -0.6611415794100000
  1.6621846486350003  0.5399709709680000 -0.3100982119950000
  4.2696690680700007  0.7657510344800000  3.3709815794099995
  4.2696690680700007  2.1187631889920002  0.3495376273599999
