Tl W  Cl
 1.0000000000000000
     6.0447480000000002    0.0000030000000000    3.4899350000000000
     2.0149189999999999    5.6990420000000004    3.4899350000000000
     0.0000000000000000    0.0000000000000000    6.9798689999999999
 Tl  W   Cl 
   2   1   6
Cartesian
  2.0149167500000003  1.4247612500000002  3.4899347499999998
  6.0447502500000008  4.2742837500000004 10.4698042500000010
  0.0000000000000000  0.0000000000000000  0.0000000000000000
  2.9855677919139998  4.3263372722260005  8.7885908734459992
  2.9855677919139998  4.3263372722260005  5.1711481265539998
  5.0740992080859995  1.3727077277740001  8.7885908734459992
  5.0740992080859995  1.3727077277740001  5.1711481265539998
  6.1183672483780001  4.3263388270299998  6.9798697591340000
  1.9412997516219999  1.3727061729700001  6.9798692408659999
