Ta Cu Te
 1.0000000000000000
     5.9598129999999996    0.0000000000000000    0.0000000000000000
     0.0000000000000000    5.9598129999999996    0.0000000000000000
     0.0000000000000000    0.0000000000000000    5.9598129999999996
 Ta  Cu  Te 
   1   3   4
Cartesian
  0.0000000000000000  0.0000000000000000  0.0000000000000000
  0.0000000000000000  2.9799064999999998  0.0000000000000000
  2.9799064999999998  0.0000000000000000  0.0000000000000000
  0.0000000000000000  0.0000000000000000  2.9799064999999998
  1.5285549588009999  4.4312580411990004  4.4312580411990004
  1.5285549588009999  1.5285549588009999  1.5285549588009999
  4.4312580411990004  1.5285549588009999  4.4312580411990004
  4.4312580411990004  4.4312580411990004  1.5285549588009999
