Li Pd O 
 1.0000000000000000
     2.5521660000000002    4.4164260000000004    0.0016690000000000
    -2.5521660000000002    4.4164260000000004   -0.0016690000000000
    -1.7029870000000000    0.0000000000000000    4.7636190000000003
 Li  Pd  O  
   4   2   6
Cartesian
 -0.8514935000000000  4.4164260000000004  2.3818095000000001
 -0.8514935000000000  1.4444539532640002  2.3818095000000001
 -0.8514935000000001  7.3883980467360004  2.3818095000000001
  0.0000000000000000  0.0000000000000000  0.0000000000000000
  0.0000000000000000  2.9440249030080001  0.0000000000000000
 -0.0000000000000001  5.8888270969920002  0.0000000000000000
 -2.4842194621650000  4.4164260000000004  3.6308313307910001
 -1.6690209554150002  2.8839659258340005  1.1196260739120001
 -1.6690209554150000  5.9488860741660003  1.1196260739120001
 -0.0339660445850002  5.9488860741660003  3.6439929260880004
 -0.0339660445850000  2.8839659258340005  3.6439929260880004
  0.7812324621650002  4.4164260000000004  1.1327876692090000
