Ga
 1.0000000000000000
     7.7510240000000001    0.0000000000000000    0.0000000000000000
     0.0000000000000000    4.5675829999999999    0.0000000000000000
     0.0000000000000000    0.0000000000000000    4.5972030000000004
 Ga 
   8
Cartesian
  1.2115083042720001  0.0000000000000000  4.2207288519240009
  2.6640036957279998  0.0000000000000000  1.9221273519240001
  6.5395156957280003  0.0000000000000000  0.3764741480760000
  5.0870203042719995  0.0000000000000000  2.6750756480760001
  5.0870203042719995  2.2837915000000000  4.2207288519240009
  6.5395156957280003  2.2837915000000000  1.9221273519240001
  2.6640036957279998  2.2837915000000000  0.3764741480760000
  1.2115083042720001  2.2837915000000000  2.6750756480760001
