Mn Al Pd
 1.0000000000000000
     6.1861240000000004    0.0000000000000000    0.0000000000000000
     0.0000000000000000    6.1861240000000004    0.0000000000000000
     0.0000000000000000    0.0000000000000000    6.1861240000000004
 Mn  Al  Pd 
   4   4   8
Cartesian
  0.0000000000000000  0.0000000000000000  3.0930620000000002
  0.0000000000000000  3.0930620000000002  0.0000000000000000
  3.0930620000000002  0.0000000000000000  0.0000000000000000
  3.0930620000000002  3.0930620000000002  3.0930620000000002
  0.0000000000000000  0.0000000000000000  0.0000000000000000
  0.0000000000000000  3.0930620000000002  3.0930620000000002
  3.0930620000000002  0.0000000000000000  3.0930620000000002
  3.0930620000000002  3.0930620000000002  0.0000000000000000
  4.6395930000000005  1.5465310000000001  1.5465310000000001
  1.5465310000000001  4.6395930000000005  4.6395930000000005
  4.6395930000000005  4.6395930000000005  4.6395930000000005
  1.5465310000000001  1.5465310000000001  1.5465310000000001
  1.5465310000000001  1.5465310000000001  4.6395930000000005
  4.6395930000000005  4.6395930000000005  1.5465310000000001
  1.5465310000000001  4.6395930000000005  1.5465310000000001
  4.6395930000000005  1.5465310000000001  4.6395930000000005
