Lu Cd Rh
 1.0000000000000000
     0.0000000000000000    3.2530700000000001    3.2530700000000001
     3.2530700000000001    0.0000000000000000    3.2530700000000001
     3.2530700000000001    3.2530700000000001    0.0000000000000000
 Lu  Cd  Rh 
   1   1   2
Cartesian
  4.8795984938599997  4.8795984938599997  4.8795984938599997
  1.6265415061399999  1.6265415061399999  1.6265415061399999
  0.0000000000000000  0.0000000000000000  0.0000000000000000
  3.2530700000000001  3.2530700000000001  3.2530700000000001
