Cu Sn Hg Se
 1.0000000000000000
    -2.9647950000000001    2.9647950000000001    5.8082060000000002
     2.9647950000000001   -2.9647950000000001    5.8082060000000002
     2.9647950000000001    2.9647950000000001   -5.8082060000000002
 Cu  Sn  Hg  Se 
   2   1   1   4
Cartesian
  0.0000000000000002  2.9647949999999996  2.9041030000000001
  2.9647950000000001  0.0000000000000000  2.9041030000000001
  0.0000000000000000  0.0000000000000000  5.8082060000000002
  0.0000000000000000  0.0000000000000000  0.0000000000000000
  1.5254463234000000  1.5254463234000000  1.6567791450880001
  1.4393486766000003  1.4393486765999999  7.4649851450879998
 -1.4393486765999999  1.4393486765999999  4.1514268549120006
  1.4393486765999999 -1.4393486765999999  4.1514268549119997
