Nd Fe Si
 1.0000000000000000
     3.7606709999999999    0.0000000000000000   -1.3918779999999999
    -0.5151520000000001    3.7252190000000001   -1.3918779999999999
    -0.0607790000000000   -0.0697630000000000    5.6121429999999997
 Nd  Fe  Si 
   1   2   2
Cartesian
  0.0000000000000000  0.0000000000000000  0.0000000000000000
  0.5234142500000000  2.7590327500000003  1.4141934999999999
  2.6613257499999996  0.8964232500000000  1.4141934999999999
  2.0702855354579999  2.3762813968820002 -0.1827102100340003
  1.1144544645419998  1.2791746031180000  3.0110972100339994
