Pa Si
 1.0000000000000000
     4.4407750000000004   -0.0000550000000000   -0.0000800000000000
    -0.0000210000000000    4.4415190000000004    0.0000690000000000
    -0.0000660000000000    0.0000640000000000    4.4435510000000003
 Pa  Si 
   3   1
Cartesian
  4.4407181776120002  2.2207498247220001  2.2217300004470002
  2.2203246184920000  4.4415146170720003  2.2218045000219999
  2.2203947630340002  2.2207319998440003 -0.0000010567690000
 -0.0000659999340000  0.0000639999360000  4.4435465564490002
