La Ga
 1.0000000000000000
     6.0605599999999997   -0.0000170000000000   -0.0000260000000000
    -0.0000290000000000    6.0605510000000002   -0.0001600000000000
    -0.0000320000000000   -0.0001160000000000    7.6973310000000001
 La  Ga 
   2  12
Cartesian
  0.0000322878660000  3.0300504100930001  7.6972356078800006
  3.0303099091949997  6.0602871075360003  7.6971272139660005
  3.0302906549300004  3.0301877323249999  1.2382536127499999
  0.0000411182710000  6.0601930577670009  6.4588474871769996
  3.0301477432369999  3.0300181585360000  6.4582294226440000
  0.0002433304690000  0.0002176871120000  1.2391163370740002
  1.3183096763259998  4.3484380904900002  2.6486466003769999
  4.7418053616279989  1.7122463725810002  2.6489863106100002
  4.3490669236289996  1.3178088313350000  5.0488029909570002
  1.7119796716360001  4.7422517884019992  5.0484160049169997
  1.3186941335150000  1.7110864863280002  5.0487825169539997
  4.7422736791559990  4.3483559636919997  5.0480208397039998
  4.3477211306759997  4.7427654091590004  2.6482999056330003
  1.7116969399879998  1.3191917831770001  2.6485632416440001
