Ho Cd Au
 1.0000000000000000
    -0.0000010000000000    3.4479190000000002    3.4479190000000002
     3.4479190000000002   -0.0000010000000000    3.4479190000000002
     3.4479190000000002    3.4479190000000002   -0.0000010000000000
 Ho  Cd  Au 
   1   1   2
Cartesian
  5.1718846458380003  5.1718811979180002  5.1718811979180002
  1.7239592500000001  1.7239592500000001  1.7239592500000001
  3.4479116041620004  3.4479150520820001  3.4479150520820001
  6.8958380000000004  3.4479180000000000  3.4479180000000000
