Li Cl O 
 1.0000000000000000
     4.7924660000000001    0.0000000000000000    0.0000000000000000
     0.0000000000000000    6.7171329999999996    0.0000000000000000
     0.0000000000000000    0.0000000000000000    8.5846079999999994
 Li  Cl  O  
   4   4  16
Cartesian
  0.0000000000000000  0.0000000000000000  4.2923039999999997
  2.3962330000000001  0.0000000000000000  0.0000000000000000
  0.0000000000000000  3.3585664999999998  4.2923039999999997
  2.3962330000000001  3.3585664999999998  0.0000000000000000
  2.5692745698619999  1.6792832499999999  2.7244455333119997
  0.1730415698620000  5.0378497499999995  1.5678584666879998
  2.2231914301380002  5.0378497499999995  5.8601624666880001
  4.6194244301380003  1.6792832499999999  7.0167495333119989
  4.5653749985900003  1.6792832499999999  5.5629204146879996
  2.1691419985899998  5.0378497499999995  7.3139915853119994
  0.2270910014100000  5.0378497499999995  3.0216875853119998
  2.6233240014100003  1.6792832499999999  1.2706164146879999
  3.9631728908940000  2.8640578856729997  7.4872461439680000
  1.5669398908940000  3.8530751143269999  5.3896658560319990
  0.8292931091060001  6.2226243856729999  1.0973618560320000
  3.2255261091060001  0.4945086143270000  3.1949421439679995
  0.8292931091060001  3.8530751143269999  1.0973618560320000
  3.2255261091060001  2.8640578856729997  3.1949421439679995
  3.9631728908940000  0.4945086143270000  7.4872461439680000
  1.5669398908940000  6.2226243856729999  5.3896658560319990
  1.1978145746419999  1.6792832499999999  7.4614579815359994
  3.5940475746420000  5.0378497499999995  5.4154540184639997
  3.5946514253580002  5.0378497499999995  1.1231500184640000
  1.1984184253579999  1.6792832499999999  3.1691539815360001
