Sm In
 1.0000000000000000
     5.4959809999999996    0.0000000000000000    0.0000000000000000
    -2.7479900000000002    4.7596579999999999    0.0000000000000000
     0.0000000000000000    0.0000000000000000    6.8513400000000004
 Sm  In 
   4   2
Cartesian
  0.0000000000000000  0.0000000000000000  0.0000000000000000
  2.7479934146569995  1.5865510801139999  1.7131364589600000
 -0.0000024146570004  3.1731069198860000  5.1382035410400002
  0.0000000000000000  0.0000000000000000  3.4256700000000002
 -0.0000024146570004  3.1731069198860000  1.7130199861800002
  2.7479934146569995  1.5865510801139999  5.1383200138200005
