Tb Fe
 1.0000000000000000
     0.0000000000000000    3.6661199999999998    3.6661199999999998
     3.6661199999999998    0.0000000000000000    3.6661199999999998
     3.6661199999999998    3.6661199999999998    0.0000000000000000
 Tb  Fe 
   2   4
Cartesian
  0.0000000000000000  0.0000000000000000  0.0000000000000000
  1.8330599999999999  1.8330599999999999  1.8330599999999999
  4.5826500000000001  2.7495900000000000  2.7495900000000000
  2.7495900000000000  2.7495900000000000  4.5826500000000001
  2.7495900000000000  4.5826500000000001  2.7495900000000000
  4.5826500000000001  4.5826500000000001  4.5826500000000001
