Np N 
 1.0000000000000000
     3.0333250000000000   -0.0000000000000000    1.7512909999999999
     1.0111079999999999    2.8598460000000001    1.7512909999999999
     0.0000000000000000    0.0000000000000000    3.5025830000000000
 Np  N  
   1   1
Cartesian
  2.0222164999999999  1.4299230000000001  3.5025824999999999
  0.0000000000000000  0.0000000000000000  0.0000000000000000
