Ti P 
 1.0000000000000000
     3.4991430000000001    0.0000000000000000    0.0000000000000000
    -1.7495710000000000    3.0303480000000000    0.0000000000000000
     0.0000000000000000    0.0000000000000000   11.6818399999999993
 Ti  P  
   4   4
Cartesian
 -0.0000014162379999  2.0202330101160002  4.4798104124000000
  1.7495734162380001  1.0101149898840001 10.3207304123999997
  1.7495734162380001  1.0101149898840001  7.2020295876000002
 -0.0000014162379999  2.0202330101160002  1.3611095875999999
  1.7495734162380001  1.0101149898840001  2.9204599999999998
 -0.0000014162379999  2.0202330101160002  8.7613799999999991
  0.0000000000000000  0.0000000000000000  5.8409199999999997
  0.0000000000000000  0.0000000000000000  0.0000000000000000
