Hf Re Rh
 1.0000000000000000
     0.0000000000000000    3.2505020000000000    3.2505020000000000
     3.2505020000000000    0.0000000000000000    3.2505020000000000
     3.2505020000000000    3.2505020000000000    0.0000000000000000
 Hf  Re  Rh 
   2   1   1
Cartesian
  0.0000000000000000  0.0000000000000000  0.0000000000000000
  3.2504954989960000  3.2504954989960000  3.2504954989960000
  1.6252510000000000  1.6252510000000000  1.6252510000000000
  4.8757595010040005  4.8757595010040005  4.8757595010040005
