Nb Br O 
 1.0000000000000000
     3.7736139999999998   -0.0013850000000000   -1.0699909999999999
    -0.5068020000000000    6.8089979999999999   -1.7996520000000000
     0.0723290000000000    0.0255810000000000    7.4686820000000003
 Nb  Br  O  
   2   4   2
Cartesian
 -0.2577923571869999  4.8876657498849996  6.1712014996139999
 -0.1102279507350000  1.9468816419710002 -0.5211317403840000
  3.0641956984739998  6.3663123609470000  2.8927238603370005
  3.2138624620280001  2.8643552527270004  3.4967501924389999
  0.4761982598259999  3.9704229045320001  1.0014586101339999
  0.6595258576080000  0.4662897278590000  1.5989869940310002
  1.7430255555429999  4.9290815282559999  5.5869156515350005
  1.8990700476900000  1.9027326650160001 -1.0740531619020000
