Mn Ni Sb
 1.0000000000000000
     3.6065160000000001    0.0000000000000000    2.0822229999999999
     1.2021720000000000    3.4002550000000000    2.0822229999999999
     0.0000000000000000    0.0000000000000000    4.1644449999999997
 Mn  Ni  Sb 
   1   1   1
Cartesian
  1.2021720000000000  0.8500637500000000  2.0822227499999997
  0.0000000000000000  0.0000000000000000  0.0000000000000000
  3.6065160000000001  2.5501912500000001  6.2466682499999999
