Pr Y  Mg
 1.0000000000000000
     0.0000000000000000    3.8613740000000001    3.8613740000000001
     3.8613740000000001    0.0000000000000000    3.8613740000000001
     3.8613740000000001    3.8613740000000001    0.0000000000000000
 Pr  Y   Mg 
   1   1   2
Cartesian
  1.9306870000000000  1.9306870000000000  1.9306870000000000
  5.7920532772520001  5.7920532772520001  5.7920532772520001
  3.8613662772520003  3.8613662772520003  3.8613662772520003
  0.0000000000000000  0.0000000000000000  0.0000000000000000
