Sn Sb
 1.0000000000000000
     6.1871369999999999    0.0000000000000000    0.0000000000000000
     0.0000000000000000    6.1871369999999999    0.0000000000000000
     0.0000000000000000    0.0000000000000000    6.1871369999999999
 Sn  Sb 
   4   4
Cartesian
  0.0000000000000000  0.0000000000000000  3.0935684999999999
  0.0000000000000000  3.0935684999999999  0.0000000000000000
  3.0935684999999999  0.0000000000000000  0.0000000000000000
  3.0935684999999999  3.0935684999999999  3.0935684999999999
  0.0000000000000000  0.0000000000000000  0.0000000000000000
  0.0000000000000000  3.0935684999999999  3.0935684999999999
  3.0935684999999999  0.0000000000000000  3.0935684999999999
  3.0935684999999999  3.0935684999999999  0.0000000000000000
