Mn Al C 
 1.0000000000000000
     3.8061590000000001    0.0000000000000000    0.0000000000000000
     0.0000000000000000    3.8061590000000001    0.0000000000000000
     0.0000000000000000    0.0000000000000000    3.8061590000000001
 Mn  Al  C  
   3   1   1
Cartesian
  0.0000000000000000  1.9030795000000000  1.9030795000000000
  1.9030795000000000  1.9030795000000000  0.0000000000000000
  1.9030795000000000  0.0000000000000000  1.9030795000000000
  0.0000000000000000  0.0000000000000000  0.0000000000000000
  1.9030795000000000  1.9030795000000000  1.9030795000000000
