Li U  O 
 1.0000000000000000
     4.0372000000000003   -0.0019860000000000   -1.8887470000000000
    -0.8826900000000000    3.9395280000000001   -1.8887499999999999
    -0.0160310000000000   -0.0200150000000000    5.2337600000000002
 Li  U   O  
   3   1   4
Cartesian
  2.7999991824000006  0.9727543577600001  0.7281322504800001
  0.3384798176000001  2.9447726422400002  0.7281307495200000
  1.5772550000000001  1.9687710000000000 -1.8887484999999999
  0.0000000000000000  0.0000000000000000  0.0000000000000000
  0.7508482619670002  0.9372211693250000  1.6102366511370003
  2.3876307380330006  2.9803058306749999 -0.1539736511369993
  2.0186000000000002 -0.0009930000000000 -0.9443735000000000
 -0.4413450000000000  1.9697640000000001 -0.9443750000000000
