Mg B  C 
 1.0000000000000000
     4.7151949999999996   -5.4411350000000001    0.0000000000000000
     4.7151949999999996    5.4411350000000001    0.0000000000000000
     0.0000000000000000    0.0000000000000000    7.4073820000000001
 Mg  B   C  
   8  16  16
Cartesian
  6.8043092966999996 -0.0000000000000002  0.0680293962880000
  7.3412757032999991  0.0000000000000002  3.7717203962879999
  2.0891142967000000  0.0000000000000000  3.6356616037119998
  2.6260807032999995 -0.0000000000000000  7.3393526037120003
  4.7151949999999996  1.6569344301999998  3.7036910000000001
  4.7151949999999996  3.7842005698000003  0.0000000000000000
  4.7151949999999996 -1.6569344302000000  3.7036910000000001
  4.7151949999999996 -3.7842005698000003  0.0000000000000000
  6.2184651787299998 -1.3907976350799993  5.5916252651039997
  3.2119248212699998 -1.3907976350800000  1.8157567348960002
  1.5032701787299998  1.3907976350800000  5.5194477348960005
  7.9271198212699989  1.3907976350799998  1.8879342651039999
  6.2184651787299998  1.3907976350799995  5.5916252651039997
  7.9271198212699989 -1.3907976350800000  1.8879342651039999
  1.5032701787299998 -1.3907976350800000  5.5194477348960005
  3.2119248212699998  1.3907976350800000  1.8157567348960002
  5.6017836854600001 -2.7205675000000005  1.8518455000000000
  3.8286063145399996 -2.7205674999999996  5.5555365000000005
  3.8286063145399996  2.7205674999999996  5.5555365000000005
  5.6017836854599992  2.7205675000000005  1.8518455000000000
  5.5455502698899997 -0.0000000000000001  2.0387411552420001
  8.6000347301100000  0.0000000000000001  5.7424321552420006
  0.8303552698900000  0.0000000000000000  1.6649498447580000
  3.8848397301099999  0.0000000000000001  5.3686408447579996
  1.6445940032699999  1.3546249696000001  1.6600831947840000
  3.0706009967299996 -1.3546249696000003  5.3637741947839999
  6.3597890032699995 -1.3546249695999999  2.0436078052160003
  7.7857959967299992  1.3546249696000003  5.7472988052160003
  1.6445940032699999 -1.3546249696000001  1.6600831947840000
  7.7857959967299992 -1.3546249696000006  5.7472988052160003
  6.3597890032699995  1.3546249696000006  2.0436078052160003
  3.0706009967299996  1.3546249696000001  5.3637741947839999
  4.0225045633300001 -2.7205675000000000  1.8518455000000000
  5.4078854366699991 -2.7205675000000000  5.5555365000000005
  5.4078854366699991  2.7205675000000000  5.5555365000000005
  4.0225045633300001  2.7205675000000000  1.8518455000000000
  8.6785521572499995  0.0000000000000004  1.7042385988860000
  5.4670328427500001  0.0000000000000001  5.4079295988859997
  3.9633571572499999 -0.0000000000000002  1.9994524011139998
  0.7518378427500000  0.0000000000000000  5.7031434011140005
