K  P  Rh
 1.0000000000000000
     3.7489450000000000    0.0000000000000000   -1.0742570000000000
    -0.3078280000000000    3.7362869999999999   -1.0742570000000000
     0.0152080000000000    0.0165120000000000    7.1317430000000002
 K   P   Rh 
   1   2   2
Cartesian
  0.0000000000000000  0.0000000000000000  0.0000000000000000
  2.2541088061609997  2.4474601990110001  0.7877222598530003
  1.2022161938389999  1.3053388009889999  4.1955067401469996
  2.7423557500000002  0.9423277500000000  2.4916144999999998
  0.7139692499999999  2.8104712499999995  2.4916144999999998
