Pm Mg
 1.0000000000000000
     3.8693119999999999    0.0000000000000000    0.0000000000000000
     0.0000000000000000    3.8693119999999999    0.0000000000000000
     0.0000000000000000    0.0000000000000000    3.8693119999999999
 Pm  Mg 
   1   1
Cartesian
  1.9346559999999999  1.9346559999999999  1.9346559999999999
  0.0000000000000000  0.0000000000000000  0.0000000000000000
