Nd Ni C 
 1.0000000000000000
     3.8473280000000001    0.0000000000000000    0.0000000000000000
     0.0000000000000000    3.6238999999999999   -1.1041580000000000
     0.0000000000000000    0.0021330000000000    3.7883779999999998
 Nd  Ni  C  
   1   1   2
Cartesian
  0.0000000000000000  0.0162434042320000  3.7693166797439996
  1.9236640000000000  2.2304360120510003  0.7782305483919999
  1.9236640000000000  0.5618788888410000  1.8895675024820000
  1.9236640000000000  1.6547471048760001  2.6985779893820001
