Ba Hg Pb
 1.0000000000000000
     0.0000000000000000    3.9499700000000000    3.9499700000000000
     3.9499700000000000    0.0000000000000000    3.9499700000000000
     3.9499700000000000    3.9499700000000000    0.0000000000000000
 Ba  Hg  Pb 
   1   2   1
Cartesian
  3.9499700000000000  3.9499700000000000  3.9499700000000000
  1.9749850000000000  1.9749850000000000  1.9749850000000000
  5.9249549999999997  5.9249549999999997  5.9249549999999997
  0.0000000000000000  0.0000000000000000  0.0000000000000000
