Li Zn P 
 1.0000000000000000
     3.4905379999999999    0.0000000000000000    2.0152630000000000
     1.1635130000000000    3.2909109999999999    2.0152630000000000
     0.0000000000000000    0.0000000000000000    4.0305249999999999
 Li  Zn  P  
   1   1   1
Cartesian
  3.4905382499999997  2.4681832500000001  6.0457882500000002
  1.1635127500000000  0.8227277500000000  2.0152627499999998
  0.0000000000000000  0.0000000000000000  0.0000000000000000
