Ca Pt F 
 1.0000000000000000
     4.6657140000000004    0.0257440000000000    3.4487180000000000
     1.7528960000000000    4.3236070000000000    3.4491990000000001
     0.0376450000000000    0.0248620000000000    5.8018250000000000
 Ca  Pt  F  
   1   1   6
Cartesian
  3.2281275000000003  2.1871065000000001  6.3498710000000003
  0.0000000000000000  0.0000000000000000  0.0000000000000000
  1.9406986297769999  0.3378068866980000  6.0777995348890004
  1.7104208982180003  3.3731898159870002  5.1493796367370006
  2.1546177252900005  2.6970934972019998  8.2834932737039999
  4.7458341017820000  1.0010231840129999  7.5503623632629999
  4.5155563702229999  4.0364061133020002  6.6219424651110002
  4.3016372747100009  1.6771195027979999  4.4162487262959997
