Li Ta O 
 1.0000000000000000
     4.5422450000000003    0.0087480000000000    3.0600320000000001
     1.6327229999999999    4.2386650000000001    3.0600320000000001
     0.0127180000000000    0.0087480000000000    5.4768260000000000
 Li  Ta  O  
   2   2   6
Cartesian
  1.7525135550359998  1.2054554553860000  3.2845407671399998
  4.8463565550359995  3.3335359553860000  9.0829857671400003
  6.1843755879900009  4.2538839538650004 11.5906856638499995
  3.0905325879900003  2.1258034538650001  5.7922406638500004
  3.1678963428899998  0.9643796523030000  7.3136127295259996
  3.4820037340579999  0.4941056742550000  4.5751997295260001
  1.1272422342100001  1.5617705643910003  5.4397739479100000
  2.8500651939060000  3.0749641523030000  3.9651815895740001
  4.9427538631859997  2.6134381742549997  5.7613929479100001
  2.4425039560979998  3.6811030643909999  6.7035945895740001
