Li Al Pd
 1.0000000000000000
     6.1092110000000002    0.0000000000000000    0.0000000000000000
     0.0000000000000000    6.1092110000000002    0.0000000000000000
     0.0000000000000000    0.0000000000000000    6.1092110000000002
 Li  Al  Pd 
   8   4   4
Cartesian
  1.5273027500000000  4.5819082499999997  4.5819082499999997
  0.0000000000000000  0.0000000000000000  3.0546055000000001
  1.5273027500000000  1.5273027500000000  1.5273027500000000
  0.0000000000000000  3.0546055000000001  0.0000000000000000
  4.5819082499999997  4.5819082499999997  1.5273027500000000
  3.0546055000000001  0.0000000000000000  0.0000000000000000
  4.5819082499999997  1.5273027500000000  4.5819082499999997
  3.0546055000000001  3.0546055000000001  3.0546055000000001
  0.0000000000000000  0.0000000000000000  0.0000000000000000
  0.0000000000000000  3.0546055000000001  3.0546055000000001
  3.0546055000000001  0.0000000000000000  3.0546055000000001
  3.0546055000000001  3.0546055000000001  0.0000000000000000
  4.5819082499999997  1.5273027500000000  1.5273027500000000
  4.5819082499999997  4.5819082499999997  4.5819082499999997
  1.5273027500000000  1.5273027500000000  4.5819082499999997
  1.5273027500000000  4.5819082499999997  1.5273027500000000
