La Ni B 
 1.0000000000000000
     4.6580589999999997    0.0000000000000000    2.1275029999999999
     1.9761190000000000    4.8012050000000004    1.8364330000000000
    -0.0179740000000000    0.0090390000000000    6.2023970000000004
 La  Ni  B  
   2   5   4
Cartesian
  3.7599265513319997  0.9476174383570001  4.0939127789190000
  2.8562774486680000  3.8626265616430002  6.0724202210809999
  2.9553516217659999  3.4555494916840006  2.8017817499670001
  3.6608523782339999  1.3546945083160002  7.3645512500330010
  0.9790725000000000  2.4051220000000000  4.0194150000000004
  5.2633686176170000  3.4555494916840006  3.8559360839340000
  1.3528353823829999  1.3546945083160002  6.3103969160660007
  4.6256817286340004  4.5263589672540006  8.3614246054030001
  1.9905222713660000  0.2838850327460000  1.8049083945969999
  1.8148321295989998  1.9119973700149999  2.1895551994629998
  4.8013672123419999  2.8982466299850005  7.9767756730340000
