Bi Cl
 1.0000000000000000
     6.3985750000000001    0.0000000000000000    0.0000000000000000
     0.0000000000000000    7.7094100000000001    0.0000000000000000
     0.0000000000000000    0.0000000000000000    8.8704830000000001
 Bi  Cl 
   4  12
Cartesian
  3.2567978921000003  4.3278006540600007  6.6537049458849999
  3.1417771078999999  3.3816093459400003  2.2184634458850003
  6.3410646078999999  0.4730956540600000  6.6537049458849999
  0.0575103921000000  7.2363143459399994  2.2184634458850003
  4.0974426756000000  2.5239066457999999  8.3242830092749998
  2.3011323244000002  5.1855033541999997  3.8890415092750001
  5.5004198243999998  6.3786116458000004  8.3242830092749998
  0.8981551756000000  1.3307983541999999  3.8890415092750001
  4.1091456692750006  0.4081670030400000  2.2216213378329996
  2.2894293307250000  7.3012429969600001  6.6568628378329997
  5.4887168307250001  4.2628720030400000  2.2216213378329996
  0.9098581692750000  3.4465379969600001  6.6568628378329997
  0.8983343357000000  1.3321397915400000  0.5537753832070000
  5.5002406643000006  6.3772702084599997  4.9890168832069994
  2.3009531643000001  5.1868447915400004  0.5537753832070000
  4.0976218357000000  2.5225652084600001  4.9890168832069994
