Sr In Pd
 1.0000000000000000
     2.2977059999999998   -8.5954060000000005    0.0000000000000000
     2.2977059999999998    8.5954060000000005    0.0000000000000000
     0.0000000000000000    0.0000000000000000    7.5224960000000003
 Sr  In  Pd 
   2   8   2
Cartesian
  2.2977059999999998  6.4675100998280000  5.6418720000000002
  2.2977059999999998 -6.4675100998280000  1.8806240000000001
  2.2977059999999998  3.1748851142200003  7.1384801016960004
  2.2977059999999998 -3.1748851142200003  0.3840158983040000
  2.2977059999999998  3.1748851142200003  4.1452638983040000
  2.2977059999999998  0.0000000000000000  0.0000000000000000
  2.2977059999999998 -3.1748851142200003  3.3772321016959999
  2.2977059999999998  0.0000000000000000  3.7612480000000001
  2.2977059999999998  7.4019510677120000  1.8806240000000001
  2.2977059999999998 -7.4019510677120000  5.6418720000000002
  2.2977059999999998 -4.7258401728599999  5.6418720000000002
  2.2977059999999998  4.7258401728599999  1.8806240000000001
