Lu Sb Mo
 1.0000000000000000
     7.9330759999999998   -0.0000050000000000    0.0000000000000000
    -3.9665430000000002    6.8702519999999998    0.0000000000000000
     0.0000000000000000    0.0000000000000000    4.2834909999999997
 Lu  Sb  Mo 
   6   2   1
Cartesian
  4.8098636441800000 -0.0000030315250000  2.1417454999999999
  1.5616042094350000  2.7047818926650002  2.1417454999999999
 -2.4049308870720001  4.1654612686079995  2.1417454999999999
 -0.9444180221280001  1.6357795201920000  0.0000000000000000
  3.0221213253750001  5.2344618000359997  0.0000000000000000
  1.8888336632959999 -0.0000011904800000  0.0000000000000000
  3.9665402998729999  2.2900783765810000  0.0000000000000000
 -0.0000072998730001  4.5801686234189996  0.0000000000000000
 -0.0000039665430000  0.0000068702520000  2.1417454999999999
