Al Ir Ru
 1.0000000000000000
     0.0000000000000000    2.9841859999999998    2.9841859999999998
     2.9841859999999998    0.0000000000000000    2.9841859999999998
     2.9841859999999998    2.9841859999999998    0.0000000000000000
 Al  Ir  Ru 
   2   1   1
Cartesian
  2.9841800316280001  2.9841800316280001  2.9841800316280001
  0.0000000000000000  0.0000000000000000  0.0000000000000000
  1.4920929999999999  1.4920929999999999  1.4920929999999999
  4.4762789999999999  4.4762789999999999  4.4762789999999999
