Li Ir
 1.0000000000000000
     2.5900420000000000   -0.0001130000000000   -0.7019990000000000
    -0.5766780000000000    4.1110769999999999   -2.1305200000000002
    -0.0035550000000000    0.0114300000000000    5.1287789999999998
 Li  Ir 
   1   3
Cartesian
  2.5771100876239998  0.0683302297340000 -0.7357240064900000
  0.0842483105960000  3.8433407123059999  0.3064352223029999
  1.7045807978140000  1.8677283225340000  1.1654398809689996
  1.0040655024819998  2.0706729314170000  3.7098855311420000
