Pm Ge Au
 1.0000000000000000
     0.0000000000000000    3.6671369999999999    3.6671369999999999
     3.6671369999999999    0.0000000000000000    3.6671369999999999
     3.6671369999999999    3.6671369999999999    0.0000000000000000
 Pm  Ge  Au 
   2   1   1
Cartesian
  0.0000000000000000  0.0000000000000000  0.0000000000000000
  3.6671369999999999  3.6671369999999999  3.6671369999999999
  5.5007054999999996  5.5007054999999996  5.5007054999999996
  1.8335684999999999  1.8335684999999999  1.8335684999999999
