La Cu
 1.0000000000000000
     4.3002859999999998    0.0000000000000000    0.0000000000000000
    -2.1501429999999999    3.7241569999999999    0.0000000000000000
     0.0000000000000000    0.0000000000000000    3.8509630000000001
 La  Cu 
   1   2
Cartesian
  0.0000000000000000  0.0000000000000000  0.0000000000000000
 -0.0000021501430002  2.4827725747190001  1.9254815000000001
  2.1501451501430000  1.2413844252810000  1.9254815000000001
