Pr Nd Tl
 1.0000000000000000
    -0.0000000000000000    3.9065639999999999    3.9065650000000001
     3.9065639999999999   -0.0000010000000000    3.9065650000000001
     3.9065639999999999    3.9065639999999999   -0.0000000000000000
 Pr  Nd  Tl 
   1   1   2
Cartesian
  5.8598460000000001  5.8598452500000002  5.8598474999999999
  1.9532820000000000  1.9532817499999999  1.9532825000000000
  3.9065639999999999  3.9065634999999999  3.9065650000000001
  0.0000000000000000  0.0000000000000000  0.0000000000000000
