Li Er S 
 1.0000000000000000
     3.6715749999999998   -0.0121670000000000    5.3766870000000004
     1.6516960000000001    3.2791009999999998    5.3766870000000004
    -0.0198250000000000   -0.0121670000000000    6.5106700000000002
 Li  Er  S  
   1   1   2
Cartesian
  2.6517230000000001  1.6273835000000001  8.6320220000000010
  0.0000000000000000  0.0000000000000000  0.0000000000000000
  1.3277813474519997  0.8148699756539999  4.3222605839279993
  3.9756646525480002  2.4398970243459996 12.9417834160720009
