Pa C 
 1.0000000000000000
     3.1154449999999998    0.0000000000000000    1.7987020000000000
     1.0384819999999999    2.9372710000000000    1.7987020000000000
    -0.0000000000000000   -0.0000000000000000    3.5974070000000000
 Pa  C  
   1   1
Cartesian
  0.0000000000000000  0.0000000000000000  0.0000000000000000
  2.0769634999999997  1.4686355000000000  3.5974054999999998
