Sc Co Os
 1.0000000000000000
     0.0000000000000000    3.1656930000000001    3.1656930000000001
     3.1656930000000001    0.0000000000000000    3.1656930000000001
     3.1656930000000001    3.1656930000000001    0.0000000000000000
 Sc  Co  Os 
   2   1   1
Cartesian
  0.0000000000000000  0.0000000000000000  0.0000000000000000
  3.1656930000000001  3.1656930000000001  3.1656930000000001
  1.5828401686140001  1.5828401686140001  1.5828401686140001
  4.7485394999999997  4.7485394999999997  4.7485394999999997
