Th Al
 1.0000000000000000
     6.5379519999999998   -0.0000350000000000   -0.0000080000000000
    -3.2690070000000002    5.6620860000000004   -0.0000160000000000
    -0.0000050000000000   -0.0000160000000000    4.5779300000000003
 Th  Al 
   2   6
Cartesian
  0.0000303867939994  3.7747385307840005  1.1444600106360001
  3.2688998062470001  1.8873021313370000  3.4334459893560001
  3.2689981484869999  4.0852854880280001  1.1444594915740001
 -1.9035355441840005  4.8736236515520011  3.4334234583160006
  1.9034550631039993  4.8737391610110006  3.4334187995080003
  1.3654587848869999  0.7883298114920000  1.1445009341940000
  5.1724722753829999  0.7883830381870001  1.1444642300680001
 -0.0000450725830002  1.5767495119020001  3.4334465084100003
