Sr Co Ge
 1.0000000000000000
     3.7563480000000000    0.0000000000000000   -1.3438150000000000
    -0.4807430000000000    3.7254580000000002   -1.3438150000000000
     0.0869230000000000    0.0988610000000000    6.1649209999999997
 Sr  Co  Ge 
   1   2   2
Cartesian
  0.0000000000000000  0.0000000000000000  0.0000000000000000
  0.6219912500000001  2.8435240000000004  1.7386454999999998
  2.7405367500000000  0.9807950000000001  1.7386454999999998
  2.1316431524150001  2.4243910647000004  0.0366122809799999
  1.2308848475850001  1.3999279353000003  3.4406787190200001
