Eu Cl F 
 1.0000000000000000
     4.0836709999999998    0.0000000000000000    0.0000000000000000
     0.0000000000000000    4.0836709999999998    0.0000000000000000
     0.0000000000000000    0.0000000000000000    6.9785320000000004
 Eu  Cl  F  
   2   2   2
Cartesian
  3.0627532500000001  3.0627532500000001  5.5410800215760005
  1.0209177500000000  1.0209177500000000  1.4374519784240001
  3.0627532500000001  3.0627532500000001  2.4774067741280001
  1.0209177500000000  1.0209177500000000  4.5011252258720003
  3.0627532500000001  1.0209177500000000  0.0000000000000000
  1.0209177500000000  3.0627532500000001  0.0000000000000000
