Al P 
 1.0000000000000000
     3.8865419999999999    0.0000000000000000    0.0000000000000000
    -1.9432710000000000    3.3658450000000002    0.0000000000000000
     0.0000000000000000    0.0000000000000000    6.3802690000000002
 Al  P  
   2   2
Cartesian
 -0.0000019432710000  2.2438977886150000  0.0003190134500000
  1.9432729432710003  1.1219472113850000  3.1904535134500001
 -0.0000019432710000  2.2438977886150000  2.3922818615499999
  1.9432729432710003  1.1219472113850000  5.5824163615500000
