Ca Sb
 1.0000000000000000
     4.5862509999999999    0.0001550000000000   -1.2617400000000001
    -0.3469550000000000    4.5731089999999996   -1.2617400000000001
     0.0208020000000000    0.0224430000000000    9.0419999999999998
 Ca  Sb 
   4   2
Cartesian
  2.8486899045340004  3.0731079446809999  1.3883858305199999
  4.4113974550330006  2.2852025280019999  7.0685873725799997
  1.3669592611419998  1.4746485345529998  4.9684607863200005
  1.9447697890029996  4.5717023927720000  7.0685873725799997
  3.6583320326139996  3.9465338116009998  4.3312409976000001
  0.5574680462660000  0.6013854699190000  2.0266204214400001
