Pr Pd
 1.0000000000000000
     4.1886679999999998    0.0000000000000000    0.0000000000000000
     0.0000000000000000    4.1886679999999998    0.0000000000000000
     0.0000000000000000    0.0000000000000000    4.1886679999999998
 Pr  Pd 
   1   3
Cartesian
  0.0000000000000000  0.0000000000000000  0.0000000000000000
  0.0000000000000000  2.0943339999999999  2.0943339999999999
  2.0943339999999999  2.0943339999999999  0.0000000000000000
  2.0943339999999999  0.0000000000000000  2.0943339999999999
