Cu Te
 1.0000000000000000
     3.2388859999999999    0.0000000000000000    0.0000000000000000
     0.0000000000000000    3.9969209999999999    0.0000000000000000
     0.0000000000000000    0.0000000000000000    7.3130280000000001
 Cu  Te 
   2   2
Cartesian
  0.8097215000000000  2.9976907499999998  3.3975304264080002
  2.4291644999999997  0.9992302500000000  3.9154975735919995
  0.8097215000000000  0.9992302500000000  1.7421899734680000
  2.4291644999999997  2.9976907499999998  5.5708380265319999
