Zr Co
 1.0000000000000000
     3.2077840000000002    0.0000000000000000    0.0000000000000000
     0.0000000000000000    3.2077840000000002    0.0000000000000000
     0.0000000000000000    0.0000000000000000    3.2077840000000002
 Zr  Co 
   1   1
Cartesian
  0.0000000000000000  0.0000000000000000  0.0000000000000000
  1.6038920000000001  1.6038920000000001  1.6038920000000001
