La Pb C 
 1.0000000000000000
     5.2391639999999997    0.0000000000000000    0.0000000000000000
     0.0000000000000000    5.2391589999999999    0.0000000000000000
     0.0000000000000000    0.0000000000000000    5.2391810000000003
 La  Pb  C  
   3   1   1
Cartesian
  2.6195819999999999  0.0000000000000000  2.6195905000000002
  0.0000000000000000  2.6195794999999999  2.6195905000000002
  2.6195819999999999  2.6195794999999999  0.0000000000000000
  0.0000000000000000  0.0000000000000000  0.0000000000000000
  2.6195819999999999  2.6195794999999999  2.6195905000000002
