Sc Ga Cu
 1.0000000000000000
     0.0000000000000000    3.2995190000000001    3.2995190000000001
     3.2995190000000001    0.0000000000000000    3.2995190000000001
     3.2995190000000001    3.2995190000000001    0.0000000000000000
 Sc  Ga  Cu 
   2   1   1
Cartesian
  0.0000000000000000  0.0000000000000000  0.0000000000000000
  3.2995190000000001  3.2995190000000001  3.2995190000000001
  4.9492719009619996  4.9492719009619996  4.9492719009619996
  1.6497595000000000  1.6497595000000000  1.6497595000000000
