Sc Al
 1.0000000000000000
     6.3120669999999999   -0.0000560000000000    0.0000000000000000
    -3.1560690000000000    5.4662620000000004    0.0000000000000000
     0.0000000000000000    0.0000000000000000    5.0797030000000003
 Sc  Al 
   6   2
Cartesian
  4.6901342725280006  0.9366686465060000  3.8097823297030002
  1.6222172289840000  0.9365209452580001  3.8097823297030002
  3.1563226112849994  3.5932173158300000  3.8097823297030002
 -1.5337259885990000  4.5296029446619999  1.2699206702970001
  1.5342163041359995  4.5296085236020005  1.2699206702970001
  0.0002087584120001  1.8729832132040001  1.2699206702970001
  3.1551379796060002  1.8216928805520001  1.2699206702970001
 -0.0005191664939998  3.6445513953219999  3.8097823297030002
