Na S 
 1.0000000000000000
     4.4515459999999996    0.0000000000000000    0.0000000000000000
    -2.2257729999999998    3.8551540000000002    0.0000000000000000
     0.0000000000000000    0.0000000000000000   10.1758030000000002
 Na  S  
   4   4
Cartesian
  0.0000000000000000  0.0000000000000000  0.0000000000000000
  0.0000000000000000  0.0000000000000000  5.0879015000000001
 -0.0000022257730001  2.5701039517180000  2.5439507500000000
  2.2257752257729999  1.2850500482820000  7.6318522499999997
 -0.0000022257730001  2.5701039517180000  6.5551403587669999
  2.2257752257729999  1.2850500482820000  1.4672388587670002
  2.2257752257729999  1.2850500482820000  3.6206626412329999
 -0.0000022257730001  2.5701039517180000  8.7085641412329995
