Yb Cu Ir
 1.0000000000000000
     0.0000000000000000    3.3575179999999998    3.3575179999999998
     3.3575179999999998    0.0000000000000000    3.3575179999999998
     3.3575179999999998    3.3575179999999998    0.0000000000000000
 Yb  Cu  Ir 
   2   1   1
Cartesian
  1.6787589999999999  1.6787589999999999  1.6787589999999999
  5.0362770000000001  5.0362770000000001  5.0362770000000001
  3.3575179999999998  3.3575179999999998  3.3575179999999998
  0.0000000000000000  0.0000000000000000  0.0000000000000000
