Ag Ge P 
 1.0000000000000000
    -5.1774019999999998    5.1773980000000002    5.1773980000000002
     5.1773999999999996   -5.1773999999999996    5.1773980000000002
     5.1773959999999999    5.1773949999999997   -5.1773999999999996
 Ag  Ge  P  
   6  10  12
Cartesian
  5.1773848192539997  3.1512188797300000  5.1773963913519996
  5.1773852538599998  5.1773842538619999 -3.1512252926960000
  5.1773840365539998  5.1773933913549994  3.1512212927020000
 -3.1512376474899995  5.1773866668370001  5.1773976086540001
  3.1512141153039996  5.1773888009800011  5.1774015687499997
  5.1773936485559995 -3.1512310571179998  5.1773924312539998
  2.5887011773960000  5.1774004273949998 -0.0000066773999997
 -0.0000035000000000  5.1773959999999999  2.5886980000000004
  5.1774026773999999 -0.0000081773999998  2.5887031773980005
 -0.0000024999999999  2.5886972500000001  5.1773975000000005
  2.1979694296079999  2.1979690050760006  2.1979702786720008
  2.9794116684060001  7.3753649768070000  2.9794145174700004
  7.3753771806680000  2.9794115174680003  2.9794145174680002
  2.9794185439380003  2.9794076136720005  7.3753731542020002
  5.1773964999999995  2.5886957500000003 -0.0000014999999995
  2.5887031773999998 -0.0000074273999997  5.1774026773980006
  3.8486214724059997  3.8486207290549999  1.4405525554200003
  3.7368537993679998  1.3287824413610001 -1.3287646429200000
  1.3287824654559999  3.7368528450489999 -1.3287646429200000
  1.3287647505420002  6.6179440490990000  1.3287673070180004
  6.6179510155279999  1.3287701820840003  1.3287621296180001
  1.4405510687179999  3.8486214267230001  3.8486229591080003
  3.8486172252339994  1.4405458456400000  3.8486281365080002
  1.3287844222759999 -1.3287646429260001  3.7368543126699998
 -1.3287651562220002  1.3287839089760001  3.7368543126699998
  1.3287667937219998  1.3287665370740003  6.6179463514280004
 -1.3287660864460000  3.7368536149959999  1.3287839089820004
  3.7368496485639997 -1.3287601631939998  1.3287787315840003
