Sb Ir
 1.0000000000000000
     7.6153930000000001    0.0000000000000000   -2.6924480000000002
    -3.8076949999999998    6.5951240000000002   -2.6924480000000002
     0.0000000000000000    0.0000000000000000    8.0773430000000008
 Sb  Ir 
  12   4
Cartesian
  0.6351021995430003  5.5817700071520004  1.6901916491200006
 -1.8052124103419998  5.5817700071520004 -0.0353952611839998
  5.6129104103419998  1.0133539928480002  2.7278422611840005
 -0.1236430110839999  2.2408648522240000  2.6570660474030006
  3.1725958004570001  1.0133539928480002  1.0022553508800001
 -1.3438112584439998  4.3542591477760002  4.3826206483340000
  1.8788167323980003  1.2275240496240001  5.4202793052680009
  3.9313410110839997  4.3542591477760002  0.0353809525969996
  1.9288812676020008  5.3675999503760004 -2.7278323052680000
  5.1515092584439994  2.2408648522240000 -1.6901736483340002
  3.0989973641870008  3.3408985598040002  3.6947082292040001
  0.7087006358130004  3.2542254401960000 -1.0022612292040001
  3.8076965000000000  0.0000000000000000 -1.3462240000000001
  0.0000000000000000  0.0000000000000000  4.0386715000000004
 -1.9038474999999999  3.2975620000000001 -1.3462240000000001
  1.9038490000000001  3.2975620000000001  1.3462235000000002
