Ho Mg Al
 1.0000000000000000
     0.0000250000000000    3.6451229999999999    3.6451229999999999
     3.6451220000000002    0.0000250000000000    3.6451229999999999
     3.6451229999999999    3.6451229999999999    0.0000250000000000
 Ho  Mg  Al 
   2   1   1
Cartesian
  3.6451479999999998  7.2902459999999998  3.6451479999999998
  3.6451277097300001  3.6451282097290001  3.6451282097290001
  5.4677097902700007  5.4677105402709998  5.4677105402709998
  1.8225747902699998  1.8225750402709997  1.8225750402709997
