Li Hf Os
 1.0000000000000000
     0.0000000000000000    3.2520739999999999    3.2520739999999999
     3.2520739999999999    0.0000000000000000    3.2520739999999999
     3.2520739999999999    3.2520739999999999    0.0000000000000000
 Li  Hf  Os 
   1   2   1
Cartesian
  1.6260370000000000  1.6260370000000000  1.6260370000000000
  0.0000000000000000  0.0000000000000000  0.0000000000000000
  3.2520805041480001  3.2520805041480001  3.2520805041480001
  4.8781109999999996  4.8781109999999996  4.8781109999999996
