Mg In Cu
 1.0000000000000000
     0.0000000000000000    3.4883470000000001    3.4883470000000001
     3.4883470000000001    0.0000000000000000    3.4883470000000001
     3.4883470000000001    3.4883470000000001    0.0000000000000000
 Mg  In  Cu 
   1   1   4
Cartesian
  0.0000000000000000  0.0000000000000000  0.0000000000000000
  5.2325204999999997  5.2325204999999997  5.2325204999999997
  2.6146765404620003  2.6146765404620003  2.6146765404620003
  2.6146765404620003  4.3620104828440001  4.3620104828440001
  4.3620104828440001  2.6146765404620003  4.3620104828440001
  4.3620104828440001  4.3620104828440001  2.6146765404620003
