Ce Cu Ge
 1.0000000000000000
     2.1331359999999999   -3.6944089999999998    0.0000000000000000
     2.1330510000000000    3.6943589999999999    0.0000060000000000
     0.0000130000000000    0.0000070000000000    8.0555740000000000
 Ce  Cu  Ge 
   2   2   2
Cartesian
  4.2661785682639994 -0.0000428054619996  4.0277688332600006
  0.0000407302450000  0.0000033052840000  8.0555659444619998
  2.1331002519199997 -1.2314907401649995  2.0142982786800001
  2.1330933487699997  1.2314514346309997  6.0412897768880001
  2.1330804506370002  1.2314442409170001  2.0141875006659999
  2.1331152832150000 -1.2314872408460000  6.0414166660500008
