Hf Be
 1.0000000000000000
     4.5296380000000003    0.0000000000000000    0.0000000000000000
    -2.2648199999999998    3.9227820000000002    0.0000000000000000
     0.0000000000000000    0.0000000000000000    3.4368690000000002
 Hf  Be 
   1   5
Cartesian
  0.0000000000000000  0.0000000000000000  0.0000000000000000
 -0.0000029314859999  2.6151893075940000  0.0000000000000000
  2.2648209314860002  1.3075926924060000  0.0000000000000000
  2.2648190000000001  0.0000000000000000  1.7184345000000001
  1.1324090000000002  1.9613910000000001  1.7184345000000001
 -1.1324099999999999  1.9613910000000001  1.7184345000000001
