Pr Sb
 1.0000000000000000
     3.9547370000000002   -0.0000000000000000    2.2832669999999999
     1.3182460000000000    3.7285599999999999    2.2832669999999999
    -0.0000000000000000   -0.0000000000000000    4.5665360000000002
 Pr  Sb 
   1   1
Cartesian
  0.0000000000000000  0.0000000000000000  0.0000000000000000
  2.6364915000000000  1.8642799999999999  4.5665350000000000
