Ba Y  Cu O 
 1.0000000000000000
     8.0927980000000002    0.0000000000000000    0.0000000000000000
     0.0000000000000000    8.0929319999999993    0.0000000000000000
     0.0000000000000000    0.0000000000000000    8.0927710000000008
 Ba  Y   Cu  O  
   8   2   6  18
Cartesian
  6.0697603559600006  2.0232168141359996  2.0233465126490002
  2.0230376440400000  2.0232168141359996  6.0694244873510010
  2.0230376440400000  6.0697151858639993  2.0233465126490002
  6.0697603559600006  6.0697151858639993  6.0694244873510010
  2.0230376440400000  6.0697151858639993  6.0694244873510010
  6.0697603559600006  6.0697151858639993  2.0233465126490002
  6.0697603559600006  2.0232168141359996  6.0694244873510010
  2.0230376440400000  2.0232168141359996  2.0233465126490002
  0.0000000000000000  0.0000000000000000  0.0000000000000000
  4.0463990000000001  4.0464659999999997  4.0463855000000004
  0.0000000000000000  4.0464659999999997  0.0000000000000000
  0.0000000000000000  0.0000000000000000  4.0463855000000004
  4.0463990000000001  0.0000000000000000  0.0000000000000000
  4.0463990000000001  0.0000000000000000  4.0463855000000004
  4.0463990000000001  4.0464659999999997  0.0000000000000000
  0.0000000000000000  4.0464659999999997  4.0463855000000004
  0.0000000000000000  2.2159661755799998  0.0000000000000000
  0.0000000000000000  5.8769658244199992  0.0000000000000000
  0.0000000000000000  0.0000000000000000  2.2159625552200004
  0.0000000000000000  0.0000000000000000  5.8768084447800009
  2.2159132987739998  0.0000000000000000  0.0000000000000000
  5.8768847012260004  0.0000000000000000  0.0000000000000000
  4.0463990000000001  1.8305402890799998  4.0463855000000004
  4.0463990000000001  6.2623917109199994  4.0463855000000004
  4.0463990000000001  4.0464659999999997  1.8304634086350002
  4.0463990000000001  4.0464659999999997  6.2623075913650013
  1.8304209588420000  4.0464659999999997  4.0463855000000004
  6.2623770411579995  4.0464659999999997  4.0463855000000004
  4.0463990000000001  2.0232491858640000  0.0000000000000000
  4.0463990000000001  6.0696828141359997  0.0000000000000000
  0.0000000000000000  4.0464659999999997  2.0232413066260002
  0.0000000000000000  4.0464659999999997  6.0695296933740011
  2.0230862008280002  0.0000000000000000  4.0463855000000004
  6.0697117991719995  0.0000000000000000  4.0463855000000004
