Zr Si
 1.0000000000000000
     3.6732510000000000    0.0000000000000000    0.0000000000000000
     0.0000000000000000    3.5695899999999998   -0.9088900000000000
     0.0000000000000000    0.0499110000000000    7.6601049999999997
 Zr  Si 
   2   4
Cartesian
  2.7549382499999999  0.3886347637440000  1.5263317238400000
  0.9183127500000000  3.2308662362559999  5.2248832761599999
  0.9183127500000000  1.9736266608429998  0.2871835986250000
  2.7549382499999999  1.6458743391570001  6.4640314013750002
  2.7549382499999999  2.7012307468220000  3.1447974902099998
  0.9183127500000000  0.9182702531779998  3.6064175097900000
