Sr Sn O 
 1.0000000000000000
     5.7774359999999998    0.0000000000000000    0.0000000000000000
     0.0000000000000000    5.7774359999999998    0.0000000000000000
     0.0000000000000000    0.0000000000000000   12.5344820000000006
 Sr  Sn  O  
   8   4  16
Cartesian
  4.3981482616680001  1.5094302616680000  4.9742841127360000
  1.5094302616680000  1.3792877383319999  7.5601978872640005
  4.2680057383319996  4.3981482616680001  7.5601978872640005
  1.3792877383319999  4.2680057383319996  4.9742841127360000
  4.2680057383319996  1.3792877383319999  1.2929568872640000
  1.3792877383319999  1.5094302616680000 11.2415251127359994
  4.3981482616680001  4.2680057383319996 11.2415251127359994
  1.5094302616680000  4.3981482616680001  1.2929568872640000
  4.3330769999999994  1.4443589999999999  9.4008615000000013
  1.4443589999999999  1.4443589999999999  3.1336205000000001
  4.3330769999999994  4.3330769999999994  3.1336205000000001
  1.4443589999999999  4.3330769999999994  9.4008615000000013
  4.1245693347600003  1.2358513347600000  7.3607742786440005
  1.2358513347600000  1.6528666652399999  5.1737077213560001
  4.5415846652399994  4.1245693347600003  5.1737077213560001
  1.6528666652399999  4.5415846652399994  7.3607742786440005
  4.5415846652399994  1.6528666652399999 11.4409487213559995
  1.6528666652399999  1.2358513347600000  1.0935332786440000
  4.1245693347600003  4.5415846652399994  1.0935332786440000
  1.2358513347600000  4.1245693347600003 11.4409487213559995
  0.0000000000000000  0.0000000000000000  3.1336205000000001
  2.8887179999999999  2.8887179999999999  9.4008615000000013
  2.8887179999999999  2.8887179999999999  3.1336205000000001
  0.0000000000000000  0.0000000000000000  9.4008615000000013
  2.8887179999999999  0.0000000000000000  9.7107891019320007
  0.0000000000000000  2.8887179999999999  2.8236928980680003
  0.0000000000000000  2.8887179999999999  9.0909338980680001
  2.8887179999999999  0.0000000000000000  3.4435481019320004
