Ta Ni Ge
 1.0000000000000000
     3.7517980000000000    0.0000000000000000    0.0000000000000000
     0.0000000000000000    6.2608639999999998    0.0000000000000000
     0.0000000000000000    0.0000000000000000    7.1515170000000001
 Ta  Ni  Ge 
   4   4   4
Cartesian
  0.9379495000000000  3.2208326152959996  4.8405686451029997
  0.9379495000000000  0.0904006152960000  5.8867068548970005
  2.8138484999999998  6.1704633847040000  1.2648101451030000
  2.8138484999999998  3.0400313847040001  2.3109483548970000
  2.8138484999999998  5.2363236933120003  4.1053998490200003
  0.9379495000000000  1.0245403066880001  3.0461171509799998
  2.8138484999999998  2.1058916933120000  6.6218756509799999
  0.9379495000000000  4.1549723066879993  0.5296413490200000
  2.8138484999999998  4.4735438495999995  6.3435672154080001
  0.9379495000000000  4.9177521504000001  2.7678087154080000
  0.9379495000000000  1.7873201503999998  0.8079497845920000
  2.8138484999999998  1.3431118495999999  4.3837082845920001
