Sn O 
 1.0000000000000000
     3.2075000000000000    0.0000000000000000    0.0000000000000000
     0.0000000000000000    4.7638360000000004    0.0000000000000000
     0.0000000000000000    0.0000000000000000    4.7657999999999996
 Sn  O  
   2   4
Cartesian
  1.6037500000000000  2.3819180000000002  2.3828999999999998
  0.0000000000000000  0.0000000000000000  0.0000000000000000
  1.6037500000000000  0.9252131725760001  3.8420020937999997
  1.6037500000000000  3.8386228274240000  0.9237979062000000
  0.0000000000000000  1.4567048274240002  1.4591020937999999
  0.0000000000000000  3.3071311725760006  3.3066979061999997
