Ti
 1.0000000000000000
     2.9359769999999998    0.0000000000000000    0.0000000000000000
    -1.4679880000000001    2.5426299999999999    0.0000000000000000
     0.0000000000000000    0.0000000000000000    4.6508019999999997
 Ti 
   2
Cartesian
 -0.0000011346550002  1.6950875142099999  1.1627004999999999
  1.4679901346549999  0.8475424857899999  3.4881015000000000
