Sr Mg
 1.0000000000000000
     6.5067700000000004   -0.0000050000000000    0.0000000000000000
    -3.2533880000000002    5.6350270000000000    0.0000000000000000
     0.0000000000000000    0.0000000000000000   10.2333420000000004
 Sr  Mg 
   4   8
Cartesian
 -0.0000052533860002  3.7566848783440001  9.6147467094420005
 -0.0000052533860002  3.7566848783440001  5.7352662905580001
  3.2533872533859998  1.8783371216559999  0.6185952905580000
  3.2533872533859998  1.8783371216559999  4.4980757094420003
  4.8851880694059995  0.9362161215760001  7.6750065000000003
  1.6317880527240005  4.6988033705790002  2.5583355000000001
  1.6215939472759999  0.9362186294210001  7.6750065000000003
  3.2533895036339997  3.7625709789389998  7.6750065000000003
 -0.0000075036339999  1.8724510210609999  2.5583355000000001
 -1.6318060694059999  4.6988058784239994  2.5583355000000001
  0.0000000000000000  0.0000000000000000  5.1166710000000002
  0.0000000000000000  0.0000000000000000  0.0000000000000000
