Eu P  Rh
 1.0000000000000000
    -2.0109409999999999    2.0109409999999999    4.9559740000000003
     2.0109409999999999   -2.0109409999999999    4.9559740000000003
     2.0109409999999999    2.0109409999999999   -4.9559740000000003
 Eu  P   Rh 
   1   2   2
Cartesian
  0.0000000000000000  0.0000000000000000  0.0000000000000000
  0.0000000000000001 -0.0000000000000001  6.1020132516560004
 -0.0000000000000001  0.0000000000000001  3.8099347483440003
  0.0000000000000000  2.0109409999999999  2.4779870000000002
  2.0109409999999999  0.0000000000000000  2.4779870000000002
