Mg Sb Pd
 1.0000000000000000
     6.3553569999999997    0.0000000000000000    0.0000000000000000
     0.0000000000000000    6.3553569999999997    0.0000000000000000
     0.0000000000000000    0.0000000000000000    6.3553569999999997
 Mg  Sb  Pd 
   4   4   4
Cartesian
  3.1776784999999999  0.0000000000000000  0.0000000000000000
  3.1776784999999999  3.1776784999999999  3.1776784999999999
  0.0000000000000000  0.0000000000000000  3.1776784999999999
  0.0000000000000000  3.1776784999999999  0.0000000000000000
  0.0000000000000000  0.0000000000000000  0.0000000000000000
  0.0000000000000000  3.1776784999999999  3.1776784999999999
  3.1776784999999999  0.0000000000000000  3.1776784999999999
  3.1776784999999999  3.1776784999999999  0.0000000000000000
  4.7665177500000002  1.5888392499999999  1.5888392499999999
  4.7665177500000002  4.7665177500000002  4.7665177500000002
  1.5888392499999999  1.5888392499999999  4.7665177500000002
  1.5888392499999999  4.7665177500000002  1.5888392499999999
