Ca Ga Ni
 1.0000000000000000
     5.0969429999999996    0.0000000000000000    0.0000000000000000
     0.0000000000000000    6.0969759999999997   -1.3658900000000000
     0.0000000000000000   -0.0509700000000000    6.2478930000000004
 Ca  Ga  Ni 
   2   6   4
Cartesian
  1.2742357499999999  2.0714100236480002  1.6726132838240002
  3.8227072499999997  3.9745959763519996  3.2093897161760001
  3.8227072499999997  2.8526702954279997 -0.0906284338139999
  3.8227072499999997  0.5122948039320000  2.8077560234940000
  1.2742357499999999  3.1933357045720001  4.9726314338140005
  3.8227072499999997  0.3362788537200000  0.2715370068600000
  1.2742357499999999  5.7097271462799997  4.6104659931400001
  1.2742357499999999  5.5337111960680003  2.0742469765060001
  2.5484714999999998  4.8202259062339996  0.2152719293930001
  0.0000000000000000  4.8202259062339996  0.2152719293930001
  0.0000000000000000  1.2257800937659999  4.6667310706069998
  2.5484714999999998  1.2257800937659999  4.6667310706069998
