La Ni H 
 1.0000000000000000
     2.6602779999999999   -4.6073430000000002   -0.0000010000000000
     2.6602790000000001    4.6073440000000003   -0.0000000000000000
    -0.0000020000000000    0.0000010000000000    8.6443320000000003
 La  Ni  H  
   2  10  14
Cartesian
  2.6602770399670002 -4.6073333052959997  4.1494253136450006
  2.6602760406879997 -4.6073420203440003  8.4684707097919993
  2.6602780005200000 -0.0079607402599997  2.1551006213920001
  3.9836971383230000 -2.2997084365450000  2.1551001239490000
  1.3368610255810001 -2.2997135413610001  2.1551092657540001
  2.6602770025279998  0.0076125806110001  6.4758921742939997
  1.3365572533090000  2.2998809066560000  6.4759013161820000
  3.9839972492700002  2.2998814042420004  6.4758921742629996
  2.6602776792540004  1.5357944466230002  4.2677668853920006
  2.6602736860639999 -1.5357873520780001  8.5880999536729998
  2.6602786293440004  1.5357939715780002  0.1613201904520000
  2.6602772958709999 -1.5357832194980003  4.4840823160250007
  2.6602776120240001 -0.0603736885119998  3.8096603378320002
  3.9381235273739996 -2.2734602177839998  3.8096857904870003
  1.3824312163229997 -2.2734606981269998  3.8096862708300003
  2.6602766254679997  0.0603576403909996  8.1303481701619997
  1.3824067676039999  2.2734856357560003  8.1303745835080008
  3.9381469636679998  2.2734861161080002  8.1303741031560008
  2.6602773113830001  1.5359697096210001  5.8578485351510006
  2.6602779784490003 -1.5359678545370001  1.5337804487370001
  2.6602783960430001  3.1928068385410002  1.9469108768590002
  4.0952376697749990  0.7073387984170001  1.9468930487650000
  1.2253185828609998  0.7073382590149999  1.9468935881670002
  2.6602740427330001 -3.1934821676000005  6.2689724518199998
  1.2247374886860001 -0.7070051193630003  6.2689470584720004
  4.0958137967469996 -0.7070091870869997  6.2689465188520002
