Cu P  Se
 1.0000000000000000
     6.3709650000000000    0.0000000000000000    0.0000000000000000
     0.0000000000000000    6.6659079999999999    0.0000000000000000
     0.0000000000000000    0.0000000000000000    7.6727559999999997
 Cu  P   Se 
   6   2   8
Cartesian
  0.0585873941400000  5.4905151082680002  1.9472917635079998
  3.2440698941399999  1.1753928917320000  1.8890862364920000
  3.2440698941399999  1.1753928917320000  5.7836697635080005
  0.0585873941400000  5.4905151082680002  5.7254642364919990
  6.3528332336100002  2.3071307519720001  0.0000000000000000
  3.1673507336099997  4.3587772480279998  3.8363779999999998
  3.1870051606350001  4.4808900166800001  0.0000000000000000
  0.0015226606350000  2.1850179833200003  3.8363779999999998
  2.2718797480349999  2.1394898316800002  3.8363779999999998
  5.4573622480350004  4.5264181683200002  0.0000000000000000
  5.5767668740650000  4.3003905598559999  3.8363779999999998
  2.3912843740650001  2.3655174401440000  0.0000000000000000
  2.4386524988400002  5.5730057197680001  1.8591317970679999
  5.6241349988399998  1.0929022802319999  1.9772462029319999
  5.6241349988399998  1.0929022802319999  5.6955097970680004
  2.4386524988400002  5.5730057197680001  5.8136242029319991
