Li Cu Ge
 1.0000000000000000
     3.5690490000000001    0.0000000000000000    2.0605920000000002
     1.1896830000000000    3.3649320000000000    2.0605920000000002
     0.0000000000000000    0.0000000000000000    4.1211830000000003
 Li  Cu  Ge 
   1   2   1
Cartesian
  2.3793660000000001  1.6824660000000000  4.1211835000000008
  1.1896830000000000  0.8412330000000000  2.0605917500000004
  3.5690490000000001  2.5236990000000001  6.1817752500000012
  0.0000000000000000  0.0000000000000000  0.0000000000000000
