Zr Co Si
 1.0000000000000000
     3.4971880000000000    0.0000000000000000   -1.2619899999999999
    -0.4553990000000000    3.4674090000000000   -1.2619899999999999
    -0.0000200000000000   -0.0000220000000000    5.4765889999999997
 Zr  Co  Si 
   1   2   2
Cartesian
  0.0000000000000000  0.0000000000000000  0.0000000000000000
  0.5327377500000000  2.6005457499999998  1.4763044999999999
  2.5090312500000000  0.8668412500000000  1.4763044999999999
  1.1476153966720002  1.3081952060760000  3.1802462082019995
  1.8941536033280000  2.1591917939240002 -0.2276372082020001
