Al Mo
 1.0000000000000000
     4.9797079999999996    0.0000000000000000    0.0000000000000000
     0.0000000000000000    4.9797079999999996    0.0000000000000000
     0.0000000000000000    0.0000000000000000    4.9797079999999996
 Al  Mo 
   2   6
Cartesian
  0.0000000000000000  0.0000000000000000  0.0000000000000000
  2.4898539999999998  2.4898539999999998  2.4898539999999998
  1.2449269999999999  0.0000000000000000  2.4898539999999998
  3.7347809999999999  0.0000000000000000  2.4898539999999998
  0.0000000000000000  2.4898539999999998  1.2449269999999999
  0.0000000000000000  2.4898539999999998  3.7347809999999999
  2.4898539999999998  3.7347809999999999  0.0000000000000000
  2.4898539999999998  1.2449269999999999  0.0000000000000000
