Er Au
 1.0000000000000000
     3.4876559999999999    0.0000000000000000   -1.1776089999999999
     0.0000000000000000    4.6036219999999997    0.0000000000000000
    -0.0171120000000000    0.0000000000000000    5.7027239999999999
 Er  Au 
   2   2
Cartesian
  0.4796851753440000  3.4527164999999997  1.4206513622150001
  2.9908588246559993  1.1509054999999999  3.1044636377850003
  1.4204967140160001  3.4527164999999997  4.2070124907549999
  2.0500472859840002  1.1509054999999999  0.3181025092449999
