Ag F 
 1.0000000000000000
     2.9951010000000000   -0.0000000000000000    0.0000000000000000
    -1.4975510000000001    2.5938340000000002    0.0000000000000000
     0.0000000000000000    0.0000000000000000    5.7256419999999997
 Ag  F  
   2   1
Cartesian
 -0.0000018308840001  1.7292235312780002  3.9701830653679999
  1.4975518308839999  0.8646104687220001  1.7554589346319998
  0.0000000000000000  0.0000000000000000  0.0000000000000000
