Ho Nb Ru
 1.0000000000000000
     0.0000000000000000    3.2567240000000002    3.2567240000000002
     3.2567240000000002    0.0000000000000000    3.2567240000000002
     3.2567240000000002    3.2567240000000002    0.0000000000000000
 Ho  Nb  Ru 
   1   1   2
Cartesian
  1.6283620000000001  1.6283620000000001  1.6283620000000001
  4.8850860000000003  4.8850860000000003  4.8850860000000003
  0.0000000000000000  0.0000000000000000  0.0000000000000000
  3.2567174865520006  3.2567174865520006  3.2567174865520006
