Pa Ge
 1.0000000000000000
     4.4746059999999996    0.0000000000000000    0.0000000000000000
     0.0000000000000000    4.4746059999999996    0.0000000000000000
     0.0000000000000000    0.0000000000000000    4.4743670000000000
 Pa  Ge 
   3   1
Cartesian
  2.2372985253939999  0.0000000000000000  2.2371790256330000
  0.0000000000000000  2.2372985253939999  2.2371790256330000
  2.2372985253939999  2.2372985253939999  0.0000000000000000
  0.0000000000000000  0.0000000000000000  0.0000000000000000
