Ho Ni P 
 1.0000000000000000
     3.5936119999999998    0.0000000000000000   -1.3692839999999999
    -0.5217420000000000    3.5555349999999999   -1.3692839999999999
    -0.0071650000000000   -0.0082930000000000    5.3814590000000004
 Ho  Ni  P  
   1   2   2
Cartesian
  0.0000000000000000  0.0000000000000000  0.0000000000000000
  2.5611910000000000  0.8847372499999999  1.3214455000000003
  0.5035139999999999  2.6625047500000001  1.3214455000000003
  1.9124068498250000  2.2135147597140001 -0.3812591903090000
  1.1522981501749998  1.3337272402860001  3.0241501903090007
