Ce Mo C 
 1.0000000000000000
     3.2346539999999999    0.0000000000000000   -0.8972260000000000
    -0.6434640000000000    5.2289990000000000   -2.3197999999999999
     0.0072960000000000   -0.0549890000000000    6.3056580000000002
 Ce  Mo  C  
   2   2   3
Cartesian
  1.1624735846940000  0.9845022998670000  4.1909040663340003
  1.4360124153060003  4.1895077001329994 -1.1022720663339995
  0.3091286230140000  1.6768634897509997  1.1144549453520001
  2.2893573769860001  3.4971465102490003  1.9741770546480000
  0.0000000000000000  0.0000000000000000  0.0000000000000000
  0.3448458464040001  3.8332866884969996  1.2432335078780001
  2.2536401535959998  1.3407233115029999  1.8453984921219999
