Ba Ga
 1.0000000000000000
     4.2703740000000003   -0.0000000000000000   -1.6658210000000000
    -0.6498159999999999    4.2206429999999999   -1.6658210000000000
    -0.0148180000000000   -0.0172740000000000    6.2685360000000001
 Ba  Ga 
   1   4
Cartesian
  0.0000000000000000  0.0000000000000000  0.0000000000000000
  2.2488131822240001  2.6215399969589996 -0.5416325406459997
  3.0329175000000004  1.0465237500000000  1.4684470000000001
  0.5728225000000001  3.1568452500000004  1.4684470000000001
  1.3569268177760003  1.5818290030410000  3.4785265406460000
