Pr Si
 1.0000000000000000
     3.9619710000000001    0.0000000000000000    0.0000000000000000
     0.0000000000000000    5.9903950000000004    0.0000000000000000
     0.0000000000000000    0.0000000000000000    8.3570890000000002
 Pr  Si 
   4   4
Cartesian
  0.9904927500000000  2.3161682555650001  5.6764524181820004
  2.9714782500000001  3.6742267444350003  2.6806449389070002
  2.9714782500000001  5.3113657555650002  6.8591810818179999
  0.9904927500000000  0.6790292444350000  1.4979079181820001
  0.9904927500000000  5.2777536492200001  4.4667637854319997
  2.9714782500000001  0.7126413507800000  3.8903252145680001
  2.9714782500000001  2.2825561492199999  8.0688697145680006
  0.9904927500000000  3.7078388507800000  0.2882192854320000
