Be S 
 1.0000000000000000
     2.9824400000000000   -0.0000000000000000    1.7219110000000000
     0.9941460000000000    2.8118720000000001    1.7219110000000000
    -0.0000000000000000   -0.0000000000000000    3.4438240000000002
 Be  S  
   1   1
Cartesian
  0.0000000000000000  0.0000000000000000  0.0000000000000000
  0.9941465000000000  0.7029680000000000  1.7219115000000000
