Ti Co Ir
 1.0000000000000000
     0.0000000000000000    3.0561759999999998    3.0561759999999998
     3.0561759999999998    0.0000000000000000    3.0561759999999998
     3.0561759999999998    3.0561759999999998    0.0000000000000000
 Ti  Co  Ir 
   2   1   1
Cartesian
  0.0000000000000000  0.0000000000000000  0.0000000000000000
  3.0561698876480001  3.0561698876480001  3.0561698876480001
  1.5280879999999999  1.5280879999999999  1.5280879999999999
  4.5842701123519998  4.5842701123519998  4.5842701123519998
