Ba Mg
 1.0000000000000000
     6.6447260000000004   -0.0000010000000000    0.0000000000000000
    -3.3223639999999999    5.7545010000000003    0.0000000000000000
     0.0000000000000000    0.0000000000000000   10.5821190000000005
 Ba  Mg 
   4   8
Cartesian
 -0.0000039890300000  3.8363355848340004  4.6968206075549999
  3.3223659890300006  1.9181644151660000  9.9878801075550001
  3.3223659890300006  1.9181644151660000  5.8852983924449997
 -0.0000039890300000  3.8363355848340004  0.5942388924449999
 -0.0000003221480000  1.8538008270740001  7.9365892500000008
  5.0392869453400007  0.9268996551480000  2.6455297500000001
  1.6054453772380004  0.9269001719250001  2.6455297500000001
  1.7169166227620007  4.8275998280749999  7.9365892500000008
  0.0000000000000000  0.0000000000000000  0.0000000000000000
  0.0000000000000000  0.0000000000000000  5.2910595000000002
  3.3223623221480003  3.9006991729260001  2.6455297500000001
 -1.7169249453399997  4.8276003448519997  7.9365892500000008
