Sb Au
 1.0000000000000000
     6.7919729999999996    0.0000000000000000    0.0000000000000000
     0.0000000000000000    6.7919729999999996    0.0000000000000000
     0.0000000000000000    0.0000000000000000    6.7919729999999996
 Sb  Au 
   8   4
Cartesian
  2.5547870600039997  0.8411994399960000  5.9507735600039995
  0.8411994399960000  5.9507735600039995  2.5547870600039997
  5.9507735600039995  2.5547870600039997  0.8411994399960000
  4.2371859399959995  4.2371859399959995  4.2371859399959995
  2.5547870600039997  2.5547870600039997  2.5547870600039997
  0.8411994399960000  4.2371859399959995  5.9507735600039995
  5.9507735600039995  0.8411994399960000  4.2371859399959995
  4.2371859399959995  5.9507735600039995  0.8411994399960000
  0.0000000000000000  3.3959864999999998  3.3959864999999998
  3.3959864999999998  3.3959864999999998  0.0000000000000000
  3.3959864999999998  0.0000000000000000  3.3959864999999998
  0.0000000000000000  0.0000000000000000  0.0000000000000000
