Th Bi
 1.0000000000000000
     4.5479390000000004    0.0000000000000000    0.0000000000000000
     0.0000000000000000    4.5479390000000004    0.0000000000000000
     0.0000000000000000    0.0000000000000000    9.3770009999999999
 Th  Bi 
   2   4
Cartesian
  3.4109542500000005  3.4109542500000005  6.7639215083310003
  1.1369847500000001  1.1369847500000001  2.6130794916690001
  1.1369847500000001  3.4109542500000005  0.0000000000000000
  3.4109542500000005  3.4109542500000005  3.4000536775949999
  1.1369847500000001  1.1369847500000001  5.9769473224049996
  3.4109542500000005  1.1369847500000001  0.0000000000000000
