Rb Y  Te
 1.0000000000000000
     4.5154139999999998    0.0000000000000000    0.0000000000000000
    -2.2577069999999999    3.9104619999999999    0.0000000000000000
     0.0000000000000000    0.0000000000000000   17.0313130000000008
 Rb  Y   Te 
   2   2   4
Cartesian
 -0.0000022577070001  2.6069759701540001  4.2578282500000002
  2.2577092577069999  1.3034860298459998 12.7734847500000015
  0.0000000000000000  0.0000000000000000  0.0000000000000000
  0.0000000000000000  0.0000000000000000  8.5156565000000004
 -0.0000022577070001  2.6069759701540001 10.2211721838200003
  2.2577092577069999  1.3034860298459998  1.7055156838200003
  2.2577092577069999  1.3034860298459998  6.8101408161800006
 -0.0000022577070001  2.6069759701540001 15.3257973161800010
