Ti Al Mo
 1.0000000000000000
     0.0000000000000000    3.1690140000000002    3.1690140000000002
     3.1690140000000002    0.0000000000000000    3.1690140000000002
     3.1690140000000002    3.1690140000000002    0.0000000000000000
 Ti  Al  Mo 
   2   1   1
Cartesian
  0.0000000000000000  0.0000000000000000  0.0000000000000000
  3.1690076619720005  3.1690076619720005  3.1690076619720005
  1.5845006619720001  1.5845006619720001  1.5845006619720001
  4.7535273380280003  4.7535273380280003  4.7535273380280003
