Ga Co
 1.0000000000000000
     2.8472290000000000    0.0000000000000000    0.0000000000000000
     0.0000000000000000    2.8472290000000000    0.0000000000000000
     0.0000000000000000    0.0000000000000000    2.8472290000000000
 Ga  Co 
   1   1
Cartesian
  1.4236145000000000  1.4236145000000000  1.4236145000000000
  0.0000000000000000  0.0000000000000000  0.0000000000000000
