La Si Ir
 1.0000000000000000
     3.9824489999999999    0.0000000000000000   -1.5891830000000000
    -0.6341590000000000    3.9316330000000002   -1.5891830000000000
     0.0038120000000000    0.0044750000000000    5.7940969999999998
 La  Si  Ir 
   1   3   1
Cartesian
  3.3472124409259996  3.9303665795189997  2.6034894687979997
  2.8709672911699999  1.0330120161760001  1.4100254748129997
  0.5626632911699999  2.9988285161760002  1.4100254748129997
  1.3844588293020001  1.6256599325690000  3.4694156726039997
  2.1913484055620001  2.5731273391610001 -0.2930739499299997
