Hf Si
 1.0000000000000000
     3.6839050000000002    0.0000000000000000    0.0000000000000000
     0.0000000000000000   14.5908329999999999    0.0000000000000000
     0.0000000000000000    0.0000000000000000    3.6613929999999999
 Hf  Si 
   4   8
Cartesian
  0.0000000000000000 13.0528862476349996  0.9153482500000000
  0.0000000000000000  1.5379467523649999  2.7460447499999998
  1.8419525000000001  5.7574697476349996  0.9153482500000000
  1.8419525000000001  8.8333632523650003  2.7460447499999998
  1.8419525000000001 10.9459991441010001  0.9153482500000000
  1.8419525000000001  3.6448338558989999  2.7460447499999998
  1.8419525000000001 13.7989884930899986  2.7460447499999998
  1.8419525000000001  0.7918445069100000  0.9153482500000000
  0.0000000000000000  3.6505826441010001  0.9153482500000000
  0.0000000000000000 10.9402503558989999  2.7460447499999998
  0.0000000000000000  6.5035719930900004  2.7460447499999998
  0.0000000000000000  8.0872610069100013  0.9153482500000000
