Dy Te
 1.0000000000000000
     3.7603399999999998    0.0000000000000000    2.1710340000000001
     1.2534470000000000    3.5452810000000001    2.1710340000000001
     0.0000000000000000    0.0000000000000000    4.3420660000000000
 Dy  Te 
   1   1
Cartesian
  0.0000000000000000  0.0000000000000000  0.0000000000000000
  2.5068934999999999  1.7726405000000001  4.3420670000000001
