Dy Si Ru
 1.0000000000000000
     3.8658020000000000    0.0000000000000000   -1.5445970000000000
    -0.6171500000000000    3.8162219999999998   -1.5445970000000000
    -0.0054400000000000   -0.0063900000000000    5.5963250000000002
 Dy  Si  Ru 
   1   2   2
Cartesian
  0.0000000000000000  0.0000000000000000  0.0000000000000000
  2.0526476146680004  2.4112645323480000 -0.4725933128909998
  1.1905643853320000  1.3985674676519999  2.9797243128910003
  2.7423439999999997  0.9508605000000000  1.2535655000000001
  0.5008680000000001  2.8589715000000000  1.2535655000000001
