Bi Pt O 
 1.0000000000000000
     0.0000000000000000    5.2127059999999998    5.2127059999999998
     5.2127059999999998    0.0000000000000000    5.2127059999999998
     5.2127059999999998    5.2127059999999998    0.0000000000000000
 Bi  Pt  O  
   4   4  14
Cartesian
  3.9095294999999997  3.9095294999999997  1.3031765000000000
  3.9095295000000001  1.3031765000000000  3.9095294999999997
  1.3031765000000000  3.9095295000000001  3.9095295000000001
  1.3031765000000000  1.3031765000000000  1.3031765000000000
  3.9095295000000001  3.9095295000000001  6.5158825000000000
  3.9095294999999997  6.5158825000000000  3.9095295000000001
  6.5158825000000000  3.9095294999999997  3.9095294999999997
  6.5158825000000000  6.5158825000000000  6.5158825000000000
  2.6063529999999999  2.6063529999999999  2.6063529999999999
  0.0000000000000000  0.0000000000000000  0.0000000000000000
  7.8190590000000002  5.6541596457279999  7.8190589999999993
  5.2127059999999998  3.0478066457280000  5.2127059999999998
  7.8190589999999993  7.8190589999999993  5.6541596457279999
  5.6541596457279999  7.8190590000000002  7.8190590000000002
  9.9839583542719996  7.8190589999999993  7.8190589999999993
  7.8190590000000002  7.8190590000000002  9.9839583542719996
  7.8190589999999993  9.9839583542719996  7.8190590000000002
  3.0478066457280000  5.2127059999999998  5.2127059999999998
  7.3776053542719993  5.2127059999999998  5.2127059999999998
  5.2127059999999998  7.3776053542719993  5.2127059999999998
  5.2127059999999998  5.2127059999999998  3.0478066457280000
  5.2127059999999998  5.2127059999999998  7.3776053542719993
