La Hg Au
 1.0000000000000000
     0.0000000000000000    3.6013959999999998    3.6013959999999998
     3.6013959999999998    0.0000000000000000    3.6013959999999998
     3.6013959999999998    3.6013959999999998    0.0000000000000000
 La  Hg  Au 
   1   1   2
Cartesian
  5.4020940000000000  5.4020940000000000  5.4020940000000000
  1.8007052027919996  1.8007052027919996  1.8007052027919996
  0.0000000000000000  0.0000000000000000  0.0000000000000000
  3.6014032027920000  3.6014032027920000  3.6014032027920000
