Dy Ga
 1.0000000000000000
     4.0408710000000001    0.0000000000000000    0.0000000000000000
     0.0000000000000000    4.0268699999999997   -1.5757159999999999
     0.0000000000000000   -0.0430100000000000    5.8234370000000002
 Dy  Ga 
   2   2
Cartesian
  1.0102177500000000  3.4365585638199998  2.8490661184290005
  3.0306532500000003  0.5473014361799999  1.3986548815709998
  1.0102177500000000  2.3090618466099997 -0.0323658349089999
  3.0306532500000003  1.6747981533899998  4.2800868349090004
