Li Cd Au
 1.0000000000000000
     0.0000000000000000    3.1497519999999999    3.1497519999999999
     3.1497519999999999    0.0000000000000000    3.1497519999999999
     3.1497519999999999    3.1497519999999999    0.0000000000000000
 Li  Cd  Au 
   2   1   1
Cartesian
  0.0000000000000000  0.0000000000000000  0.0000000000000000
  3.1497519999999999  3.1497519999999999  3.1497519999999999
  4.7246217004959998  4.7246217004959998  4.7246217004959998
  1.5748822995039997  1.5748822995039997  1.5748822995039997
