Hf Ni Sn
 1.0000000000000000
     3.7162130000000002   -0.0000000000000000    2.1455560000000000
     1.2387370000000000    3.5036790000000000    2.1455560000000000
     0.0000000000000000    0.0000000000000000    4.2911130000000002
 Hf  Ni  Sn 
   1   1   1
Cartesian
  0.0000000000000000  0.0000000000000000  0.0000000000000000
  1.2387375000000000  0.8759197500000000  2.1455562500000003
  2.4774750000000001  1.7518395000000000  4.2911125000000006
