Pb
 1.0000000000000000
     5.0433849999999998    0.0000000000000000    0.0000000000000000
     0.0000000000000000    5.0433849999999998    0.0000000000000000
     0.0000000000000000    0.0000000000000000    5.0433849999999998
 Pb 
   4
Cartesian
  0.0000000000000000  0.0000000000000000  0.0000000000000000
  0.0000000000000000  2.5216924999999999  2.5216924999999999
  2.5216924999999999  0.0000000000000000  2.5216924999999999
  2.5216924999999999  2.5216924999999999  0.0000000000000000
