Yb Si
 1.0000000000000000
     2.0877699999999999   -5.1545449999999997    0.0000000000000000
     2.0877699999999999    5.1545449999999997    0.0000000000000000
     0.0000000000000000    0.0000000000000000    3.7577340000000001
 Yb  Si 
   2   2
Cartesian
  2.0877699999999999  3.7051178732699999  0.9394335000000000
  2.0877699999999999 -3.7051178732700003  2.8183005000000003
  2.0877699999999999  0.8020575110900001  0.9394335000000000
  2.0877699999999999 -0.8020575110900001  2.8183005000000003
