Ga Cu O 
 1.0000000000000000
     2.9718529999999999    0.0000000000000000    0.0000000000000000
    -1.4859279999999999    2.5737009999999998    0.0000000000000000
     0.0000000000000000    0.0000000000000000   11.4488199999999996
 Ga  Cu  O  
   2   2   4
Cartesian
  0.0000000000000000  0.0000000000000000  0.0000000000000000
  0.0000000000000000  0.0000000000000000  5.7244099999999998
  1.4859274859270000  0.8578994754329999  8.5866150000000001
 -0.0000024859270000  1.7158015245670000  2.8622049999999999
 -0.0000024859270000  1.7158015245670000  4.7133647058000001
  1.4859274859270000  0.8578994754329999 10.4377747057999990
 -0.0000024859270000  1.7158015245670000  1.0110452941999999
  1.4859274859270000  0.8578994754329999  6.7354552941999994
