Be Fe Rh
 1.0000000000000000
     0.0000000000000000    2.8919549999999998    2.8919549999999998
     2.8919549999999998    0.0000000000000000    2.8919549999999998
     2.8919549999999998    2.8919549999999998    0.0000000000000000
 Be  Fe  Rh 
   1   1   2
Cartesian
  1.4459832839099998  1.4459832839099998  1.4459832839099998
  4.3379382839099998  4.3379382839099998  4.3379382839099998
  0.0000000000000000  0.0000000000000000  0.0000000000000000
  2.8919549999999998  2.8919549999999998  2.8919549999999998
