La Cu Se
 1.0000000000000000
     6.8410289999999998    0.0171110000000000    0.0000000000000000
    -0.9354030000000000    7.1885409999999998    0.0000000000000000
     0.0000000000000000    0.0000000000000000    7.5887209999999996
 La  Cu  Se 
   4   4   8
Cartesian
  4.4455098888029996  2.1648671084750002  4.1728100162699997
  1.9278176111970000  1.4465143915250001  0.3784495162700000
  1.4601161111970000  5.0407848915250000  3.4159109837299995
  3.9778083888029991  5.7591376084750001  7.2102714837299997
 -0.0499453525290000  3.9286702506330000  6.3853775110299997
  5.9555713525289988  3.2769817493669997  1.2033434889699999
  0.4177561474710000  0.3343997506330000  4.9977039889699997
  5.4878698525289993  6.8712522493670001  2.5910170110299999
  2.8016165226089997  0.0159241846510000  5.5032797594319991
  2.3339150226089997  3.6101946846510002  5.8798017405680003
  3.5717109773910001  3.5954573153489999  1.7089192594320000
  3.1040094773910001  7.1897278153489994  2.0854412405680001
  5.5395587023199999  5.2092310432900000  4.6633904740359995
 -0.1016342023200001  5.5906914567100001  0.8690299740360000
  0.3660672976799999  1.9964209567100000  2.9253305259639997
  6.0072602023200004  1.6149605432900001  6.7196910259639999
