Pu F 
 1.0000000000000000
     4.0954249999999996   -0.0000000000000000    0.0000000000000000
    -2.0477129999999999    3.5467409999999999    0.0000000000000000
     0.0000000000000000    0.0000000000000000    7.1589650000000002
 Pu  F  
   2   6
Cartesian
  2.0477143810459997  1.1822458177530000  5.3692237499999997
 -0.0000023810460001  2.3644951822469999  1.7897412500000001
  2.0477143810459997  1.1822458177530000  3.0115976013750001
  2.0477143810459997  1.1822458177530000  0.5678848986250000
  0.0000000000000000  0.0000000000000000  1.7897412500000001
  0.0000000000000000  0.0000000000000000  5.3692237499999997
 -0.0000023810460001  2.3644951822469999  6.5910801013750007
 -0.0000023810460001  2.3644951822469999  4.1473673986249997
