Li Tb Se
 1.0000000000000000
     6.5743159999999996   -2.0356770000000002   -0.0025420000000000
     6.5743159999999996    2.0356770000000002   -0.0025420000000000
     5.9453279999999999    0.0000000000000000    3.4667970000000001
 Li  Tb  Se 
   1   1   2
Cartesian
  9.5469799999999996  0.0000000000000000  1.7308565000000000
  0.0000000000000000  0.0000000000000000  0.0000000000000000
  4.7526584896399999 -0.0000000000000000  0.8616515211170001
 14.3413015103599975 -0.0000000000000001  2.6000614788830001
