Be P 
 1.0000000000000000
     8.3236950000000007    0.0000000000000000   -2.9428700000000001
    -4.1618469999999999    7.2085309999999998   -2.9428700000000001
     0.0000000000000000    0.0000000000000000    8.8286099999999994
 Be  P  
  24  16
Cartesian
  3.1658634134680006  1.7911109061010000  6.5718877977199996
  4.1492040618840003  3.6704253975180001  0.7402671770199994
  5.1513354387660000  5.3623685426519998  3.6831460056299994
  5.1703922922870005  1.8131545938989999  3.7370476125499992
 -0.0000832323610000  0.0661598975180000  2.2205925872900001
  1.0659577293200002  5.4285284401700000  0.7941805554199999
  0.9768440006500000  1.8242629401700001  5.1454639943699991
  2.0236652997960003  3.5711206744620001 -0.7222803555800001
  3.1850039993500010  5.3842680598300001 -2.2025939943700004
  6.2363620071490002  0.0331448255380000  2.1486953303199994
 -0.9894874387660000  1.8461624573480000 -0.7402760056300001
 -2.0235940529769998  3.5712576365510000  5.1634655301599999
 -1.0085442922869996  5.3953764061009997 -0.7941776125500004
 -2.0745140071489998  7.1753861744620000  0.7941746696799996
 -1.0531551318209997  5.4504279573479995  3.6290089691099996
  5.2150031318210006  1.7581030426519999 -0.6861389691099997
  0.9959845865320002  5.4174200938989996 -3.6290177977200004
  2.0491402183530005  7.1755231365509999  3.6290089691099991
  4.1619312323610016  7.1423711024819996  0.7222774127099996
  6.1854420529769998  3.6372733634489998 -2.2205955301600002
  2.1381827002040006  3.6374103255379997  3.6651503555799994
  3.0958902706800004  1.7800025598300000  2.1486894445799991
  0.0126439381160006  3.5381056024819997  2.2026028229799999
  2.1127077816470003  0.0330078634490000 -0.6861389691099999
 -2.1073842795839997  7.1626991599020000 -1.4340134650800005
  4.1353867204160011  3.5584336599020001 -1.4340134650800005
  3.0684636971900008  1.8021327499999999  4.3768834650799997
  6.2692322795840001  0.0458318400980000  4.3768834650799997
 -1.0140004767739998  5.3605664099019998  1.4340134650799998
  7.2303111971899998  1.8021327499999999 -1.5088565349200000
  1.0669230232260003  1.7563009099019999  7.3197534650799998
  1.0933843028100001  5.4063982499999996 -1.4340134650800003
  3.0949249767740006  5.4522300900979994 -4.3768834650800006
  2.0809240000000004  3.6042654999999999  1.4714349999999996
 -3.0684631971899998  5.4063982499999996  4.4517265349199988
  0.0000000000000000  0.0000000000000000  4.4143049999999997
  5.1758484767740010  1.8479645900979997  1.5088565349199994
  0.0264612795840000  3.6500973400979997  4.3768834650799997
 -2.0809234999999999  3.6042654999999999 -1.4714350000000000
  4.1618475000000004  0.0000000000000000 -1.4714350000000000
