Sc Ag Ru
 1.0000000000000000
     0.0000000000000000    3.2959440000000000    3.2959440000000000
     3.2959440000000000    0.0000000000000000    3.2959440000000000
     3.2959440000000000    3.2959440000000000    0.0000000000000000
 Sc  Ag  Ru 
   2   1   1
Cartesian
  0.0000000000000000  0.0000000000000000  0.0000000000000000
  3.2959374081120001  3.2959374081120001  3.2959374081120001
  1.6479720000000000  1.6479720000000000  1.6479720000000000
  4.9439159999999998  4.9439159999999998  4.9439159999999998
