Tl Cu Te
 1.0000000000000000
     3.8758230000000000   -0.0000000000000000   -1.0505780000000000
    -0.2847700000000000    3.8653480000000000   -1.0505780000000000
     0.1504600000000000    0.1619510000000000    8.2297670000000007
 Tl  Cu  Te 
   1   2   2
Cartesian
  0.0000000000000000  0.0000000000000000  0.0000000000000000
  2.9109047499999998  1.0473125000000001  3.0643055000000006
  0.8306082500000000  2.9799864999999999  3.0643055000000006
  2.3466997818540003  2.5259470445490004  0.9828185458370002
  1.3948132181460000  1.5013519554510000  5.1457924541630007
