Ba Bi
 1.0000000000000000
     8.7576689999999999   -0.0000000000000000   -3.0963029999999998
    -4.3788349999999996    7.5843639999999999   -3.0963029999999998
     0.0000000000000000    0.0000000000000000    9.2889110000000006
 Ba  Bi 
   8   6
Cartesian
  2.8212871250340004  4.8866133095639999  1.9949524078050007
  0.9256766056310002  3.7921819999999999 -2.6495033807969999
  4.3788345000000000  0.0000000000000000  1.7559048537890003
 -1.5575472306649998  2.6977506904360000  3.5431036192030003
  4.3788345000000000  0.0000000000000000  6.4003603537890008
 -3.7469647306649998  6.4899326904359995  1.9949521192030004
  0.6318701250340002  1.0944313095640001  0.4467999078050002
  5.3045111056310006  3.7921819999999999 -4.1976548807969998
  2.7367711250000002  6.6363184999999998 -3.8703785000000002
  3.8314800000000000  2.8441364999999998 -0.7740752499999997
  7.1156059999999997  0.9480455000000000  3.8703802500000006
 -2.1894176249999999  5.6882729999999997  5.4185320000000008
  2.1894171250000003  1.8960910000000000  3.8703800000000004
 -0.5473546249999998  4.7402274999999996  0.7740765000000003
