Cs Zr Cl
 1.0000000000000000
     6.4531799999999997    0.0000000000000000    3.7257460000000000
     2.1510600000000002    6.0841149999999997    3.7257460000000000
     0.0000000000000000    0.0000000000000000    7.4514899999999997
 Cs  Zr  Cl 
   2   1   6
Cartesian
  2.1510600000000002  1.5210287499999999  3.7257454999999999
  6.4531799999999997  4.5630862499999996 11.1772364999999994
  0.0000000000000000  0.0000000000000000  0.0000000000000000
  6.5816068862399995  4.6538977504899997  7.4514915298520004
  5.4418634431199999  1.4302172495100001  5.4773975602600000
  3.1623765568800000  4.6538977504899997  9.4255844397399997
  2.0226331137600000  1.4302172495100001  7.4514904701480003
  5.4418634431199999  1.4302172495100001  9.4255844397399997
  3.1623765568800000  4.6538977504899997  5.4773975602600000
