Th Co Ge
 1.0000000000000000
     3.8850920000000002    0.0000000000000000   -1.4849720000000000
    -0.5675900000000000    3.8434080000000002   -1.4849720000000000
    -0.0696500000000000   -0.0806900000000000    5.6424940000000001
 Th  Co  Ge 
   1   2   2
Cartesian
  0.0000000000000000  0.0000000000000000  0.0000000000000000
  2.7370965000000003  0.9205070000000001  1.3362750000000001
  0.5107555000000000  2.8422110000000003  1.3362750000000001
  2.0909675420880003  2.4224378772119999 -0.3541871912519998
  1.1568844579120001  1.3402801227879999  3.0267371912520002
