Zn Pt
 1.0000000000000000
    -1.8713789999999999    1.8713789999999999    3.9875759999999998
     1.8713789999999999   -1.8713789999999999    3.9875759999999998
     1.8713789999999999    1.8713789999999999   -3.9875759999999998
 Zn  Pt 
   3   1
Cartesian
 -0.0000000000000001  1.8713715144840000  1.9937879999999997
  1.8713715144840000 -0.0000000000000001  1.9937880000000001
  0.0000000000000000  0.0000000000000000  3.9875759999999998
  0.0000000000000000  0.0000000000000000  0.0000000000000000
