Li Mn Pt
 1.0000000000000000
     0.0006180000000000    3.0300579999999999    3.0305290000000000
     3.0315249999999998   -0.0001440000000000    3.0312420000000002
     3.0311550000000000    3.0304270000000000    0.0002180000000000
 Li  Mn  Pt 
   1   1   2
Cartesian
  1.5158063178919998  1.5151003991020000  1.5155184614050001
  4.5474734993819999  4.5452527199419999  4.5464887194710002
  0.0009695007980000  3.0293216822800000  3.0301078362069997
  3.0313126520089999  3.0308977283650003  3.0314035437570004
