S  O  F 
 1.0000000000000000
     5.1171080000000000    0.0000000000000000    0.0000000000000000
     0.0000000000000000    5.1171080000000000    0.0000000000000000
     0.0000000000000000    0.0000000000000000   11.3039470000000009
 S   O   F  
   4   8   8
Cartesian
  4.7073197571440000  4.7073197571440000  5.6519735000000004
  2.9683422428560000  2.1487657571440000  8.4779602500000006
  2.1487657571440000  2.9683422428560000  2.8259867500000002
  0.4097882428560000  0.4097882428560000  0.0000000000000000
  5.0667607743879994  3.4269016420600003  5.2075023039600001
  0.0503472256120000  1.6902063579400002 10.8594758039600006
  3.4269016420600003  5.0667607743879994  6.0964446960400007
  0.8683476420600000  2.6089012256120001  2.3815155539600004
  2.5082067743879999  4.2487603579400002  3.2704579460400005
  1.6902063579400002  0.0503472256120000  0.4444711960400000
  4.2487603579400002  2.5082067743879999  8.0334890539600003
  2.6089012256120001  0.8683476420600000  8.9224314460400009
  3.1639743988040001  2.5221406594719999  1.7498736034940001
  0.6054203988040000  0.0364082234200000  6.7280866465060010
  5.0806946594719999  4.5116876011959999 10.2278338534940012
  0.0364082234200000  0.6054203988040000  4.5758603534939999
  2.5949673405280000  1.9531336011959999  3.9020998965060003
  4.5116876011959999  5.0806946594719999  1.0761131465060001
  1.9531336011959999  2.5949673405280000  7.4018471034940001
  2.5221406594719999  3.1639743988040001  9.5540733965060003
