Li N  O 
 1.0000000000000000
     4.2158110000000004   -0.0223110000000000    3.7288310000000000
     1.6664500000000000    3.8725329999999998    3.7288310000000000
    -0.0340860000000000   -0.0223110000000000    5.6281520000000000
 Li  N   O  
   2   2   6
Cartesian
  0.0000000000000000  0.0000000000000000  0.0000000000000000
  2.9240875000000002  1.9139554999999997  6.5429069999999996
  1.4620437500000001  0.9569777499999998  3.2714534999999998
  4.3861312500000009  2.8709332499999998  9.8143604999999994
  3.8173999249470003  3.7770187404119997  7.0002845000000002
  1.8874884916720001  1.9871587595880000  8.3863576841329994
  4.5294178333810002  0.9346667499999999  7.5135323158669998
  2.0307750750530000  0.0508922595880000  6.0855294999999998
  3.9606865083280005  1.8407522404120000  4.6994563158669997
  1.3187571666190001  2.8932442500000000  5.5722816841330003
