Li Pm Ge
 1.0000000000000000
    -0.0000020000000000    3.6397010000000001    3.6396999999999999
     3.6397029999999999   -0.0000050000000000    3.6397029999999999
     3.6397010000000001    3.6397020000000002   -0.0000030000000000
 Li  Pm  Ge 
   1   2   1
Cartesian
  5.4595514999999999  5.4595485000000004  5.4595500000000001
  0.0000000000000000  0.0000000000000000  0.0000000000000000
  3.6397082794019999  3.6397062793980006  3.6397072794000001
  1.8198432205980000  1.8198422206020002  1.8198427205999999
