Al Pt
 1.0000000000000000
     4.2392329999999996    0.0000000000000000    0.0000000000000000
    -2.1196160000000002    3.6712829999999999    0.0000000000000000
     0.0000000000000000    0.0000000000000000    5.2390739999999996
 Al  Pt 
   3   2
Cartesian
  0.0000000000000000  0.0000000000000000  0.0000000000000000
 -0.0000017862830003  2.4475232237609998  3.3893612944860001
  2.1196187862829996  1.2237597762390000  1.8497127055139999
 -0.0000017862830003  2.4475232237609998  0.8769790750080000
  2.1196187862829996  1.2237597762390000  4.3620949249919994
