Sr Rh F 
 1.0000000000000000
     4.7140329999999997   -0.0101990000000000   -0.6821640000000000
    -0.7865430000000000    4.6479629999999998   -0.6821640000000000
    -0.0086370000000000   -0.0101990000000000    4.7631269999999999
 Sr  Rh  F  
   1   1   6
Cartesian
  1.9594265000000000  2.3137824999999999  1.6993995000000000
  0.0000000000000000  0.0000000000000000  0.0000000000000000
  2.7853358221029998  3.2890548916130000 -0.6251192186369999
  3.2811785518449996  0.3199098256790000  2.8457473817999999
  0.6376744481550002  4.3076551743209999  0.5530516182000002
  1.1335171778970001  1.3385101083870001  4.0239182186370002
  4.1437800945869991  1.3385101083870001  0.5530516182000002
 -0.2249270945869999  3.2890548916130000  2.8457473817999999
