Ni Te
 1.0000000000000000
     3.8674140000000001    0.0000000000000000    0.0000000000000000
    -1.9337070000000001    3.3492799999999998    0.0000000000000000
     0.0000000000000000    0.0000000000000000    5.3618480000000002
 Ni  Te 
   1   2
Cartesian
  0.0000000000000000  0.0000000000000000  0.0000000000000000
 -0.0000019337070001  2.2328544497600000  1.2971221826160000
  1.9337089337070001  1.1164255502400000  4.0647258173839997
