Te Pd Pb
 1.0000000000000000
     5.9715639999999999    0.0000000000000000    0.0000000000000000
     0.0000000000000000    6.6000220000000001    0.0000000000000000
     0.0000000000000000    0.0000000000000000    8.7135590000000001
 Te  Pd  Pb 
   4   6   4
Cartesian
  1.4928910000000000  4.4753429177599999  4.6842786150149998
  4.4786729999999997  2.1246790822400001  0.3274991150150000
  1.4928910000000000  4.4753429177599999  8.3860598849850003
  4.4786729999999997  2.1246790822400001  4.0292803849850003
  0.0000000000000000  0.0000000000000000  4.3567795000000000
  4.4786729999999997  1.2995839319319999  6.5351692500000000
  0.0000000000000000  0.0000000000000000  0.0000000000000000
  2.9857819999999999  0.0000000000000000  4.3567795000000000
  2.9857819999999999  0.0000000000000000  0.0000000000000000
  1.4928910000000000  5.3004380680679999  2.1783897500000000
  1.4928910000000000  1.6289316297540000  2.1783897500000000
  4.4786729999999997  4.9710903702460003  6.5351692500000000
  1.4928910000000000  1.2853938846320001  6.5351692500000000
  4.4786729999999997  5.3146281153679995  2.1783897500000000
