Ca Ag
 1.0000000000000000
     7.2010759999999996    0.0000000000000000   -3.3996469999999999
    -1.6049810000000000    7.0199400000000001   -3.3996469999999999
     0.0210090000000000    0.0263540000000000    9.3709270000000000
 Ca  Ag 
  10   6
Cartesian
  0.0000000000000000  0.0000000000000000  0.0000000000000000
  2.7980475000000000  3.5099700000000000 -3.3996469999999999
  0.9649783552370002  5.7271454786920000 -1.1224517069179996
  2.9231407381729997  2.2171754786919999  0.0317760446400004
  4.3079393744710002  6.8537475695320005 -3.3678709553599999
  2.6939632618269997  4.8291185213079997  2.5398569553600003
  1.3091646255289999  0.1925464304680000  5.9395039553600002
 -0.6489977574069999  3.7025164304680001  4.7852762038019998
  4.6521256447630002  1.3191485213080001  3.6940847069179998
  6.2661017574070002  3.3437775695320000 -2.2136432038019995
  1.4095282499999999  1.7681620000000000  2.9856400000000001
  4.2075757499999993  5.2781320000000003 -0.4140069999999998
  1.2979366051099999  6.1448202397199996 -4.2518569113719993
  0.2952901777339998  2.6348502397200000 -1.6998234999999999
  5.3008048222659987  4.3850897602800005 -5.0994704999999998
  4.2981583948899997  0.8751197602799999 -2.5474370886280000
