Ga Ge Ru
 1.0000000000000000
     0.0000000000000000    3.0019079999999998    3.0019079999999998
     3.0019079999999998    0.0000000000000000    3.0019079999999998
     3.0019079999999998    3.0019079999999998    0.0000000000000000
 Ga  Ge  Ru 
   1   1   2
Cartesian
  1.5009539999999999  1.5009539999999999  1.5009539999999999
  4.5028680038160003  4.5028680038160003  4.5028680038160003
  0.0000000000000000  0.0000000000000000  0.0000000000000000
  3.0019140038160002  3.0019140038160002  3.0019140038160002
