Ga
 1.0000000000000000
     6.0961809999999996    0.0000000000000000    0.0000000000000000
     0.0000000000000000    6.0961809999999996    0.0000000000000000
     0.0000000000000000    0.0000000000000000    6.0961809999999996
 Ga 
  12
Cartesian
  4.5721357499999993  5.3341583749999995  3.0480904999999998
  3.0480904999999998  1.5240452499999999  3.8101131250000000
  1.5240452499999999  3.8101131250000000  3.0480904999999998
  0.7620226250000000  0.0000000000000000  4.5721357499999993
  2.2860678749999996  0.0000000000000000  1.5240452499999999
  0.0000000000000000  1.5240452499999999  2.2860678749999996
  1.5240452499999999  2.2860678749999996  0.0000000000000000
  0.0000000000000000  4.5721357499999993  0.7620226250000000
  4.5721357499999993  0.7620226250000000  0.0000000000000000
  3.8101131250000000  3.0480904999999998  1.5240452499999999
  5.3341583749999995  3.0480904999999998  4.5721357499999993
  3.0480904999999998  4.5721357499999993  5.3341583749999995
