C 
 1.0000000000000000
     1.2333250000000000   -0.7120600000000000    4.0124829999999996
     0.0000000000000000    1.4241200000000001    4.0124829999999996
    -1.2333250000000000   -0.7120600000000000    4.0124829999999996
 C  
   2
Cartesian
 -0.0000000000000000 -0.0000000000000000  2.0060529132989995
 -0.0000000000000000 -0.0000000000000000 10.0313960867009992
