Hf Rh
 1.0000000000000000
     3.9527139999999998    0.0000000000000000    0.0000000000000000
     0.0000000000000000    3.9527139999999998    0.0000000000000000
     0.0000000000000000    0.0000000000000000    3.9527139999999998
 Hf  Rh 
   1   3
Cartesian
  0.0000000000000000  0.0000000000000000  0.0000000000000000
  1.9763569999999999  0.0000000000000000  1.9763569999999999
  0.0000000000000000  1.9763569999999999  1.9763569999999999
  1.9763569999999999  1.9763569999999999  0.0000000000000000
