Sr Hf N 
 1.0000000000000000
     4.0212110000000001    0.0000000000000000    0.0000000000000000
     0.0000000000000000    4.0212110000000001    0.0000000000000000
     0.0000000000000000    0.0000000000000000    8.2213899999999995
 Sr  Hf  N  
   2   2   4
Cartesian
  3.0159082499999998  3.0159082499999998  1.1757245411199999
  1.0053027500000000  1.0053027500000000  7.0456654588799994
  3.0159082499999998  3.0159082499999998  4.8701623440299997
  1.0053027500000000  1.0053027500000000  3.3512276559699998
  3.0159082499999998  1.0053027500000000  4.1106949999999998
  1.0053027500000000  3.0159082499999998  4.1106949999999998
  3.0159082499999998  3.0159082499999998  6.8589330278099991
  1.0053027500000000  1.0053027500000000  1.3624569721899999
