Hf Mo P 
 1.0000000000000000
     6.8971600000000004    0.0000000000000000    0.0000000000000000
    -3.4485790000000001    5.9731150000000000    0.0000000000000000
     0.0000000000000000    0.0000000000000000    3.4010379999999998
 Hf  Mo  P  
   3   3   3
Cartesian
 -2.0581498815689998  3.5648207362649997  1.7005189999999999
  1.3904299248090004  2.4082942637350002  1.7005189999999999
  4.1163009567600000  0.0000000000000000  1.7005189999999999
  1.7448366396400001  0.0000000000000000  0.0000000000000000
  2.5761624272010004  4.4620423404150005  0.0000000000000000
 -0.8724180668410001  1.5110726595850001  0.0000000000000000
  3.4485837819130007  1.9910363422949999  0.0000000000000000
 -0.0000027819129999  3.9820786577050002  0.0000000000000000
  0.0000000000000000  0.0000000000000000  1.7005189999999999
