Li Al
 1.0000000000000000
     4.0260569999999998    0.0000000000000000    0.0000000000000000
     0.0000000000000000    4.0260569999999998    0.0000000000000000
     0.0000000000000000    0.0000000000000000    4.0260569999999998
 Li  Al 
   1   3
Cartesian
  0.0000000000000000  0.0000000000000000  0.0000000000000000
  2.0130284999999999  2.0130284999999999  0.0000000000000000
  2.0130284999999999  0.0000000000000000  2.0130284999999999
  0.0000000000000000  2.0130284999999999  2.0130284999999999
