Na Tc O 
 1.0000000000000000
     3.8153739999999998    0.0000000000000000    0.0000000000000000
     0.0000000000000000    3.8153739999999998    0.0000000000000000
     0.0000000000000000    0.0000000000000000    3.8153739999999998
 Na  Tc  O  
   1   1   3
Cartesian
  0.0000000000000000  0.0000000000000000  0.0000000000000000
  1.9076908153740000  1.9076908153740000  1.9076908153740000
  1.9076908153740000  1.9076908153740000  0.0000000000000000
  1.9076908153740000  0.0000000000000000  1.9076908153740000
  0.0000000000000000  1.9076908153740000  1.9076908153740000
