Sn Pt
 1.0000000000000000
     4.1845090000000003    0.0000000000000000    0.0000000000000000
    -2.0922550000000002    3.6238920000000001    0.0000000000000000
     0.0000000000000000    0.0000000000000000    5.5177019999999999
 Sn  Pt 
   2   2
Cartesian
  2.0922564255880003  1.2079627920360001  1.3794255000000000
 -0.0000024255880001  2.4159292079640000  4.1382764999999999
  0.0000000000000000  0.0000000000000000  2.7588509999999999
  0.0000000000000000  0.0000000000000000  0.0000000000000000
