Ba C  O 
 1.0000000000000000
     5.3592259999999996    0.0000000000000000    0.0000000000000000
     0.0000000000000000    6.4163639999999997    0.0000000000000000
     0.0000000000000000    0.0000000000000000    8.9799629999999997
 Ba  C   O  
   4   4  12
Cartesian
  1.3398064999999999  1.6296024632639998  0.7533021561810000
  4.0194194999999997  4.7867615367359999  8.2266608438189994
  1.3398064999999999  4.8377844632639997  3.7366793438190000
  4.0194194999999997  1.5785795367359998  5.2432836561810001
  1.3398064999999999  2.6916454489079999  6.6793503591779997
  4.0194194999999997  3.7247185510919998  2.3006126408219996
  1.3398064999999999  5.8998274489079998  6.7905941408219999
  4.0194194999999997  0.5165365510920000  2.1893688591779998
  2.4609940937819998  5.9010465580679998  6.1427616500759994
  5.1406070937820001  0.5153174419319999  2.8372013499239999
  0.2186189062180000  2.6928645580680000  7.3271828499240002
  2.8982319062179998  3.7234994419319998  1.6527801500760000
  4.0194194999999997  0.5646015338160000  0.8959847882880000
  1.3398064999999999  5.8517624661839998  8.0839782117119992
  4.0194194999999997  3.7727835338159998  3.5939967117120002
  1.3398064999999999  2.6435804661839999  5.3859662882879995
  2.8982319062179998  0.5153174419319999  2.8372013499239999
  0.2186189062180000  5.9010465580679998  6.1427616500759994
  5.1406070937820001  3.7234994419319998  1.6527801500760000
  2.4609940937819998  2.6928645580680000  7.3271828499240002
