Nb Al
 1.0000000000000000
     3.8536109999999999    0.0000000000000000    0.0000000000000000
     0.0000000000000000    3.8536109999999999    0.0000000000000000
     0.0000000000000000    0.0000000000000000    8.6391670000000005
 Nb  Al 
   2   6
Cartesian
  0.0000000000000000  0.0000000000000000  0.0000000000000000
  1.9268054999999999  1.9268054999999999  4.3195835000000002
  1.9268054999999999  1.9268054999999999  0.0000000000000000
  1.9268054999999999  0.0000000000000000  6.4793752500000004
  0.0000000000000000  1.9268054999999999  6.4793752500000004
  0.0000000000000000  0.0000000000000000  4.3195835000000002
  0.0000000000000000  1.9268054999999999  2.1597917500000001
  1.9268054999999999  0.0000000000000000  2.1597917500000001
