Sc Rh C 
 1.0000000000000000
     4.1068270000000000    0.0000000000000000    0.0000000000000000
     0.0000000000000000    4.1068270000000000    0.0000000000000000
     0.0000000000000000    0.0000000000000000    4.1068270000000000
 Sc  Rh  C  
   1   3   1
Cartesian
  0.0000000000000000  0.0000000000000000  0.0000000000000000
  0.0000000000000000  2.0534135000000000  2.0534135000000000
  2.0534135000000000  0.0000000000000000  2.0534135000000000
  2.0534135000000000  2.0534135000000000  0.0000000000000000
  2.0534135000000000  2.0534135000000000  2.0534135000000000
