Ba Zn
 1.0000000000000000
     4.6211989999999998    0.0333200000000000    2.0959050000000001
     2.2222659999999999    5.5649600000000001    1.3406330000000000
     0.0855140000000000    0.1077130000000000    6.1389149999999999
 Ba  Zn 
   2   4
Cartesian
  5.0621257174650003  3.9356937872800000  7.4838849525379993
  1.8668532825350002  1.7702992127200001  2.0915680474620002
  3.3192512681430002  1.5422468391990001  5.0744055550809994
  3.6097277318569998  4.1637461608009998  4.5010474449190001
  0.5987176072230000  0.4786161565090000  4.9471262350809999
  6.3302613927770004  5.2273768434910002  4.6283267649189996
