Nd B  Rh
 1.0000000000000000
     4.2331669999999999    0.0000000000000000    0.0000000000000000
     0.0000000000000000    4.2331640000000004    0.0000000000000000
     0.0000000000000000    0.0000000000000000    4.2331269999999996
 Nd  B   Rh 
   1   1   3
Cartesian
  0.0000000000000000  0.0000000000000000  0.0000000000000000
  2.1165835000000000  2.1165820000000002  2.1165634999999998
  0.0000000000000000  2.1165820000000002  2.1165634999999998
  2.1165835000000000  2.1165820000000002  0.0000000000000000
  2.1165835000000000  0.0000000000000000  2.1165634999999998
