Zr Sn
 1.0000000000000000
     8.8277210000000004   -0.0000000000000000    0.0000000000000000
    -4.4138620000000000    7.6450310000000004    0.0000000000000000
     0.0000000000000000    0.0000000000000000    5.9551470000000002
 Zr  Sn 
  10   8
Cartesian
 -0.0000054138609999  5.0966898816770003  0.0000000000000000
  4.4138644138610008  2.5483411183230000  2.9775735000000001
  4.4138644138610008  2.5483411183230000  0.0000000000000000
 -0.0000054138609999  5.0966898816770003  2.9775735000000001
  2.4702964783140002  0.0000000000000000  1.4887867500000000
  1.2351478194060002  2.1393396048540003  4.4663602500000001
 -3.1787133410919997  5.5056913951460000  4.4663602500000001
 -1.2351486589080001  2.1393396048540003  1.4887867500000000
  3.1787111805940005  5.5056913951460000  1.4887867500000000
  6.3574245216860001  0.0000000000000000  4.4663602500000001
  0.0000000000000000  0.0000000000000000  0.0000000000000000
  0.0000000000000000  0.0000000000000000  2.9775735000000001
  5.4105190286210005  0.0000000000000000  1.4887867500000000
  2.7052585949590005  4.6856471449310009  4.4663602500000001
 -1.7085971524760000  2.9593762100380001  4.4663602500000001
 -2.7052604336620001  4.6856471449310009  1.4887867500000000
  1.7085959911820003  2.9593762100380001  1.4887867500000000
  3.4171931436580003  0.0000000000000000  4.4663602500000001
