Sm Zn Hg
 1.0000000000000000
    -0.0000180000000000    3.7080340000000001    3.7082480000000002
     3.7082350000000002   -0.0000140000000000    3.7082440000000001
     3.7082299999999999    3.7080259999999998   -0.0000080000000000
 Sm  Zn  Hg 
   2   1   1
Cartesian
 -0.0000031670340000  3.7080339999560006  3.7082479999760003
  3.7082086670290004  3.7080267080839997  3.7082382917720000
  5.5623389582220000  5.5620344999800002  5.5623741247440002
  1.8541154582529999  1.8540077919520002  1.8541209999960000
