Eu Ti O 
 1.0000000000000000
     3.8888889999999998    0.0000000000000000    0.0000000000000000
     0.0000000000000000    3.8888900000000000    0.0000330000000000
    -1.9444440000000001   -1.9443940000000000    6.1783200000000003
 Eu  Ti  O  
   2   1   4
Cartesian
  0.0000003558079999  0.0000518479760001  4.3966031069160003
  1.9444446441919998  1.9444441520239999  1.7817498930839999
  0.0000000000000000  0.0000000000000000  0.0000000000000000
 -0.0000017814410000  0.0000457930320000  2.0141809476030001
  1.9444467814410000  1.9444502069680001  4.1641720523970003
  0.0000000000000000  1.9444450000000000  0.0000165000000000
  1.9444444999999999  0.0000000000000000  0.0000000000000000
