Cs Co S 
 1.0000000000000000
     3.5689410000000001   -0.0000000000000000   -1.2014659999999999
    -0.4044670000000000    3.5459489999999998   -1.2014659999999999
     0.6313140000000000    0.7074180000000000    7.7767989999999996
 Cs  Co  S  
   1   2   2
Cartesian
  0.0000000000000000  0.0000000000000000  0.0000000000000000
  0.9045420000000000  3.0131707499999996  2.6869334999999999
  2.8912459999999998  1.2401962499999999  2.6869334999999999
  1.5205179089860004  1.7038149189089999  4.5166727387639991
  2.2752700910139998  2.5495520810909995  0.8571942612359998
