Li Te
 1.0000000000000000
     3.9888409999999999    0.0000000000000000    2.3029579999999998
     1.3296129999999999    3.7607149999999998    2.3029579999999998
     0.0000000000000000    0.0000000000000000    4.6059150000000004
 Li  Te 
   2   1
Cartesian
  1.3296135000000000  0.9401787500000000  2.3029577500000000
  3.9888404999999998  2.8205362500000000  6.9088732500000001
  0.0000000000000000  0.0000000000000000  0.0000000000000000
