Zn As
 1.0000000000000000
     7.6943630000000001    0.0000000000000000    0.0000000000000000
     0.0000000000000000    7.8377439999999998   -1.7182280000000001
     0.0000000000000000   -0.0220150000000000    9.2632759999999994
 Zn  As 
   8  16
Cartesian
  5.7666942376099994  3.0924779123229995  0.0793469918440000
  1.9195127376100001  0.8043790876769999  8.3248150081559995
  1.9276687623899997  4.7232510876769993  7.4657010081559996
  5.7748502623900002  7.0113499123230003 -0.7797670081560001
  0.7786926186890000  1.7348625974450000  3.2217767875159997
  4.6258741186890004  2.1619944025549995  5.1823852124839993
  6.9156703813110001  6.0808664025550003  4.3232712124839994
  3.0684888813110001  5.6537345974449993  2.3626627875159998
  3.2665110074790000  1.7093881638010002  3.1918460022879995
  7.1136925074790005  2.1874688361989998  5.2123159977119995
  4.4278519925210000  6.1063408361990001  4.3532019977119996
  0.5806704925210000  5.6282601638010004  2.3327320022879996
  0.0970336117930000  3.3842480832779995  1.4614332228359999
  3.9442151117930004  0.5126089167220000  6.9427287771639996
  7.5973293882070001  4.4314809167220002  6.0836147771639988
  3.7501478882070001  7.3031200832780003  0.6023192228359998
  3.7811946429120002  3.4128306685659995  1.5053109747159998
  7.6283761429119998  0.4840184936900001  6.8988527435119993
  3.9131683570880003  4.4028983314339989  6.0397370252839995
  0.0659868570880000  7.3317026685659998  0.6461969747159997
  1.9650402834809999  3.0715459229310000 -0.0556075514640001
  5.8122217834810002  0.8253110770690000  8.4597695514639994
  5.7293227165189995  4.7441830770690006  7.6006555514639995
  1.8821412165189999  6.9904179229309991 -0.9147215514639999
