Ni Ge Pt
 1.0000000000000000
     4.6925499999999998   -0.0136210000000000   -2.5197360000000000
    -1.6267250000000000    4.4015880000000003   -2.5197360000000000
     0.0050460000000000    0.0072210000000000    5.3720039999999996
 Ni  Ge  Pt 
   2   2   4
Cartesian
 -0.3585792122749999  3.5155482730890002 -2.5197360000000000
  3.4244042122749994  0.8724187269110001 -2.5197360000000000
  2.3569322289820001  3.3733624855300000 -0.9915035447999999
  0.7139387710180001  1.0218255144700001  1.3240355447999999
  2.1376342179500001  3.0594924388820002 -3.5137516941119999
  3.1152542499999996  1.0937917500000001  0.1662659999999998
  0.9281907820500001  1.3284745611180002 -1.5257203058880000
 -0.0443832500000000  3.3013962500000003  0.1662659999999998
