Al Co Si
 1.0000000000000000
     3.9327820000000000    0.0000000000000000    0.0000000000000000
    -1.9663919999999999    3.4058899999999999    0.0000000000000000
     0.0000000000000000    0.0000000000000000    4.6277770000000000
 Al  Co  Si 
   1   2   2
Cartesian
  0.0000000000000000  0.0000000000000000  0.0000000000000000
  1.9663926330580002  1.1352955313699999  0.7527866012590000
 -0.0000026330580000  2.2705944686300001  3.8749903987410002
 -0.0000026330580000  2.2705944686300001  1.6088929518200001
  1.9663926330580002  1.1352955313699999  3.0188840481800003
