Si P  Pt
 1.0000000000000000
     4.8539610000000000    0.0062080000000000   -0.2973900000000000
    -1.7207250000000001    5.2210939999999999   -0.1474300000000000
     0.0028260000000000    0.0064570000000000    8.1009689999999992
 Si  P   Pt 
   6   4   2
Cartesian
  2.1959667697259997  3.1794827078079999  0.3110408065580000
 -0.4361323374510001  3.9453942414799998  6.3515227799720000
  1.5792965113290003  5.0356017328420002  5.7739643649819987
  2.1529766664869996  1.7349399547329998  5.2081062144069996
  1.6775616469380001  0.1305870744450000  1.7803992078729998
 -0.5003899062030001  2.3642946360389998  3.1281166777949996
  0.7292051372730000  0.6223623041210000  3.8054079895729997
  0.7538614475250000  2.0843096005719999  7.0303303557139989
  1.2091248770880001  3.6211520100649999  2.3253650096269998
  3.3942732300959997  1.4188142610439998  1.0477509121899999
  2.9086789771169999  3.7430557533509998  4.1651052285210000
  3.1342423014899996  5.2195473436260000 -0.4371338724300000
