Mn Cr Co
 1.0000000000000000
     0.0000000000000000    2.9426999999999999    2.9426999999999999
     2.9426999999999999    0.0000000000000000    2.9426999999999999
     2.9426999999999999    2.9426999999999999    0.0000000000000000
 Mn  Cr  Co 
   2   1   1
Cartesian
  0.0000000000000000  0.0000000000000000  0.0000000000000000
  2.9426999999999999  2.9426999999999999  2.9426999999999999
  4.4140499999999996  4.4140499999999996  4.4140499999999996
  1.4713558853999997  1.4713558853999997  1.4713558853999997
