Pb Cl F 
 1.0000000000000000
     4.1091680000000004    0.0000000000000000    0.0000000000000000
     0.0000000000000000    4.1091680000000004    0.0000000000000000
     0.0000000000000000    0.0000000000000000    7.2390439999999998
 Pb  Cl  F  
   2   2   2
Cartesian
  3.0818760000000003  3.0818760000000003  5.7543522708199992
  1.0272920000000001  1.0272920000000001  1.4846917291799999
  1.0272920000000001  1.0272920000000001  4.6975169982159999
  3.0818760000000003  3.0818760000000003  2.5415270017839999
  1.0272920000000001  3.0818760000000003  0.0000000000000000
  3.0818760000000003  1.0272920000000001  0.0000000000000000
