Sr Nb O 
 1.0000000000000000
     5.1264719999999997    0.0000000000000000    0.0000000000000000
     0.0000000000000000    5.9201560000000004    0.0000000000000000
     0.0000000000000000    0.0000000000000000   12.5816189999999999
 Sr  Nb  O  
   4   8  16
Cartesian
  1.5519112362000000  1.4800390000000001  0.0442747172610000
  1.5519112362000000  4.4401170000000008  6.2465347827390003
  3.5745607637999997  1.4800390000000001  6.3350842172610005
  3.5745607637999997  4.4401170000000008 12.5373442827389994
  0.7987453493759999  0.0000000000000000  3.1454047500000000
  0.7987453493759999  2.9600780000000002  3.1454047500000000
  1.7510336616239999  1.4800390000000001  9.4007592476579998
  1.7510336616239999  4.4401170000000008  9.4716692523420001
  3.3754383383760000  1.4800390000000001  3.1099497476580003
  3.3754383383760000  4.4401170000000008  3.1808597523419997
  4.3277266506240002  0.0000000000000000  9.4362142499999990
  4.3277266506240002  2.9600780000000002  9.4362142499999990
  0.0573908540400000  1.4800390000000001  8.1187803428910001
  0.0573908540400000  4.4401170000000008 10.7536481571089997
  0.0529513292880000  1.4800390000000001 10.7155510147769988
  0.0529513292880000  4.4401170000000008  8.1568774852230010
  2.5219422680400001  2.9861385267120002  1.8066827435430000
  2.5219422680400001  5.8940954732880000  1.8066827435430000
  2.5219422680400001  0.0260605267120000  4.4841267564570000
  2.5219422680400001  2.9340174732880002  4.4841267564570000
  2.6045297319600000  2.9861385267120002  8.0974922435429999
  2.6045297319600000  0.0260605267120000 10.7749362564569999
  2.6045297319600000  2.9340174732880002 10.7749362564569999
  2.6045297319600000  5.8940954732880000  8.0974922435429999
  5.0735206707120000  4.4401170000000008  1.8660679852230000
  5.0735206707120000  1.4800390000000001  4.4247415147770006
  5.0690811459600003  1.4800390000000001  1.8279708428910000
  5.0690811459600003  4.4401170000000008  4.4628386571089997
