Pr B 
 1.0000000000000000
     4.1408569999999996    0.0000000000000000    0.0000000000000000
     0.0000000000000000    4.1408569999999996    0.0000000000000000
     0.0000000000000000    0.0000000000000000    4.1408569999999996
 Pr  B  
   1   6
Cartesian
  0.0000000000000000  0.0000000000000000  0.0000000000000000
  3.3122135423019996  2.0704284999999998  2.0704284999999998
  0.8286434576979999  2.0704284999999998  2.0704284999999998
  2.0704284999999998  2.0704284999999998  3.3122135423019996
  2.0704284999999998  2.0704284999999998  0.8286434576979999
  2.0704284999999998  0.8286434576979999  2.0704284999999998
  2.0704284999999998  3.3122135423019996  2.0704284999999998
