Cs K  Bi
 1.0000000000000000
     0.0000000000000000    4.4040780000000002    4.4040780000000002
     4.4040780000000002    0.0000000000000000    4.4040780000000002
     4.4040780000000002    4.4040780000000002    0.0000000000000000
 Cs  K   Bi 
   1   2   1
Cartesian
  0.0000000000000000  0.0000000000000000  0.0000000000000000
  6.6061170000000002  6.6061170000000002  6.6061170000000002
  2.2020390000000001  2.2020390000000001  2.2020390000000001
  4.4040780000000002  4.4040780000000002  4.4040780000000002
