Sr Cl F 
 1.0000000000000000
     4.1296270000000002    0.0000000000000000    0.0000000000000000
     0.0000000000000000    4.1296270000000002    0.0000000000000000
     0.0000000000000000    0.0000000000000000    6.9766110000000001
 Sr  Cl  F  
   2   2   2
Cartesian
  3.0972202500000003  3.0972202500000003  5.5777865412780008
  1.0324067500000000  1.0324067500000000  1.3988244587220000
  1.0324067500000000  1.0324067500000000  4.4992373637330001
  3.0972202500000003  3.0972202500000003  2.4773736362670000
  1.0324067500000000  3.0972202500000003  0.0000000000000000
  3.0972202500000003  1.0324067500000000  0.0000000000000000
