Ca Ge
 1.0000000000000000
     4.0239929999999999    0.0000000000000000    0.0000000000000000
     0.0000000000000000    4.2012689999999999   -1.7697520000000000
     0.0000000000000000   -0.0092790000000000    5.8496090000000001
 Ca  Ge 
   2   2
Cartesian
  3.0179947499999997  1.5219588688590000  3.6130248639540001
  1.0059982500000000  2.6700311311410001  0.4668321360459999
  3.0179947499999997  0.3154851598860000  0.7489399025160001
  1.0059982500000000  3.8765048401139999  3.3309170974840003
