Na B  H 
 1.0000000000000000
    10.5164320000000000    0.0000000000000000    0.0000000000000000
     0.0000000000000000    6.9912820000000000    0.0165300000000000
     0.0000000000000000    6.3414279999999996    6.9078830000000000
 Na  B   H  
   4  24  24
Cartesian
  2.0066824556480003  9.2814696684179996  3.3618531070419997
  7.2648984556480007  0.8805263315820000  0.1086183929580000
  8.5097495443519993  4.0512403315820000  3.5625598929580002
  3.2515335443520001 12.4521836684179998  6.8157946070420001
  3.6533348617760000  6.8282168127220002  2.9557412512140000
  8.9115508617760000  3.3337791872779996  0.5147302487860000
  6.8630971382240009  6.5044931872779994  3.9686717487860004
  1.6048811382240000  9.9989308127219996  6.4096827512139996
  5.4994524336480008  6.0187479860080000  4.9958872357319999
  0.2412364336480000 10.4846760139919990  5.3824672642679996
  5.0169795663520000  7.3139620139919996  1.9285257642680003
 10.2751955663520000  2.8480339860079997  1.5419457357320001
  4.1769585274879999  5.4596304898239998  3.9482728978129997
  9.4351745274879999 11.0437935101760001  6.4300816021870002
  6.3394734725120001  7.8730795101759998  2.9761401021869998
  1.0812574725120001  2.2889164898240000  0.4943313978130000
  4.6503451975359997  8.2398126530860001  3.3878440889259998
  9.9085611975360006  1.9221833469139997  0.0826274110740000
  5.8660868024640003  5.0928973469139995  3.5365689110740002
  0.6078708024639999 11.4105266530860003  6.8417855889260002
  4.1316747712959998  7.0968190096339994  4.6435144248890001
  9.3898907712959989  9.4066049903660005  5.7348400751110002
  6.3847572287040002  6.2358909903659994  2.2808985751109998
  1.1265412287040000  3.9261050096339996  1.1895729248889999
  5.7824391023360002  7.7431982147359992  4.6572017636509999
  0.5242231023360000  8.7602257852639998  5.7211527363490005
  4.7339928976639998  5.5895117852639995  2.2672112363490000
  9.9922088976639998  4.5724842147359999  1.2032602636510001
  3.3345923242879998  7.4159930209259999  5.4777641622919999
  8.5928083242880007  9.0874309790740000  4.9005903377079996
  7.1818396757119993  5.9167169790740006  1.4466488377080000
  1.9236236757120000  4.2452790209259996  2.0238226622920004
  6.1315530954400002  8.5276347376219999  5.4927031988500001
  0.8733370954399999  7.9757892623780000  4.8856513011500002
  4.3848789045599998  4.8050752623779998  1.4317098011500000
  9.6430949045599998  5.3569207376219996  2.0387616988499997
  4.2563575890880001  9.3662592030559999  3.3271342029540003
  9.5145735890880001  0.7957367969440000  0.1433372970460000
  6.2600744109119999  3.9664507969440002  3.5972787970460001
  1.0018584109120001 12.5369732030560002  6.7810757029539994
  3.4115620900960000  4.6117888095100001  4.3023825266350002
  8.6697780900959991 11.8916351904899997  6.0759719733650002
  7.1048699099040000  8.7209211904899995  2.6220304733649997
  1.8466539099040000  1.4410748095099999  0.8484410266350000
  2.5136270602080000  6.9279970465559995  2.5958719429149997
  7.7718430602080000  3.2339989534439999  0.8745995570850000
  8.0028049397920000  6.4047129534439993  4.3285410570849994
  2.7445889397920000 10.0987110465559997  6.0498134429150001
  5.6767384443040001 12.5241751132919994  6.0947066504579999
  0.4185224443040000  3.9792488867080000  4.2836478495420005
  4.8396935556959999  0.8085348867080000  0.8297063495420001
 10.0979095556960008  9.3534611132919991  2.6407651504580003
