Nd Mg In
 1.0000000000000000
     0.0000000000000000    3.8725809999999998    3.8725809999999998
     3.8725809999999998    0.0000000000000000    3.8725809999999998
     3.8725809999999998    3.8725809999999998    0.0000000000000000
 Nd  Mg  In 
   2   1   1
Cartesian
  1.9362904999999999  1.9362904999999999  1.9362904999999999
  5.8088714999999995  5.8088714999999995  5.8088714999999995
  0.0000000000000000  0.0000000000000000  0.0000000000000000
  3.8725809999999998  3.8725809999999998  3.8725809999999998
