Li Ag Sn
 1.0000000000000000
     4.0028329999999999   -0.0000000000000000    2.3110360000000001
     1.3342769999999999    3.7739080000000000    2.3110360000000001
    -0.0000000000000000    0.0000000000000000    4.6220739999999996
 Li  Ag  Sn 
   2   1   1
Cartesian
  1.3342775000000000  0.9434770000000000  2.3110365000000002
  2.6685550000000000  1.8869540000000000  4.6220730000000003
  4.0028325000000002  2.8304309999999999  6.9331095000000005
  0.0000000000000000  0.0000000000000000  0.0000000000000000
