Ga Ag S 
 1.0000000000000000
     5.1444890000000001   -0.0336310000000000    2.5710769999999998
    -1.2533790000000000    4.9895829999999997    2.5710769999999998
    -0.0871620000000000   -0.1110160000000000    6.5930730000000004
 Ga  Ag  S  
   2   2   4
Cartesian
  2.6336104641969995  1.7114093356089999  9.0920065693560002
  1.0811985065210001  3.0199932304070001  5.7954700693560000
 -0.5719930276370000  4.2378491462109995  9.0996958012619995
  4.2961242631429997  0.5054268170209999  5.8031593012620002
  2.1327624847530000  1.3126621221989998  6.8960409351350007
  2.3536706188050003  4.9116239435250000  5.9833745743200000
  0.8126827056289999  2.4388330238009996  3.5995044351350001
  4.1692780702650003  3.3963950711949997  9.2799110743199993
