Li Sn
 1.0000000000000000
    13.8634749999999993    0.0000000000000000    0.0000000000000000
     0.0000000000000000    9.8001090000000008    0.0000000000000000
     0.0000000000000000    0.0000000000000000    4.7225859999999997
 Li  Sn 
  28   8
Cartesian
  0.0000000000000000  0.0000000000000000  0.0000000000000000
  0.0000000000000000  4.9000545000000004  2.3612929999999999
  0.0000000000000000  3.3784895766600003  0.0000000000000000
  0.0000000000000000  6.4216194233400001  0.0000000000000000
  2.4051049603750001  0.0000000000000000  2.3612929999999999
 11.4583700396249988  0.0000000000000000  2.3612929999999999
  2.1912608585000002  1.8163424019510002  0.0000000000000000
 11.6722141414999996  7.9837665980490007  0.0000000000000000
 11.6722141414999996  1.8163424019510002  0.0000000000000000
  2.1912608585000002  7.9837665980490007  0.0000000000000000
  9.1660444483749988  8.2456059103110011  2.3612929999999999
  4.6974305516249997  1.5545030896890002  2.3612929999999999
  4.6974305516249997  8.2456059103110011  2.3612929999999999
  9.1660444483749988  1.5545030896890002  2.3612929999999999
  6.9317374999999997  4.9000545000000004  0.0000000000000000
  6.9317374999999997  0.0000000000000000  2.3612929999999999
  6.9317374999999997  8.2785440766600011  0.0000000000000000
  6.9317374999999997  1.5215649233400002  0.0000000000000000
  9.3368424603749993  4.9000545000000004  2.3612929999999999
  4.5266325396250000  4.9000545000000004  2.3612929999999999
  9.1229983584999985  6.7163969019510006  0.0000000000000000
  4.7404766414999999  3.0837120980490007  0.0000000000000000
  4.7404766414999999  6.7163969019510006  0.0000000000000000
  9.1229983584999985  3.0837120980490007  0.0000000000000000
  2.2343069483750000  3.3455514103110002  2.3612929999999999
 11.6291680516249993  6.4545575896890011  2.3612929999999999
 11.6291680516249993  3.3455514103110002  2.3612929999999999
  2.2343069483750000  6.4545575896890011  2.3612929999999999
  0.0000000000000000  1.5998481940320002  2.3612929999999999
  0.0000000000000000  8.2002608059680018  2.3612929999999999
  4.4141581669500001  0.0000000000000000  0.0000000000000000
  9.4493168330500001  0.0000000000000000  0.0000000000000000
  6.9317374999999997  6.4999026940320004  2.3612929999999999
  6.9317374999999997  3.3002063059680005  2.3612929999999999
 11.3458956669499997  4.9000545000000004  0.0000000000000000
  2.5175793330500000  4.9000545000000004  0.0000000000000000
