Ca Ag Pb
 1.0000000000000000
     0.0000000000000000    3.7933450000000000    3.7933450000000000
     3.7933450000000000    0.0000000000000000    3.7933450000000000
     3.7933450000000000    3.7933450000000000    0.0000000000000000
 Ca  Ag  Pb 
   2   1   1
Cartesian
  5.6900174999999997  5.6900174999999997  5.6900174999999997
  1.8966725000000000  1.8966725000000000  1.8966725000000000
  3.7933450000000000  3.7933450000000000  3.7933450000000000
  0.0000000000000000  0.0000000000000000  0.0000000000000000
