Na Cd Pt
 1.0000000000000000
     0.0000000000000000    3.3472189999999999    3.3472189999999999
     3.3472189999999999    0.0000000000000000    3.3472189999999999
     3.3472189999999999    3.3472189999999999    0.0000000000000000
 Na  Cd  Pt 
   1   2   1
Cartesian
  1.6736095000000000  1.6736095000000000  1.6736095000000000
  3.3472256944380003  3.3472256944380003  3.3472256944380003
  0.0000000000000000  0.0000000000000000  0.0000000000000000
  5.0208218055620000  5.0208218055620000  5.0208218055620000
