Tm Rh C 
 1.0000000000000000
     4.1260310000000002    0.0000000000000000    0.0000000000000000
     0.0000000000000000    4.1260310000000002    0.0000000000000000
     0.0000000000000000    0.0000000000000000    4.1260310000000002
 Tm  Rh  C  
   1   3   1
Cartesian
  0.0000000000000000  0.0000000000000000  0.0000000000000000
  0.0000000000000000  2.0630155000000001  2.0630155000000001
  2.0630155000000001  2.0630155000000001  0.0000000000000000
  2.0630155000000001  0.0000000000000000  2.0630155000000001
  2.0630155000000001  2.0630155000000001  2.0630155000000001
