Ti Zn N 
 1.0000000000000000
     1.5006320000000000   -8.1139659999999996    0.0000000000000000
     1.5006320000000000    8.1139659999999996    0.0000000000000000
     0.0000000000000000    0.0000000000000000    4.1505489999999998
 Ti  Zn  N  
   4   2   2
Cartesian
  1.5006320000000000 -4.6862210632999997  1.0376372500000000
  1.5006320000000000  4.6862210632999997  3.1129117499999999
  1.5006320000000000 -1.8110209832679998  1.0376372500000000
  1.5006320000000000  1.8110209832679998  3.1129117499999999
  1.5006320000000000 -7.4588443851599990  1.0376372500000000
  1.5006320000000000  7.4588443851599990  3.1129117499999999
  1.5006320000000000  4.8760716397680000  1.0376372500000000
  1.5006320000000000 -4.8760716397680000  3.1129117499999999
