Mn Al Ge
 1.0000000000000000
     3.8581770000000000    0.0000000000000000    0.0000000000000000
     0.0000000000000000    3.8581770000000000    0.0000000000000000
     0.0000000000000000    0.0000000000000000    5.9851850000000004
 Mn  Al  Ge 
   2   2   2
Cartesian
  1.9290885000000000  1.9290885000000000  0.0000000000000000
  0.0000000000000000  0.0000000000000000  0.0000000000000000
  0.0000000000000000  1.9290885000000000  4.1941124035649997
  1.9290885000000000  0.0000000000000000  1.7910725964350001
  1.9290885000000000  0.0000000000000000  4.2936819412250005
  0.0000000000000000  1.9290885000000000  1.6915030587750002
