Lu
 1.0000000000000000
     8.5444379999999995   -1.7407330000000001    0.0185970000000000
     8.5444379999999995    1.7407330000000001    0.0185970000000000
     8.1832890000000003    0.0000000000000000    3.0119280000000002
 Lu 
   3
Cartesian
  0.0000000000000000  0.0000000000000000  0.0000000000000000
  5.6026115310149995 -0.0000000000000000  0.6759629053020000
 19.6695534689850007  0.0000000000000001  2.3731590946980003
