Hf Be
 1.0000000000000000
     3.7819910000000001    0.0000000000000000    0.0000000000000000
    -1.8909950000000000    3.2753000000000001    0.0000000000000000
     0.0000000000000000    0.0000000000000000    3.1811199999999999
 Hf  Be 
   1   2
Cartesian
  0.0000000000000000  0.0000000000000000  0.0000000000000000
 -0.0000015576619999  2.1835344251000000  1.5905600000000000
  1.8909975576620002  1.0917655748999999  1.5905600000000000
