Li Sn Au
 1.0000000000000000
     4.6221040000000002    0.0000000000000000    0.0000000000000000
     0.0000000000000000    4.6221040000000002    0.0000000000000000
     0.0000000000000000    0.0000000000000000   20.1079439999999998
 Li  Sn  Au 
   8   8   4
Cartesian
  2.3110520000000001  1.1555260000000001 16.1106657042960002
  2.3110520000000001  3.4665780000000002 11.0836797042959994
  0.0000000000000000  1.1555260000000001 14.0512502957040013
  0.0000000000000000  3.4665780000000002 19.0782362957040021
  0.0000000000000000  3.4665780000000002  6.0566937042960003
  0.0000000000000000  1.1555260000000001  1.0297077042959999
  2.3110520000000001  3.4665780000000002  3.9972782957040001
  2.3110520000000001  1.1555260000000001  9.0242642957040005
  2.3110520000000001  3.4665780000000002 14.1225128492400014
  2.3110520000000001  1.1555260000000001 19.1494988492400005
  0.0000000000000000  3.4665780000000002 16.0394031507599983
  0.0000000000000000  1.1555260000000001 11.0124171507599993
  0.0000000000000000  1.1555260000000001  4.0685408492399997
  0.0000000000000000  3.4665780000000002  9.0955268492400005
  2.3110520000000001  1.1555260000000001  5.9854311507600002
  2.3110520000000001  3.4665780000000002  0.9584451507599999
  0.0000000000000000  1.1555260000000001 17.5944509999999994
  2.3110520000000001  1.1555260000000001 12.5674650000000003
  2.3110520000000001  3.4665780000000002  7.5404789999999995
  0.0000000000000000  3.4665780000000002  2.5134930000000000
