Th Ir
 1.0000000000000000
     4.7071199999999997    0.0000000000000000    2.7176570000000000
     1.5690400000000000    4.4379150000000003    2.7176570000000000
     0.0000000000000000    0.0000000000000000    5.4353140000000000
 Th  Ir 
   2   4
Cartesian
  5.4916399999999994  3.8831756250000002  9.5117995000000004
  0.7845200000000000  0.5547393750000000  1.3588285000000000
  2.3535599999999999  0.0000000000000000  4.0764855000000004
  0.7845200000000000  2.2189575000000001  4.0764855000000004
  3.1380800000000000  2.2189575000000001  5.4353140000000000
  3.1380800000000000  2.2189575000000001  2.7176570000000000
