Li Bi
 1.0000000000000000
     4.0973790000000001    0.0000000000000000    2.3656229999999998
     1.3657930000000000    3.8630460000000002    2.3656229999999998
     0.0000000000000000    0.0000000000000000    4.7312459999999996
 Li  Bi 
   3   1
Cartesian
  4.0973790000000001  2.8972845000000000  7.0968689999999999
  2.7315860000000001  1.9315230000000001  4.7312459999999996
  1.3657930000000000  0.9657615000000001  2.3656229999999998
  0.0000000000000000  0.0000000000000000  0.0000000000000000
