Sb Ir
 1.0000000000000000
     4.0630839999999999    0.0000000000000000    0.0000000000000000
    -2.0315420000000000    3.5187349999999999    0.0000000000000000
     0.0000000000000000    0.0000000000000000    5.5994570000000001
 Sb  Ir 
   2   2
Cartesian
  2.0315440315419999  1.1729104937549999  4.1995927499999999
 -0.0000020315420000  2.3458245062450001  1.3998642500000000
  0.0000000000000000  0.0000000000000000  2.7997285000000001
  0.0000000000000000  0.0000000000000000  0.0000000000000000
