Mn Zn C 
 1.0000000000000000
     3.8751910000000001    0.0000000000000000    0.0000000000000000
     0.0000000000000000    3.8751910000000001    0.0000000000000000
     0.0000000000000000    0.0000000000000000    3.8751910000000001
 Mn  Zn  C  
   3   1   1
Cartesian
  0.0000000000000000  1.9375955000000000  1.9375955000000000
  1.9375955000000000  1.9375955000000000  0.0000000000000000
  1.9375955000000000  0.0000000000000000  1.9375955000000000
  0.0000000000000000  0.0000000000000000  0.0000000000000000
  1.9375955000000000  1.9375955000000000  1.9375955000000000
