Pm Zn Ru
 1.0000000000000000
     0.0000000000000000    3.5469240000000002    3.5469240000000002
     3.5469240000000002    0.0000000000000000    3.5469240000000002
     3.5469240000000002    3.5469240000000002    0.0000000000000000
 Pm  Zn  Ru 
   2   1   1
Cartesian
  0.0000000000000000  0.0000000000000000  0.0000000000000000
  3.5469240000000002  3.5469240000000002  3.5469240000000002
  5.3203860000000001  5.3203860000000001  5.3203860000000001
  1.7734620000000001  1.7734620000000001  1.7734620000000001
