Hg I 
 1.0000000000000000
     4.7242860000000002   -0.0002110000000000   -1.8413290000000000
    -0.7194490000000000    4.6691830000000003   -1.8413290000000000
    -0.0310590000000000   -0.0362080000000000    6.8885820000000004
 Hg  I  
   2   2
Cartesian
  3.5339276817870000  4.1199715284080005  2.0781419048580005
  0.4398503182130000  0.5127924715919999  1.1277820951420001
  2.6127022702830001  3.0459755887360003 -0.2854937342939998
  1.3610757297170002  1.5867884112640003  3.4914177342940005
