Ba Pb F 
 1.0000000000000000
     5.0347289999999996   -0.0213190000000000   -0.6217740000000000
    -0.7006900000000000    4.9857790000000000   -0.6217740000000000
    -0.0186110000000000   -0.0213190000000000    5.0729430000000004
 Ba  Pb  F  
   1   1   6
Cartesian
  2.1577139999999999  2.4715704999999999  1.9146975000000002
  0.0000000000000000  0.0000000000000000  0.0000000000000000
  3.0499074670820003  3.4935410973650001 -0.5295629041890001
  3.4835855727040004  0.3099380612009999  3.0912406693170005
  0.8318424272960000  4.6332029387990001  0.7381543306830001
  1.2655205329179999  1.4495999026350002  4.3589579041890003
  4.4785250650379993  1.4495999026350002  0.7381543306830002
 -0.1630970650380001  3.4935410973650001  3.0912406693170005
