Cd Hg O 
 1.0000000000000000
     1.7872159999999999    3.0976450000000000    0.1176300000000000
    -1.7872159999999999    3.0976450000000000    0.1176300000000000
     0.0000000000000000    1.7773390000000000    6.3647760000000000
 Cd  Hg  O  
   1   1   2
Cartesian
  0.0000000000000000  0.0000000000000000  0.0000000000000000
  0.0000000000000000  3.9863144999999998  3.3000180000000001
  0.0000000000000000  3.8854194155010000  5.3097996237840004
 -0.0000000000000000  4.0872095844990000  1.2902363762160001
