Pr Cu Sn
 1.0000000000000000
     0.0000000000000000    0.0000000000000000    4.5927420000000003
     0.0000000000000000   -7.0179559999999999    0.0000000000000000
     7.5625200000000001    3.5089769999999998   -2.2963710000000002
 Pr  Cu  Sn 
   3   4   4
Cartesian
  0.0000000000000000 -3.5089779999999999  0.0000000000000000
  2.0283132391200001 -0.0000002682060000  0.0000000000000001
  5.5342067608800001 -3.5089857497499999  2.2963710000000006
  2.5265547442800003 -2.2363176302029997  2.2963732963710002
  2.5265547442800003 -4.7816460559309997  2.2963732963710002
  5.0359652557200008  1.2726670559310000 -0.0000022963710001
  5.0359652557200008 -1.2726683877529998 -0.0000022963710001
  0.0000000000000000 -1.3999067731000001  2.2963710000000002
  0.0000000000000000 -5.6180562448559996  2.2963710000000002
  3.2748358482000000 -3.5089819420130000 -0.0000022963710001
  4.2876841518000006 -0.0000040759429998  2.2963732963710002
