Li Al Ag
 1.0000000000000000
     3.8451399999999998    0.0000000000000000    2.2199930000000001
     1.2817130000000001    3.6252339999999998    2.2199930000000001
     0.0000000000000000    0.0000000000000000    4.4399850000000001
 Li  Al  Ag 
   1   1   2
Cartesian
  3.8451397499999995  2.7189255000000001  6.6599782500000000
  1.2817132499999999  0.9063085000000000  2.2199927500000003
  2.5634264999999998  1.8126169999999999  4.4399855000000006
  0.0000000000000000  0.0000000000000000  0.0000000000000000
