Ti O 
 1.0000000000000000
     3.5477159999999999    0.0000000000000000   -1.3119890000000001
    -0.4851880000000000    3.5143830000000000   -1.3119890000000001
     0.0180250000000000    0.0206830000000000    5.5013829999999997
 Ti  O  
   2   4
Cartesian
  2.8055152499999996  2.2016601250000001 -0.5926377500000002
  0.2750377500000000  1.3334058750000000  3.4700427499999997
  0.8988924423839999  2.0493069062310001 -0.2956601822020001
 -0.1003210576160000  2.9382441562310002  2.4550313177979999
  3.1808740576159997  0.5968218437690000  0.4223736822019998
  2.1816605576160000  1.4857590937689999  3.1730651822019995
