In Br
 1.0000000000000000
     6.8208349999999998   -0.0432940000000000    1.0913670000000000
     1.6823530000000000    5.6708600000000002    3.3770289999999998
     0.0040540000000000    0.0343530000000000    6.8092449999999998
 In  Br 
   2   6
Cartesian
  1.4034338365779999  4.7375748252300003  5.0832085723239997
  0.2829731634220000  0.9676381747700000  5.1030654276760004
  2.9253288680379996  4.3884081969439999  2.8787160863019996
  6.7731017487969991  5.2468075141880002  8.3842164320209989
  5.5778591319619997  1.2391578030560000  1.5896799136980000
  1.7341402512029997  0.4151114858120000  2.8934245679789998
  6.1814748145369993  3.2463897721960002  5.1691916870489996
  2.3257671854629995  2.4155292278040004  6.1084493129509996
