Th Tl
 1.0000000000000000
     4.8034739999999996    0.0000000000000000    0.0000000000000000
     0.0000000000000000    4.8034739999999996    0.0000000000000000
     0.0000000000000000    0.0000000000000000    4.8034739999999996
 Th  Tl 
   1   3
Cartesian
  0.0000000000000000  0.0000000000000000  0.0000000000000000
  2.4017369999999998  0.0000000000000000  2.4017369999999998
  0.0000000000000000  2.4017369999999998  2.4017369999999998
  2.4017369999999998  2.4017369999999998  0.0000000000000000
