Ho Si Ru
 1.0000000000000000
     3.8611270000000002    0.0000000000000000   -1.5429850000000001
    -0.6166090000000000    3.8115730000000001   -1.5429850000000001
    -0.0077320000000000   -0.0090830000000000    5.5831330000000001
 Ho  Si  Ru 
   1   2   2
Cartesian
  0.0000000000000000  0.0000000000000000  0.0000000000000000
  2.0481421611140003  2.4061027426370001 -0.4772666802639998
  1.1886438388860003  1.3963872573630001  2.9744296802640000
  2.7378270000000002  0.9483517500000000  1.2485815000000000
  0.4989590000000001  2.8541382500000001  1.2485815000000000
