Ti Cr Ir
 1.0000000000000000
     0.0000000000000000    3.0710860000000002    3.0710860000000002
     3.0710860000000002    0.0000000000000000    3.0710860000000002
     3.0710860000000002    3.0710860000000002    0.0000000000000000
 Ti  Cr  Ir 
   2   1   1
Cartesian
  0.0000000000000000  0.0000000000000000  0.0000000000000000
  3.0710798578280003  3.0710798578280003  3.0710798578280003
  1.5355430000000001  1.5355430000000001  1.5355430000000001
  4.6066228578280004  4.6066228578280004  4.6066228578280004
