Ba Ag Sn
 1.0000000000000000
     4.5221450000000001    0.0000000000000000   -1.7645210000000000
    -0.6885080000000000    4.4694229999999999   -1.7645210000000000
     0.0115100000000000    0.0134200000000000    6.7064740000000000
 Ba  Ag  Sn 
   1   2   2
Cartesian
  0.0000000000000000  0.0000000000000000  0.0000000000000000
  3.2252367500000001  1.1240657500000000  1.5887160000000000
  0.6199102500000000  3.3587772500000002  1.5887160000000000
  2.4006592490820000  2.7987946575080000 -0.5245323953379999
  1.4444877509179999  1.6840483424920001  3.7019643953380004
