Ca Sn Hg
 1.0000000000000000
     0.0000000000000000    3.8283369999999999    3.8283369999999999
     3.8283369999999999    0.0000000000000000    3.8283369999999999
     3.8283369999999999    3.8283369999999999    0.0000000000000000
 Ca  Sn  Hg 
   2   1   1
Cartesian
  3.8283369999999999  3.8283369999999999  3.8283369999999999
  0.0000000000000000  0.0000000000000000  0.0000000000000000
  5.7425055000000000  5.7425055000000000  5.7425055000000000
  1.9141684999999999  1.9141684999999999  1.9141684999999999
