Sr H  Cl O 
 1.0000000000000000
     2.0912929999999998   -3.6222249999999998    0.0000000000000000
     2.0912929999999998    3.6222249999999998    0.0000000000000000
     0.0000000000000000    0.0000000000000000   10.0796650000000003
 Sr  H   Cl  O  
   2   2   2   2
Cartesian
  2.0912929999999998 -1.2074107481499998  1.9879518499600002
  2.0912929999999998  1.2074107481500000  7.0277843499600001
  0.0000000000000000  0.0000000000000000  8.6710318162500002
  0.0000000000000000  0.0000000000000000  3.6311993162500005
  2.0912929999999998  1.2074107481500000  0.1070057236400000
  2.0912929999999998 -1.2074107481499998  5.1468382236399997
  0.0000000000000000  0.0000000000000000  2.6550845576500000
  0.0000000000000000  0.0000000000000000  7.6949170576500006
