Li Ti O 
 1.0000000000000000
     5.7218369999999998    0.0000000000000000    0.0000000000000000
     5.7218369999999998    5.0875290000000000    0.0930010000000000
     2.8609200000000001    3.4357060000000001    2.4290970000000001
 Li  Ti  O  
   2   2   4
Cartesian
  5.7215459363129995  1.7178530000000001  1.2145485000000000
  7.1525888136870002  4.2616174999999998  1.2610490000000001
  2.8611938981759999  1.7178530000000001  1.2145485000000000
 10.0129408518240002  4.2616174999999998  1.2610490000000001
  8.5825338479789988  8.5223488519719997  2.5214854955520001
  4.2916009020210000  2.5446506480280000  0.0471130044480000
 10.0134165139169991  5.9785843519720006  2.4749849955520000
  2.8607182360829997  0.0008861480280000  0.0006125044480000
