Ca Si Pt
 1.0000000000000000
    -2.1151279999999999    2.1151279999999999    4.9216490000000004
     2.1151279999999999   -2.1151279999999999    4.9216490000000004
     2.1151279999999999    2.1151279999999999   -4.9216490000000004
 Ca  Si  Pt 
   1   3   1
Cartesian
  0.0000000000000000 -0.0000000000000000  0.0197456557880000
  0.0000000000000000 -0.0000000000000000  3.9610021749880002
  2.1151279999999999  0.0000000000000000  2.5726246786839999
  0.0000000000000000  2.1151279999999999  2.5726246786839999
 -0.0000000000000001  0.0000000000000001  6.3417908189500007
