As Pd S 
 1.0000000000000000
     5.9931900000000002    0.0000000000000000    0.0000000000000000
     0.0000000000000000    5.9931900000000002    0.0000000000000000
     0.0000000000000000    0.0000000000000000    5.9931900000000002
 As  Pd  S  
   4   4   4
Cartesian
  3.6674367294599999  3.6674367294599999  3.6674367294599999
  5.3223482705400000  2.3257532705400004  0.6708417294600001
  0.6708417294600001  5.3223482705400000  2.3257532705400004
  2.3257532705400004  0.6708417294600001  5.3223482705400000
  5.9886052096500002  3.0011797903500002  2.9920102096500001
  3.0011797903500002  2.9920102096500001  5.9886052096500002
  2.9920102096500001  5.9886052096500002  3.0011797903500002
  0.0045847903500000  0.0045847903500000  0.0045847903500000
  3.6320649220800001  5.3577200779199998  0.6354699220800001
  5.3577200779199998  0.6354699220800001  3.6320649220800001
  0.6354699220800001  3.6320649220800001  5.3577200779199998
  2.3611250779200001  2.3611250779200001  2.3611250779200001
