Ca Cu Sn
 1.0000000000000000
    10.5033989999999999    0.0000000000000000   -3.3743520000000000
     0.0000000000000000    4.2549310000000000    0.0000000000000000
    -0.0038810000000000    0.0000000000000000    4.8829380000000002
 Ca  Cu  Sn 
   2   4   4
Cartesian
  0.0000000000000000  0.0000000000000000  0.0000000000000000
  5.2516995000000000  2.1274655000000000 -1.6871760000000000
  2.4941069391430002  2.1274655000000000 -0.1555577539139999
  8.0054110608569999  2.1274655000000000  1.6641437539140000
  7.7458064391430002  0.0000000000000000 -1.8427337539140001
  2.7537115608570000  0.0000000000000000  3.3513197539139998
  8.9968558737379993  2.1274655000000000 -0.7782626682239997
  1.5026621262620001  2.1274655000000000  2.2868486682239997
  3.7451563737379998  0.0000000000000000  0.9089133317760001
  6.7543616262619999  0.0000000000000000  0.5996726682239997
