Sr Ge Rh
 1.0000000000000000
     3.9456799999999999    0.0000000000000000   -1.4345319999999999
    -0.5215520000000000    3.9110580000000001   -1.4345319999999999
     0.0132160000000000    0.0150950000000000    6.1799160000000004
 Sr  Ge  Rh 
   1   2   2
Cartesian
  0.0000000000000000  0.0000000000000000  0.0000000000000000
  2.1732969178560002  2.4823516940070003 -0.1659043522919998
  1.2640470821440000  1.4438013059929999  3.4767563522920004
  2.8354800000000000  0.9853120000000001  1.6554260000000003
  0.6018640000000000  2.9408409999999998  1.6554260000000003
