Dy Ag Sb
 1.0000000000000000
     4.2888299999999999    0.0000000000000000    0.0000000000000000
     0.0000000000000000    4.2888299999999999    0.0000000000000000
     0.0000000000000000    0.0000000000000000   10.6305739999999993
 Dy  Ag  Sb 
   2   2   4
Cartesian
  1.0722075000000000  1.0722075000000000  2.8464318636660000
  3.2166224999999997  3.2166224999999997  7.7841421363340002
  3.2166224999999997  1.0722075000000000  0.0000000000000000
  1.0722075000000000  3.2166224999999997  0.0000000000000000
  3.2166224999999997  1.0722075000000000  5.3152869999999997
  1.0722075000000000  3.2166224999999997  5.3152869999999997
  1.0722075000000000  1.0722075000000000  8.7041013797199991
  3.2166224999999997  3.2166224999999997  1.9264726202799998
