Hf B 
 1.0000000000000000
     3.1326790000000000    0.0000000000000000    0.0000000000000000
    -1.5663400000000001    2.7129799999999999    0.0000000000000000
     0.0000000000000000    0.0000000000000000    3.4792139999999998
 Hf  B  
   1   2
Cartesian
  0.0000000000000000  0.0000000000000000  0.0000000000000000
 -0.0000018996730000  1.8086542376599999  1.7396069999999999
  1.5663408996729999  0.9043257623400000  1.7396069999999999
