La Al
 1.0000000000000000
     4.9779320000000000   -0.0000000000000000    2.8740090000000000
     1.6593100000000001    4.6932390000000002    2.8740090000000000
     0.0000000000000000    0.0000000000000000    5.7480200000000004
 La  Al 
   2   4
Cartesian
  5.8075867499999996  4.1065841250000004 10.0590332500000006
  0.8296552500000001  0.5866548750000000  1.4370047500000001
  3.3186210000000003  2.3466195000000001  5.7480190000000002
  3.3186210000000003  2.3466195000000001  2.8740090000000000
  0.8296550000000000  2.3466195000000001  4.3110145000000006
  2.4889660000000000  0.0000000000000000  4.3110145000000006
