Rb Al O 
 1.0000000000000000
     4.9122149999999998    0.0000000000000000    2.8360690000000002
     1.6374050000000000    4.6312810000000004    2.8360690000000002
     0.0000000000000000    0.0000000000000000    5.6721380000000003
 Rb  Al  O  
   2   2   4
Cartesian
  4.0935125000000001  2.8945506250000004  7.0901725000000004
  2.4561074999999999  1.7367303750000000  4.2541035000000003
  5.7309174999999994  4.0523708750000003  9.9262414999999997
  0.8187025000000000  0.5789101250000001  1.4180345000000001
  0.8187025000000000  2.3156405000000002  1.4180345000000001
  2.4561074999999999  0.0000000000000000  1.4180345000000001
  0.0000000000000000  0.0000000000000000  0.0000000000000000
  0.0000000000000000  0.0000000000000000  2.8360690000000002
