Th Cd Ag
 1.0000000000000000
    -0.0000020000000000    3.5610650000000001    3.5610659999999998
     3.5610640000000000    0.0000030000000000    3.5610610000000000
     3.5610650000000001    3.5610620000000002    0.0000010000000000
 Th  Cd  Ag 
   1   1   2
Cartesian
  5.3415916889329997  5.3415975000030000  5.3415995610650002
  1.7805353110650000  1.7805360610620000  1.7805320000009999
  0.0000000000000000  0.0000000000000000  0.0000000000000000
  3.5610635000020001  3.5610614389349999  3.5610604389340001
