Ti Ga Ru
 1.0000000000000000
     0.0000000000000000    3.0330659999999998    3.0330659999999998
     3.0330659999999998    0.0000000000000000    3.0330659999999998
     3.0330659999999998    3.0330659999999998    0.0000000000000000
 Ti  Ga  Ru 
   1   1   2
Cartesian
  4.5496050661320000  4.5496050661320000  4.5496050661320000
  1.5165390661319997  1.5165390661319997  1.5165390661319997
  3.0330659999999998  3.0330659999999998  3.0330659999999998
  0.0000000000000000  0.0000000000000000  0.0000000000000000
