Lu In
 1.0000000000000000
     5.2422290000000000    0.0000000000000000    0.0000000000000000
    -2.6211139999999999    4.5399029999999998    0.0000000000000000
     0.0000000000000000    0.0000000000000000    6.5618999999999996
 Lu  In 
   4   2
Cartesian
  0.0000000000000000  0.0000000000000000  3.2809499999999998
  0.0000000000000000  0.0000000000000000  0.0000000000000000
 -0.0000022877810000  3.0266035133010001  4.9214249999999993
  2.6211172877810003  1.5132994866989999  1.6404749999999999
  2.6211172877810003  1.5132994866989999  4.9214249999999993
 -0.0000022877810000  3.0266035133010001  1.6404749999999999
