Pd Au
 1.0000000000000000
     3.9676779999999998    0.0000000000000000    0.0000000000000000
     0.0000000000000000    3.9676779999999998    0.0000000000000000
     0.0000000000000000    0.0000000000000000    3.9676779999999998
 Pd  Au 
   3   1
Cartesian
  1.9838389999999999  1.9838389999999999  0.0000000000000000
  1.9838389999999999  0.0000000000000000  1.9838389999999999
  0.0000000000000000  1.9838389999999999  1.9838389999999999
  0.0000000000000000  0.0000000000000000  0.0000000000000000
