Ti Nb Tc
 1.0000000000000000
     0.0000000000000000    3.1419480000000002    3.1419480000000002
     3.1419480000000002    0.0000000000000000    3.1419480000000002
     3.1419480000000002    3.1419480000000002    0.0000000000000000
 Ti  Nb  Tc 
   1   1   2
Cartesian
  4.7129220000000007  4.7129220000000007  4.7129220000000007
  1.5709740000000001  1.5709740000000001  1.5709740000000001
  0.0000000000000000  0.0000000000000000  0.0000000000000000
  3.1419480000000002  3.1419480000000002  3.1419480000000002
