Ti Co
 1.0000000000000000
     2.9819100000000001    0.0000000000000000    0.0000000000000000
     0.0000000000000000    2.9819100000000001    0.0000000000000000
     0.0000000000000000    0.0000000000000000    2.9819100000000001
 Ti  Co 
   1   1
Cartesian
  0.0000000000000000  0.0000000000000000  0.0000000000000000
  1.4909550000000000  1.4909550000000000  1.4909550000000000
