Zr Cd
 1.0000000000000000
     4.3870709999999997    0.0000000000000000    0.0000000000000000
     0.0000000000000000    4.3917599999999997    0.0000000000000000
     0.0000000000000000    0.0000000000000000    4.3917599999999997
 Zr  Cd 
   1   3
Cartesian
  0.0000000000000000  0.0000000000000000  0.0000000000000000
  2.1935354999999999  0.0000000000000000  2.1958799999999998
  2.1935354999999999  2.1958799999999998  0.0000000000000000
  0.0000000000000000  2.1958799999999998  2.1958799999999998
