Al Si O 
 1.0000000000000000
    -5.5652730000000004    0.0007470000000000    0.0044740000000000
     1.3725630000000000    6.9842190000000004   -0.0002820000000000
    -0.0073480000000000   -2.2020990000000000   -7.5308080000000004
 Al  Si  O  
   8   4  20
Cartesian
 -3.4317057502630002  6.0242118084300014 -0.6228716068700000
 -0.7683522497370001 -1.2413448084299998 -6.9037443931300002
 -0.7694353868580003  4.9403329628760009 -4.6193832573679998
 -3.4306226131420003 -0.1574659628759999 -2.9072327426319999
  0.6863292251160000  4.2478531096140006 -2.2692041493319999
 -4.8863872251160005  0.5350138903860004 -5.2574118506680003
 -2.0916068616520005  4.0649807208929998 -2.2269223964440004
 -2.1084511383480002  0.7178862791070001 -5.2996936035560003
 -3.5441392433260006  3.4799157894660002 -5.0288391395080003
 -0.6559187566740000  1.3029512105340002 -2.4977768604920003
 -0.6741686192710002  2.8551529716570005 -7.0406128115260005
 -3.5258893807290006  1.9277140283430001 -0.4860031884740000
 -0.6797964867850000  1.7860171971210004 -5.7888395149180001
 -3.5202615132150004  2.9968498028790003 -1.7377764850820001
 -3.5258290706450004  1.8879552967140003 -5.4550822312019998
 -0.6742289293550001  2.8949117032860006 -2.0715337687980000
 -2.0032122549270004  4.8322900447200006 -0.4018732294700000
 -2.1968457450730003 -0.0494230447200000 -7.1247427705300002
 -2.1960580758660004  3.7923236034720000 -4.1726830508360004
 -2.0039999241340003  0.9905433965279999 -3.3539329491640002
 -0.8046694994920002  5.3251479408389999 -2.7780965274120000
 -3.3953885005080005 -0.5422809408389998 -4.7485194725879998
 -0.6370776096839998  4.3615155564900006 -6.3813461183400007
 -3.5629803903160000  0.4213514435100001 -1.1452698816600000
 -0.5663375768570001  0.4405741657470000 -1.1039240921460001
 -3.6337204231430000  4.3422928342530005 -6.4226919078540003
 -0.8429471195730002 -0.6540689661239998 -5.1552464217380001
 -3.3571108804270007  5.4369359661240004 -2.3713695782620001
 -4.9370285445370001  0.9189705594720001 -3.4196521966460005
  0.7369705445370001  3.8638964405280007 -4.1069638033540006
 -4.8251852842970004 -0.0806385894510002 -7.0389615289420000
  0.6251272842970000  4.8635055894510009 -0.4876544710580001
