Li Ca Cd
 1.0000000000000000
     0.0000000000000000    3.8718819999999998    3.8718819999999998
     3.8718819999999998    0.0000000000000000    3.8718819999999998
     3.8718819999999998    3.8718819999999998    0.0000000000000000
 Li  Ca  Cd 
   1   2   1
Cartesian
  5.8078307437639998  5.8078307437639998  5.8078307437639998
  3.8718897437640001  3.8718897437640001  3.8718897437640001
  0.0000000000000000  0.0000000000000000  0.0000000000000000
  1.9359409999999999  1.9359409999999999  1.9359409999999999
