Na N  O 
 1.0000000000000000
     5.0675749999999997   -0.0402790000000000    0.0226880000000000
    -2.4873419999999999    5.6114819999999996   -0.0909720000000000
    -0.0521020000000000   -2.1676250000000001    8.5011410000000005
 Na  N   O  
   4   4  12
Cartesian
  4.9556799639359994 -2.1965664836110004  8.5214495476170011
 -0.0403735968720002  4.4938067935939996  4.1674342750499997
  2.4871218744409997  2.2406009701769993  2.0978736197540000
 -0.0739034306050000  1.1568332890549997  6.3332821605380003
 -0.0317268632460000  3.9397128163260002  0.9965530779360001
  2.4742723106579998  2.8023939291789990  5.2697870023049997
 -0.0798514704940001  0.5905530193180000  3.1698974741599999
  2.4496485514779995 -0.5213129967090001  7.4296905689170005
 -0.6763032670670001  3.6811717175049998  2.0462560747420002
  1.2266280465419996  3.9215274537979998  1.0099609485000001
 -0.6983581368540001  2.0481889422149995  8.4341060488290012
  1.8449220433259994  2.5303094171439997  6.3252640501740007
  1.8454966361189997  3.0755266346759997  4.2146580796470001
 -1.3348525506439999  2.8422388718359999  5.2480479680800007
  3.7285661107939996  0.5558139376060001  3.1983961518320001
  0.5526293600190000  0.3023084068269999  4.2191257416059997
  0.5450524895379998  0.8746069664939999  2.1148145891199999
  1.1915898389969999 -0.5063939288270004  7.4228782601700010
  3.0705982857529994 -0.7790920287330001  8.4938581801159998
  3.0884408415379991 -0.2784072887220001  6.3728755951279998
