Ce Ni
 1.0000000000000000
     4.8412509999999997    0.0000610000000000    0.0000000000000000
    -2.4205730000000001    4.1926819999999996    0.0000000000000000
     0.0000000000000000    0.0000000000000000    3.9541919999999999
 Ce  Ni 
   1   5
Cartesian
  0.0000000000000000  0.0000000000000000  0.0000000000000000
 -1.2102865000000000  2.0963409999999998  1.9770960000000000
  0.0000228968899998  2.7951430640849999  0.0000000000000000
  2.4206551031099997  1.3975999359149998  0.0000000000000000
  2.4206254999999999  0.0000305000000000  1.9770960000000000
  1.2103389999999998  2.0963714999999996  1.9770960000000000
