Hf Fe
 1.0000000000000000
     6.9920960000000001    0.0000000000000000    0.0000000000000000
     0.0000000000000000    6.9920960000000001    0.0000000000000000
     0.0000000000000000    0.0000000000000000    6.9920960000000001
 Hf  Fe 
   8  16
Cartesian
  4.3700600000000005  4.3700600000000005  4.3700600000000005
  6.1180839999999996  6.1180839999999996  2.6220360000000000
  4.3700600000000005  0.8740120000000000  0.8740120000000000
  6.1180839999999996  2.6220360000000000  6.1180839999999996
  0.8740120000000000  4.3700600000000005  0.8740120000000000
  2.6220360000000000  6.1180839999999996  6.1180839999999996
  0.8740120000000000  0.8740120000000000  4.3700600000000005
  2.6220360000000000  2.6220360000000000  2.6220360000000000
  5.2440720000000001  1.7480240000000000  3.4960480000000000
  5.2440720000000001  3.4960480000000000  1.7480240000000000
  0.0000000000000000  3.4960480000000000  3.4960480000000000
  0.0000000000000000  1.7480240000000000  1.7480240000000000
  5.2440720000000001  5.2440720000000001  0.0000000000000000
  5.2440720000000001  0.0000000000000000  5.2440720000000001
  0.0000000000000000  0.0000000000000000  0.0000000000000000
  0.0000000000000000  5.2440720000000001  5.2440720000000001
  1.7480240000000000  1.7480240000000000  0.0000000000000000
  1.7480240000000000  3.4960480000000000  5.2440720000000001
  3.4960480000000000  3.4960480000000000  0.0000000000000000
  3.4960480000000000  1.7480240000000000  5.2440720000000001
  1.7480240000000000  5.2440720000000001  3.4960480000000000
  1.7480240000000000  0.0000000000000000  1.7480240000000000
  3.4960480000000000  0.0000000000000000  3.4960480000000000
  3.4960480000000000  5.2440720000000001  1.7480240000000000
