Yb Mg Ge
 1.0000000000000000
     4.1715559999999998    0.0000000000000000    0.0000000000000000
     0.0000000000000000    7.0216209999999997    0.0000000000000000
     0.0000000000000000    0.0000000000000000    8.5839739999999995
 Yb  Mg  Ge 
   4   4   4
Cartesian
  3.1286670000000001  6.7669819144350001  5.7608937988279996
  1.0428890000000000  0.2546390855650000  2.8230802011720000
  3.1286670000000001  3.2561714144349998  7.1150672011719998
  1.0428890000000000  3.7654495855649999  1.4689067988279998
  3.1286670000000001  6.0396964544969993  0.4937587684540000
  1.0428890000000000  0.9819245455029999  8.0902152315459990
  3.1286670000000001  2.5288859544969999  3.7982282315460001
  1.0428890000000000  4.4927350455030002  4.7857457684540003
  3.1286670000000001  5.2329402880809992  3.1815555393859998
  1.0428890000000000  1.7886807119189998  5.4024184606139993
  3.1286670000000001  1.7221297880810000  1.1104314606140000
  1.0428890000000000  5.2994912119190003  7.4735425393860000
