La Cu S  O 
 1.0000000000000000
     3.9894289999999999    0.0000000000000000    0.0000000000000000
     0.0000000000000000    3.9894289999999999    0.0000000000000000
     0.0000000000000000    0.0000000000000000    8.5352040000000002
 La  Cu  S   O  
   2   2   2   2
Cartesian
  0.0000000000000000  1.9947144999999999  7.2678969100800010
  1.9947144999999999  0.0000000000000000  1.2673070899200001
  1.9947144999999999  1.9947144999999999  4.2676020000000001
  0.0000000000000000  0.0000000000000000  4.2676020000000001
  1.9947144999999999  0.0000000000000000  5.6342503292760000
  0.0000000000000000  1.9947144999999999  2.9009536707239998
  0.0000000000000000  0.0000000000000000  0.0000000000000000
  1.9947144999999999  1.9947144999999999  0.0000000000000000
