Ac N 
 1.0000000000000000
     2.1401370000000002   -3.7068300000000001   -0.0000010000000000
     2.1401390000000000    3.7068300000000001    0.0000020000000000
     0.0000010000000000    0.0000010000000000    6.2951350000000001
 Ac  N  
   2   2
Cartesian
  2.1401421250319999  3.7068272780650000  6.2000489858240000
  2.1401281175359999  1.2356092492830002  3.0524678955520002
  4.2802699696820001 -0.0000107303909999  2.4557268683589997
  2.1401413635840001  1.2356096545030000  5.6033825002550008
