Er Al
 1.0000000000000000
     4.7609269999999997    0.0000000000000000    2.7487219999999999
     1.5869759999999999    4.4886450000000000    2.7487219999999999
     0.0000000000000000    0.0000000000000000    5.4974439999999998
 Er  Al 
   2   4
Cartesian
  0.7934878750000000  0.5610806250000000  1.3743609999999999
  5.5544151249999993  3.9275643750000002  9.6205269999999992
  2.3804634999999998  0.0000000000000000  4.1230829999999994
  0.7934880000000000  2.2443225000000000  4.1230829999999994
  3.1739514999999998  2.2443225000000000  5.4974439999999998
  3.1739514999999998  2.2443225000000000  2.7487219999999999
