Be Pt
 1.0000000000000000
     7.2508030000000003    0.0000000000000000    0.0000000000000000
     0.0000000000000000    7.2508030000000003    0.0000000000000000
     0.0000000000000000    0.0000000000000000    4.1866289999999999
 Be  Pt 
  24   2
Cartesian
  2.5245338329190004  0.0000000000000000  0.0000000000000000
  1.8127007500000001  5.4381022500000000  1.0466572500000000
  0.0000000000000000  2.5245338329190004  0.0000000000000000
  5.6190315372590005  0.0000000000000000  2.0933145000000000
  4.7262691670810009  0.0000000000000000  0.0000000000000000
  5.4381022500000000  5.4381022500000000  3.1399717500000000
  0.0000000000000000  4.7262691670810009  0.0000000000000000
  0.0000000000000000  1.6317714627410000  2.0933145000000000
  1.6317714627410000  0.0000000000000000  2.0933145000000000
  5.4381022500000000  5.4381022500000000  1.0466572500000000
  0.0000000000000000  5.6190315372590005  2.0933145000000000
  1.8127007500000001  5.4381022500000000  3.1399717500000000
  6.1499353329190001  3.6254015000000002  2.0933145000000000
  5.4381022500000000  1.8127007500000001  3.1399717500000000
  3.6254015000000002  6.1499353329190001  2.0933145000000000
  1.9936300372590001  3.6254015000000002  0.0000000000000000
  1.1008676670810000  3.6254015000000002  2.0933145000000000
  1.8127007500000001  1.8127007500000001  1.0466572500000000
  3.6254015000000002  1.1008676670810000  2.0933145000000000
  3.6254015000000002  5.2571729627410004  0.0000000000000000
  5.2571729627410004  3.6254015000000002  0.0000000000000000
  1.8127007500000001  1.8127007500000001  3.1399717500000000
  3.6254015000000002  1.9936300372590001  0.0000000000000000
  5.4381022500000000  1.8127007500000001  1.0466572500000000
  0.0000000000000000  0.0000000000000000  0.0000000000000000
  3.6254015000000002  3.6254015000000002  2.0933145000000000
