Rb Ti S 
 1.0000000000000000
     3.3855360000000001   -0.1225650000000000    7.1543900000000002
     1.5097170000000000    3.0327600000000001    7.1543900000000002
    -0.2061660000000000   -0.1225650000000000    7.9123109999999999
 Rb  Ti  S  
   1   1   2
Cartesian
  3.8359169985240000  2.2804262967600004 18.1780079347320012
  4.6273879932540005  2.7509503644600000 21.9287058846220013
  2.7824948476259999  1.6541740667400000 13.1859509572179991
  1.7804838465960000  1.0584854120400000  8.4375260214279990
