Er Ag Pb
 1.0000000000000000
     7.4561180000000000    0.0000000000000000    0.0000000000000000
    -3.7280579999999999    6.4571880000000004    0.0000000000000000
     0.0000000000000000    0.0000000000000000    4.4957019999999996
 Er  Ag  Pb 
   3   3   3
Cartesian
  4.2727060515459998  0.0000000000000000  2.2478509999999998
  1.5917064011800002  2.7569157881640005  2.2478509999999998
 -2.1363524527259998  3.7002722118359999  2.2478509999999998
  2.8063008930600000  4.8606547241879996  0.0000000000000000
 -0.9217586124420000  1.5965332758120001  0.0000000000000000
  1.8435177193820000  0.0000000000000000  0.0000000000000000
  0.0000000000000000  0.0000000000000000  2.2478509999999998
 -0.0000030613920001  4.3047941523960001  0.0000000000000000
  3.7280630613920001  2.1523938476039999  0.0000000000000000
