Mg Hg
 1.0000000000000000
     4.8791490000000000    0.0000000000000000    0.0000000000000000
    -2.4395739999999999    4.2254670000000001    0.0000000000000000
     0.0000000000000000    0.0000000000000000    8.6907519999999998
 Mg  Hg 
   6   2
Cartesian
  2.4395771062410003  1.4084875915110000  0.6784087918720000
 -0.0000021062410001  2.8169794084890003  5.0237847918720000
  0.0000000000000000  0.0000000000000000  6.5180639999999999
  0.0000000000000000  0.0000000000000000  2.1726880000000000
  2.4395771062410003  1.4084875915110000  3.6669672081279998
 -0.0000021062410001  2.8169794084890003  8.0123432081279997
 -0.0000021062410001  2.8169794084890003  2.1726880000000000
  2.4395771062410003  1.4084875915110000  6.5180639999999999
