Sb Rh
 1.0000000000000000
     9.3780490000000007    0.0000000000000000    0.0000000000000000
     0.0000000000000000    9.3780490000000007    0.0000000000000000
     0.0000000000000000    0.0000000000000000    9.3780490000000007
 Sb  Rh 
  24   8
Cartesian
  0.0000000000000000  1.4525097413160000  3.1858732940840002
  3.1858732940840002  0.0000000000000000  1.4525097413160000
  1.4525097413160000  3.1858732940840002  0.0000000000000000
  3.1858732940840002  0.0000000000000000  7.9255392586840001
  7.9255392586840001  6.1921757059160001  0.0000000000000000
  6.1921757059160001  0.0000000000000000  7.9255392586840001
  1.4525097413160000  6.1921757059160001  0.0000000000000000
  7.9255392586840001  3.1858732940840002  0.0000000000000000
  6.1921757059160001  0.0000000000000000  1.4525097413160000
  0.0000000000000000  1.4525097413160000  6.1921757059160001
  0.0000000000000000  7.9255392586840001  3.1858732940840002
  0.0000000000000000  7.9255392586840001  6.1921757059160001
  4.6890245000000004  6.1415342413160010  7.8748977940840010
  7.8748977940840010  4.6890245000000004  6.1415342413160010
  6.1415342413160010  7.8748977940840010  4.6890245000000004
  7.8748977940840010  4.6890245000000004  3.2365147586840002
  3.2365147586840002  1.5031512059160002  4.6890245000000004
  1.5031512059160002  4.6890245000000004  3.2365147586840002
  6.1415342413160010  1.5031512059160002  4.6890245000000004
  3.2365147586840002  7.8748977940840010  4.6890245000000004
  1.5031512059160002  4.6890245000000004  6.1415342413160010
  4.6890245000000004  6.1415342413160010  1.5031512059160002
  4.6890245000000004  3.2365147586840002  7.8748977940840010
  4.6890245000000004  3.2365147586840002  1.5031512059160002
  2.3445122500000002  7.0335367500000006  7.0335367500000006
  2.3445122500000002  7.0335367500000006  2.3445122500000002
  2.3445122500000002  2.3445122500000002  7.0335367500000006
  7.0335367500000006  7.0335367500000006  7.0335367500000006
  7.0335367500000006  2.3445122500000002  2.3445122500000002
  7.0335367500000006  2.3445122500000002  7.0335367500000006
  7.0335367500000006  7.0335367500000006  2.3445122500000002
  2.3445122500000002  2.3445122500000002  2.3445122500000002
