La Sn Au
 1.0000000000000000
     0.0000000000000000    3.6090849999999999    3.6090849999999999
     3.6090849999999999    0.0000000000000000    3.6090849999999999
     3.6090849999999999    3.6090849999999999    0.0000000000000000
 La  Sn  Au 
   1   1   2
Cartesian
  1.8045424999999999  1.8045424999999999  1.8045424999999999
  5.4136274999999996  5.4136274999999996  5.4136274999999996
  3.6090849999999999  3.6090849999999999  3.6090849999999999
  0.0000000000000000  0.0000000000000000  0.0000000000000000
