Li Sb Au
 1.0000000000000000
     6.4449860000000001    0.0000000000000000    0.0000000000000000
     0.0000000000000000    6.4449860000000001    0.0000000000000000
     0.0000000000000000    0.0000000000000000    6.4449860000000001
 Li  Sb  Au 
   4   4   4
Cartesian
  0.0000000000000000  0.0000000000000000  0.0000000000000000
  0.0000000000000000  3.2224930000000001  3.2224930000000001
  3.2224930000000001  0.0000000000000000  3.2224930000000001
  3.2224930000000001  3.2224930000000001  0.0000000000000000
  4.8337395000000001  1.6112465000000000  1.6112465000000000
  4.8337395000000001  4.8337395000000001  4.8337395000000001
  1.6112465000000000  1.6112465000000000  4.8337395000000001
  1.6112465000000000  4.8337395000000001  1.6112465000000000
  3.2224930000000001  0.0000000000000000  0.0000000000000000
  3.2224930000000001  3.2224930000000001  3.2224930000000001
  0.0000000000000000  0.0000000000000000  3.2224930000000001
  0.0000000000000000  3.2224930000000001  0.0000000000000000
