Er P  O 
 1.0000000000000000
     5.4476730000000000    0.0043590000000000   -1.5728390000000001
    -3.0807259999999999    4.4929160000000001   -1.5728390000000001
    -0.0022950000000000   -0.0043590000000000    5.6701819999999996
 Er  P   O  
   2   2   8
Cartesian
 -2.0152498749999999  3.9307566250000003 -0.1552935000000002
  4.3799018749999998  0.5621593750000000  2.6797974999999994
  0.1157023749999999  2.8064378750000003  2.6797974999999994
  2.2489496250000003  1.6864781250000001 -0.1552935000000002
  3.1721306207800004  1.6184271376999999 -1.3822090088400003
  1.4549173345010000  3.5288756250069997  2.8960774451949995
 -0.4630700339079999  3.5288756380840001  1.4528819911599999
  2.0862197082120004  3.1994001368339999  0.0609864451950000
  0.9097346654990001  0.9640403749930001 -0.3715734451950001
 -0.8074786207799998  2.8744888622999998  3.9067130088399993
  0.2784322917880001  1.2935158631660000  2.4635175548049997
  2.8277220339080000  0.9640403619160000  1.0716220088399999
