Nd Fe Si
 1.0000000000000000
     4.0056719999999997    0.0000000000000000    0.0000000000000000
     0.0000000000000000    3.9786679999999999   -0.9588750000000000
     0.0000000000000000   -0.0165920000000000    8.6649550000000009
 Nd  Fe  Si 
   2   2   4
Cartesian
  1.0014179999999999  3.5355218006080000  5.9361919939900005
  3.0042539999999995  0.4265541993920000  1.7698880060100002
  3.0042539999999995  2.9729431611999995  3.6018615255000004
  1.0014179999999999  0.9891328387999999  4.1042184744999997
  1.0014179999999999  2.7389049412879998  2.6307644713700005
  3.0042539999999995  1.2231710587119999  5.0753155286300009
  3.0042539999999995  1.8232357913799999  7.5651612057900000
  1.0014179999999999  2.1388402086200000  0.1409187942100000
