Zr Si O 
 1.0000000000000000
     5.3183930000000004    0.0009640000000000   -1.6161200000000000
    -2.9221750000000002    4.4436700000000000   -1.6161200000000000
    -0.0005200000000000   -0.0009640000000000    5.5585209999999998
 Zr  Si  O  
   2   2   8
Cartesian
 -1.8922340000000002  3.8880907499999999 -0.2264897500000000
  4.2879319999999996  0.5555792500000000  2.5527707499999996
  2.2280500000000001  1.6667377500000000 -0.2264897500000000
  0.1676480000000000  2.7769322500000002  2.5527707499999996
  3.1955349893850005  1.6461005399620001 -1.5315228412230002
  1.5758901936930001  3.5738551242720002  2.6987258094630002
 -0.3813210556790000  3.5738551261999998  1.2477376587769995
  2.1198546297650003  3.2812118250980000 -0.0805346905370000
  0.8198078063070000  0.8698148757280000 -0.3724448094630000
 -0.7998369893850001  2.7975694600380003  3.8578038412229998
  0.2758433702350001  1.1624581749020000  2.4068156905369995
  2.7770190556790002  0.8698148738000001  1.0785433412229999
