Ta As
 1.0000000000000000
     3.3182390000000002   -0.0009370000000000    0.8276720000000000
     1.5217700000000001    4.6493630000000001    0.9594620000000000
     0.0097350000000000   -0.0104400000000000    7.0297859999999996
 Ta  As 
   2   4
Cartesian
  1.8710957362900003  4.0891254558819998  6.6266351426199996
  2.9786482637100002  0.5488605441180000  2.1902848573800000
  4.0017028212190011  3.4891865851450001  5.1434272503880001
  0.8480411787810000  1.1487994148550000  3.6734927496120000
  1.8049564071790001  1.3607500500100000  6.9041826853179993
  3.0447875928209998  3.2772359499900001  1.9127373146819999
