Zr Bi
 1.0000000000000000
     3.8931089999999999    0.0000000000000000    0.0000000000000000
    -1.9465539999999999    5.4196340000000003    0.0000000000000000
     0.0000000000000000    0.0000000000000000   14.4580040000000007
 Zr  Bi 
   6   6
Cartesian
  0.0000020179770000  0.7741676187300001 12.8779899488680005
  1.9465529820230001  4.6454663812700003  1.5800140511320002
  1.9465529820230001  4.6454663812700003  5.6489879488680002
  0.0000020179770000  0.7741676187300001  8.8090160511320015
  0.0000003883030000  4.2089202822040006 10.8435030000000001
  1.9465546116969998  1.2107137177960001  3.6145010000000002
  1.9465527284060000  1.8964437489140000 10.8435030000000001
  0.0000022715940002  3.5231902510860000  3.6145010000000002
  1.9465565874339998  1.5270306562059999  6.5093403928960001
 -0.0000015874340001  3.8926033437940002  7.9486636071040007
 -0.0000015874340001  3.8926033437940002 13.7383423928959996
  1.9465565874339998  1.5270306562059999  0.7196616071040001
