Sr Sn As
 1.0000000000000000
     9.0637530000000002   -2.1224180000000001   -0.0003120000000000
     9.0637530000000002    2.1224180000000001   -0.0003120000000000
     8.5668810000000004    0.0000000000000000    3.6420889999999999
 Sr  Sn  As 
   1   2   2
Cartesian
  0.0000000000000000  0.0000000000000000  0.0000000000000000
  5.5837984007249997 -0.0000000000000000  0.7617034413750000
 21.1105885992750011 -0.0000000000000001  2.8797615586249998
 15.8264079982380004 -0.0000000000000000  2.1589299204099999
 10.8679790017620004  0.0000000000000000  1.4825350795899999
