Lu B  Rh
 1.0000000000000000
     4.1375450000000003    0.0000000000000000    0.0000000000000000
     0.0000000000000000    4.1375370000000000    0.0000000000000000
     0.0000000000000000    0.0000000000000000    4.1375039999999998
 Lu  B   Rh 
   1   1   3
Cartesian
  0.0000000000000000  0.0000000000000000  0.0000000000000000
  2.0687725000000001  2.0687685000000000  2.0687519999999999
  0.0000000000000000  2.0687685000000000  2.0687519999999999
  2.0687725000000001  2.0687685000000000  0.0000000000000000
  2.0687725000000001  0.0000000000000000  2.0687519999999999
