Na Pa O 
 1.0000000000000000
     4.3274869999999996    0.0000000000000000    0.0000000000000000
     0.0000000000000000    4.3274869999999996    0.0000000000000000
     0.0000000000000000    0.0000000000000000    4.3274869999999996
 Na  Pa  O  
   1   1   3
Cartesian
  0.0000000000000000  0.0000000000000000  0.0000000000000000
  2.1637348450259997  2.1637348450259997  2.1637348450259997
  2.1637348450259997  2.1637348450259997  0.0000000000000000
  2.1637348450259997  0.0000000000000000  2.1637348450259997
  0.0000000000000000  2.1637348450259997  2.1637348450259997
