Ti Ge Ru
 1.0000000000000000
     0.0004790000000000    3.0227650000000001    3.0231970000000001
     3.0234290000000001   -0.0000020000000000    3.0236770000000002
     3.0226489999999999    3.0224669999999998    0.0007760000000000
 Ti  Ge  Ru 
   1   1   2
Cartesian
  4.5349177591009999  4.5339799325349999  4.5357949407430000
  1.5115909026010002  1.5112742573130000  1.5119880645490003
  6.0459722065600001  3.0223864173560000  3.0244559972210001
  3.0234507707520000  3.0226754377220000  3.0237010937470004
