Ce Rh
 1.0000000000000000
     4.0366470000000003    0.0000000000000000    0.0000000000000000
     0.0000000000000000    4.0366470000000003    0.0000000000000000
     0.0000000000000000    0.0000000000000000    4.0366470000000003
 Ce  Rh 
   1   3
Cartesian
  0.0000000000000000  0.0000000000000000  0.0000000000000000
  2.0183235000000002  0.0000000000000000  2.0183235000000002
  0.0000000000000000  2.0183235000000002  2.0183235000000002
  2.0183235000000002  2.0183235000000002  0.0000000000000000
