Pb
 1.0000000000000000
     3.5334319999999999    0.0000000000000000    0.0000000000000000
    -1.7667160000000000    3.0600420000000002    0.0000000000000000
     0.0000000000000000    0.0000000000000000    5.9156469999999999
 Pb 
   2
Cartesian
 -0.0000017667160000  2.0400290200140003  1.4789117500000000
  1.7667177667159999  1.0200129799860000  4.4367352499999999
