Pr Si Ru
 1.0000000000000000
     3.9178679999999999   -0.0000000000000000   -1.5449720000000000
    -0.6092450000000000    3.8702090000000000   -1.5449720000000000
     0.0086420000000000    0.0101090000000000    5.7620279999999999
 Pr  Si  Ru 
   1   2   2
Cartesian
  0.0000000000000000  0.0000000000000000  0.0000000000000000
  2.1145737920090002  2.4734890212490002 -0.3778005426559999
  1.2026912079909999  1.4068289787510000  3.0498845426560002
  2.7904107499999999  0.9726067500000000  1.3360420000000000
  0.5268542500000000  2.9077112500000002  1.3360420000000000
