Mg Sb
 1.0000000000000000
     4.6004870000000002    0.0000000000000000    0.0000000000000000
    -2.3002440000000002    3.9841380000000002    0.0000000000000000
     0.0000000000000000    0.0000000000000000    7.2842359999999999
 Mg  Sb 
   3   2
Cartesian
  0.0000000000000000  0.0000000000000000  0.0000000000000000
 -0.0000026335770002  2.6560933280460000  2.6816987676360000
  2.3002456335770001  1.3280446719540000  4.6025372323639999
 -0.0000026335770002  2.6560933280460000  5.6421215415759995
  2.3002456335770001  1.3280446719540000  1.6421144584239999
