Hg F 
 1.0000000000000000
     3.4025629999999998    0.0000000000000000    1.9644699999999999
     1.1341889999999999    3.2079659999999999    1.9644699999999999
     0.0000000000000000    0.0000000000000000    3.9289410000000000
 Hg  F  
   1   2
Cartesian
  0.0000000000000000  0.0000000000000000  0.0000000000000000
  3.4025639999999995  2.4059745000000001  5.8934107499999993
  1.1341880000000000  0.8019915000000000  1.9644702500000000
