Ta V  Os
 1.0000000000000000
     0.0000000000000000    3.1566420000000002    3.1566420000000002
     3.1566420000000002    0.0000000000000000    3.1566420000000002
     3.1566420000000002    3.1566420000000002    0.0000000000000000
 Ta  V   Os 
   2   1   1
Cartesian
  0.0000000000000000  0.0000000000000000  0.0000000000000000
  3.1566420000000002  3.1566420000000002  3.1566420000000002
  4.7349630000000005  4.7349630000000005  4.7349630000000005
  1.5783210000000001  1.5783210000000001  1.5783210000000001
