Cs Sn F 
 1.0000000000000000
     6.3044130000000003    0.0000000000000000    0.0000000000000000
    -3.1522060000000001    5.4597810000000004    0.0000000000000000
     0.0000000000000000    0.0000000000000000    5.0040009999999997
 Cs  Sn  F  
   2   1   6
Cartesian
  3.1522098188730001  1.8199251800730001  3.4874584329339999
 -0.0000028188729999  3.6398558199270004  1.5165425670660000
  0.0000000000000000  0.0000000000000000  0.0000000000000000
  4.8700897697940002  0.8281068233940001  1.0960213350290000
  3.1522131527380006  3.8035564336500003  1.0960213350290000
  1.4343359907060000  0.8281068233940001  1.0960213350290000
 -1.7178827697940000  4.6316741766060003  3.9079796649709997
 -0.0000061527380000  1.6562245663500001  3.9079796649709997
  1.7178710092939999  4.6316741766060003  3.9079796649709997
