Si Pt
 1.0000000000000000
     3.6401759999999999    0.0000000000000000    0.0000000000000000
     0.0000000000000000    5.6541509999999997    0.0000000000000000
     0.0000000000000000    0.0000000000000000    5.9909070000000000
 Si  Pt 
   4   4
Cartesian
  0.9100440000000000  3.8362622953860002  5.4909598199429999
  2.7301319999999998  1.8178887046140000  0.4999471800570000
  0.9100440000000000  1.0091867953860001  3.4954006800570001
  2.7301319999999998  4.6449642046139994  2.4955063199429999
  0.9100440000000000  2.7968766795089999  1.8350387777280002
  2.7301319999999998  2.8572743204910003  4.1558682222719998
  0.9100440000000000  5.6239521795089997  1.1604147222720000
  2.7301319999999998  0.0301988204910000  4.8304922777280002
