Ce Ga
 1.0000000000000000
     4.6951669999999996    0.0000000000000000    0.0000000000000000
     0.0000000000000000    4.6957409999999999    0.0000000000000000
     0.0000000000000000    0.0000000000000000    4.6956110000000004
 Ce  Ga 
   3   1
Cartesian
  2.3475834999999998  2.3478705000000000  0.0000000000000000
  2.3475834999999998  0.0000000000000000  2.3478055000000002
  0.0000000000000000  2.3478705000000000  2.3478055000000002
  0.0000000000000000  0.0000000000000000  0.0000000000000000
