Fe Pt N 
 1.0000000000000000
     3.8490839999999999    0.0000000000000000    0.0000000000000000
     0.0000000000000000    3.8491130000000000    0.0000000000000000
     0.0000000000000000    0.0000000000000000    3.8490679999999999
 Fe  Pt  N  
   3   1   1
Cartesian
  0.0000000000000000  1.9245565000000000  1.9245340000000000
  1.9245420000000000  0.0000000000000000  1.9245340000000000
  1.9245420000000000  1.9245565000000000  0.0000000000000000
  0.0000000000000000  0.0000000000000000  0.0000000000000000
  1.9245420000000000  1.9245565000000000  1.9245340000000000
