Na Pm Te
 1.0000000000000000
     0.0000000000000000    3.8798370000000002    3.8798370000000002
     3.8798370000000002    0.0000000000000000    3.8798370000000002
     3.8798370000000002    3.8798370000000002    0.0000000000000000
 Na  Pm  Te 
   1   1   2
Cartesian
  3.8798370000000002  3.8798370000000002  3.8798370000000002
  0.0000000000000000  0.0000000000000000  0.0000000000000000
  5.8197555000000003  5.8197555000000003  5.8197555000000003
  1.9399185000000001  1.9399185000000001  1.9399185000000001
