Ni Pt
 1.0000000000000000
     3.5783200000000002    0.0000000000000000    0.0000000000000000
     0.0000000000000000    3.8324340000000001    0.0000000000000000
     0.0000000000000000    0.0000000000000000    3.8324340000000001
 Ni  Pt 
   2   2
Cartesian
  1.7891600000000001  0.0000000000000000  1.9162170000000001
  1.7891600000000001  1.9162170000000001  0.0000000000000000
  0.0000000000000000  0.0000000000000000  0.0000000000000000
  0.0000000000000000  1.9162170000000001  1.9162170000000001
