Ta Al C 
 1.0000000000000000
     3.1040690000000000    0.0000000000000000    0.0000000000000000
    -1.5520339999999999    2.6882020000000000    0.0000000000000000
     0.0000000000000000    0.0000000000000000   19.2767680000000006
 Ta  Al  C  
   6   2   4
Cartesian
 -0.0000012187010001  1.7921355627340001  2.5836073847360002
  1.5520362187009999  0.8960664372660000 12.2219913847360004
 -0.0000012187010001  1.7921355627340001  7.0547766152640001
  1.5520362187009999  0.8960664372660000 16.6931606152639986
  0.0000000000000000  0.0000000000000000  9.6383840000000003
  0.0000000000000000  0.0000000000000000  0.0000000000000000
  0.0000000000000000  0.0000000000000000  4.8191920000000001
  0.0000000000000000  0.0000000000000000 14.4575759999999995
  1.5520362187009999  0.8960664372660000  8.3202578809280006
  1.5520362187009999  0.8960664372660000  1.3181261190719999
 -0.0000012187010001  1.7921355627340001 10.9565101190720000
 -0.0000012187010001  1.7921355627340001 17.9586418809280026
