Mn Sn Au
 1.0000000000000000
     6.3855610000000000    0.0000000000000000    0.0000000000000000
     0.0000000000000000    6.3855610000000000    0.0000000000000000
     0.0000000000000000    0.0000000000000000    6.3855610000000000
 Mn  Sn  Au 
   4   4   4
Cartesian
  3.1927805000000000  0.0000000000000000  0.0000000000000000
  3.1927805000000000  3.1927805000000000  3.1927805000000000
  0.0000000000000000  0.0000000000000000  3.1927805000000000
  0.0000000000000000  3.1927805000000000  0.0000000000000000
  0.0000000000000000  0.0000000000000000  0.0000000000000000
  0.0000000000000000  3.1927805000000000  3.1927805000000000
  3.1927805000000000  0.0000000000000000  3.1927805000000000
  3.1927805000000000  3.1927805000000000  0.0000000000000000
  4.7891707500000003  1.5963902500000000  1.5963902500000000
  4.7891707500000003  4.7891707500000003  4.7891707500000003
  1.5963902500000000  1.5963902500000000  4.7891707500000003
  1.5963902500000000  4.7891707500000003  1.5963902500000000
