Ho Ni C 
 1.0000000000000000
     3.5587840000000002    0.0000000000000000    0.0000000000000000
     0.0000000000000000    3.5765639999999999   -1.0527700000000000
     0.0000000000000000    0.0102580000000000    3.7282739999999999
 Ho  Ni  C  
   1   1   2
Cartesian
  0.0000000000000000  0.0158499678080000  3.7207773230079999
  1.7793920000000001  2.1906439938100002  0.8052154140600000
  1.7793920000000001  0.5361698036720000  1.8768514882400000
  1.7793920000000001  1.6349998970160000  2.6964974896479998
