Nd Al Pd
 1.0000000000000000
     5.4598969999999998   -0.0000020000000000    0.0000000000000000
    -2.7299500000000001    4.7284069999999998    0.0000000000000000
     0.0000000000000000    0.0000000000000000    4.2029740000000002
 Nd  Al  Pd 
   1   3   2
Cartesian
  0.0000000000000000  0.0000000000000000  0.0000000000000000
 -1.3649750000000000  2.3642034999999999  2.1014870000000001
  1.3649734999999998  2.3642024999999998  2.1014870000000001
  2.7299484999999999 -0.0000010000000000  2.1014870000000001
 -0.0000037299490001  3.1522722428029999  0.0000000000000000
  2.7299507299490000  1.5761327571969999  0.0000000000000000
