Tl Sn Te
 1.0000000000000000
    -4.2641419999999997    4.2641419999999997    7.6623679999999998
     4.2641419999999997   -4.2641419999999997    7.6623679999999998
     4.2641419999999997    4.2641419999999997   -7.6623679999999998
 Tl  Sn  Te 
   4   2  10
Cartesian
  0.0000000000000000  0.0000000000000000  7.6623679999999998
  0.0000000000000000  0.0000000000000000  0.0000000000000000
  0.0000000000000000  0.0000000000000000 11.4935519999999993
  0.0000000000000000  0.0000000000000000  3.8311839999999999
  4.2641419999999997  0.0000000000000000  3.8311839999999999
  0.0000000000000000  4.2641419999999997  3.8311839999999999
  0.0000000000000000  4.2641419999999997  0.0000000000000000
  4.2641419999999997  0.0000000000000000  0.0000000000000000
  5.8131086380679999  1.5489666380679994  2.0812370714240007
  2.7151753619319994  1.5489666380680003  9.7436050714239997
  1.5489666380680001  2.7151753619319994  2.0812370714239994
  1.5489666380679998  2.7151753619319998 -2.0812370714239998
  2.7151753619319994  1.5489666380680001  5.5811309285760000
  5.8131086380679990  1.5489666380679998 -2.0812370714239998
 -1.5489666380679994  2.7151753619319994  5.5811309285760000
 -1.5489666380679994  2.7151753619319994  9.7436050714239997
