Pt Pb
 1.0000000000000000
     6.0898450000000004    0.0000000000000000    0.0000000000000000
     0.0000000000000000    6.7375590000000001    0.0000000000000000
     0.0000000000000000    0.0000000000000000    6.7375590000000001
 Pt  Pb 
   2   8
Cartesian
  0.0000000000000000  5.0531692499999998  5.0531692499999998
  0.0000000000000000  1.6843897500000000  1.6843897500000000
  1.5332889944100001  6.2244938821500000  0.5130651178500000
  1.5332889944100001  0.5130651178500000  3.8818446178500006
  4.5565560055900010  2.8557143821500000  3.8818446178500006
  4.5565560055900010  0.5130651178500000  6.2244938821500000
  4.5565560055900010  6.2244938821500000  2.8557143821500000
  4.5565560055900010  3.8818446178500006  0.5130651178500000
  1.5332889944100001  3.8818446178500006  2.8557143821500000
  1.5332889944100001  2.8557143821500000  6.2244938821500000
