Al Rh
 1.0000000000000000
     7.9568459999999996    0.0000000000000000    0.0000000000000000
    -3.9784229999999998    6.8908300000000002    0.0000000000000000
     0.0000000000000000    0.0000000000000000    7.9004310000000002
 Al  Rh 
  20   8
Cartesian
  0.0000000000000000  0.0000000000000000  0.0000000000000000
  0.0000000000000000  0.0000000000000000  3.9502155000000001
  1.6444493196659997  3.6444635153800000  5.9253232499999999
  3.9784229999999998  0.3980970307600000  1.9751077500000001
  5.6228723196659995  3.2463664846199998  1.9751077500000001
 -1.6444493196659999  3.6444635153800000  5.9253232499999999
 -0.0000000000000001  6.4927329692399995  5.9253232499999999
  2.3339736803339997  3.2463664846199998  1.9751077500000001
 -1.6788189159629998  5.5631531114100001  0.4611402570390000
  3.9784190215770003  4.2354831136500000  4.4113557570389998
  2.2995961271909997  1.3276768885900001  4.4113557570389998
  1.6788268728089999  5.5631531114100001  0.4611402570390000
  0.0000039784230002  2.6553468863499998  0.4611402570390000
  5.6572419159630005  1.3276768885900001  7.4392907429610000
  3.9784190215770003  4.2354831136500000  7.4392907429610000
  5.6572419159630005  1.3276768885900001  4.4113557570389998
  2.2995961271909997  1.3276768885900001  7.4392907429610000
  1.6788268728089999  5.5631531114100001  3.4890752429609999
 -1.6788189159629998  5.5631531114100001  3.4890752429609999
  0.0000039784230002  2.6553468863499998  3.4890752429609999
 -0.0000039784230001  4.5938889636100004  1.9751077500000001
  3.9784269784229993  2.2969410363899998  5.9253232499999999
 -2.4281628448589996  5.9957869821300003  5.9253232499999999
  3.9784229999999994  5.1007439642600003  1.9751077500000001
  1.5502601551409998  0.8950430178700001  1.9751077500000001
  2.4281628448590005  5.9957869821300003  5.9253232499999999
 -0.0000000000000001  1.7900860357400001  5.9253232499999999
  6.4065858448589994  0.8950430178700001  1.9751077500000001
