Al Cu
 1.0000000000000000
     4.1313550000000001    0.0000000000000000    0.0000000000000000
     0.0000000000000000    4.1313550000000001    0.0000000000000000
     0.0000000000000000    0.0000000000000000    2.8728359999999999
 Al  Cu 
   2   1
Cartesian
  0.0000000000000000  2.0656775000000001  1.4364180000000000
  2.0656775000000001  0.0000000000000000  1.4364180000000000
  0.0000000000000000  0.0000000000000000  0.0000000000000000
