Ca Cd Sb
 1.0000000000000000
     4.6326729999999996    0.0000000000000000    0.0000000000000000
     0.0000000000000000    7.3370340000000001    0.0000000000000000
     0.0000000000000000    0.0000000000000000   17.6071589999999993
 Ca  Cd  Sb 
   8   4   8
Cartesian
  3.4745047499999995  5.6865388535640005  7.8673540344929993
  1.1581682499999999  5.3190121464360001 16.6709335344929990
  1.1581682499999999  3.9221069061420000 12.8011617008369996
  3.4745047499999995  7.0834440938579997  3.9975822008369999
  3.4745047499999995  2.0180218535640000  0.9362254655069999
  1.1581682499999999  1.6504951464359998  9.7398049655070000
  3.4745047499999995  3.4149270938580001  4.8059972991629998
  1.1581682499999999  0.2535899061420001 13.6095767991629994
  1.1581682499999999  4.6682465787720000  2.6648787289679996
  3.4745047499999995  6.3373044212280005 11.4684582289680002
  3.4745047499999995  2.6687874212280001 14.9422802710319989
  1.1581682499999999  0.9997295787720000  6.1387007710320001
  3.4745047499999995  1.8587348454240000 12.0395992526099995
  1.1581682499999999  5.4782991545759998  5.5675597473899998
  1.1581682499999999  1.8097821545760000  3.2360197526099999
  3.4745047499999995  5.5338918611940002  1.2594400832699999
  3.4745047499999995  5.5272518454239998 14.3711392473899995
  1.1581682499999999  1.8031421388060000 16.3477189167299990
  3.4745047499999995  1.8653748611940000  7.5441394167300002
  1.1581682499999999  5.4716591388059994 10.0630195832700000
