Ti Au
 1.0000000000000000
     6.6044700000000001    0.0000000000000000    0.0000000000000000
     0.0000000000000000    6.6044700000000001    0.0000000000000000
     0.0000000000000000    0.0000000000000000    4.0148989999999998
 Ti  Au 
   2   8
Cartesian
  0.0000000000000000  0.0000000000000000  0.0000000000000000
  3.3022350000000000  3.3022350000000000  2.0074494999999999
  0.6948496842300000  4.6690300664999995  2.0074494999999999
  5.9096203157699998  1.9354399334999999  2.0074494999999999
  1.9354399334999999  0.6948496842300000  2.0074494999999999
  4.6690300664999995  5.9096203157699998  2.0074494999999999
  3.9970846842299999  1.3667950664999999  0.0000000000000000
  2.6073853157700002  5.2376749335000001  0.0000000000000000
  5.2376749335000001  3.9970846842299999  0.0000000000000000
  1.3667950664999999  2.6073853157700002  0.0000000000000000
