Al Mo
 1.0000000000000000
     9.0721150000000002    0.0000000000000000   -1.7201919999999999
     0.0000000000000000    3.6537329999999999    0.0000000000000000
     0.0016580000000000    0.0000000000000000   10.0884180000000008
 Al  Mo 
  16   6
Cartesian
  7.0077668375469999  1.8268664999999999  7.8503072238920009
  2.0660061624529997  1.8268664999999999  0.5179187761080001
  8.7114325649020010  1.8268664999999999  0.1555339938720001
  0.3623404350980000  1.8268664999999999  8.2126920061280018
  1.6914031926449999  0.0000000000000000  2.4828960534220004
  7.3823698073549995  0.0000000000000000  5.8853299465780005
  7.8769908990249995  1.8268664999999999  3.9717377533700007
  1.1967821009750002  1.8268664999999999  4.3964882466300006
  2.4717093375470003  0.0000000000000000  8.7104032238920013
  6.6020636624530002  0.0000000000000000 -0.3421772238919999
  4.1753750649020001  0.0000000000000000  1.0156299938720001
  4.8983979350980000  0.0000000000000000  7.3525960061280013
  6.2274606926450007  1.8268664999999999  1.6228000534220002
  2.8463123073549998  1.8268664999999999  6.7454259465780009
  3.3409333990250003  0.0000000000000000  4.8318337533700007
  5.7328396009750007  0.0000000000000000  3.5363922466300002
  0.0000000000000000  0.0000000000000000  0.0000000000000000
  0.8598961801780000  0.0000000000000000  6.4906832722900010
  8.2138768198220014  0.0000000000000000  1.8775427277100001
  4.5360575000000001  1.8268664999999999 -0.8600960000000000
  5.3959536801779997  1.8268664999999999  5.6305872722900006
  3.6778193198219995  1.8268664999999999  2.7376387277100003
