Hf Sc Ru
 1.0000000000000000
     0.0000000000000000    3.2071079999999998    3.2071079999999998
     3.2071079999999998    0.0000000000000000    3.2071079999999998
     3.2071079999999998    3.2071079999999998    0.0000000000000000
 Hf  Sc  Ru 
   1   1   2
Cartesian
  1.6035475857839998  1.6035475857839998  1.6035475857839998
  4.8106684142159999  4.8106684142159999  4.8106684142159999
  0.0000000000000000  0.0000000000000000  0.0000000000000000
  3.2071079999999998  3.2071079999999998  3.2071079999999998
