Ce Al Pd
 1.0000000000000000
     5.4326489999999996    0.0000000000000000    0.0000000000000000
    -2.7163240000000002    4.7048129999999997    0.0000000000000000
     0.0000000000000000    0.0000000000000000    4.2253800000000004
 Ce  Al  Pd 
   1   3   2
Cartesian
  0.0000000000000000  0.0000000000000000  0.0000000000000000
  2.7163244999999998  0.0000000000000000  2.1126900000000002
  1.3581624999999997  2.3524064999999998  2.1126900000000002
 -1.3581620000000001  2.3524064999999998  2.1126900000000002
  2.7163273829909995  1.5682694317289998  0.0000000000000000
 -0.0000023829910003  3.1365435682709997  0.0000000000000000
