Na Mg F 
 1.0000000000000000
     5.2969830000000000    0.0000000000000000    0.0000000000000000
     0.0000000000000000    5.4712670000000001    0.0000000000000000
     0.0000000000000000    0.0000000000000000    7.5986870000000000
 Na  Mg  F  
   4   4  12
Cartesian
  0.0711066997920000  5.1837026777470001  5.6990152500000004
  2.7195981997919998  3.0231978222530000  1.8996717500000000
  2.5773848002080002  2.4480691777470001  5.6990152500000004
  5.2258763002080002  0.2875643222530000  1.8996717500000000
  0.0000000000000000  2.7356335000000001  3.7993435000000000
  2.6484915000000000  0.0000000000000000  3.7993435000000000
  2.6484915000000000  0.0000000000000000  0.0000000000000000
  0.0000000000000000  2.7356335000000001  0.0000000000000000
  3.7081264642350003  1.6246270804459999  3.4157237868050001
  1.0596349642350000  1.1110064195539999  4.1829632131950003
  4.2373480357649997  4.3602605804460000  0.3836197131950000
  1.5888565357650002  3.8466399195539998  7.2150672868049996
  1.5888565357650002  3.8466399195539998  4.1829632131950003
  4.2373480357649997  4.3602605804460000  3.4157237868050001
  1.0596349642350000  1.1110064195539999  7.2150672868049996
  3.7081264642350003  1.6246270804459999  0.3836197131950000
  0.5099829292740000  2.5625609109889997  1.8996717500000000
  3.1584744292739999  0.1730725890110000  5.6990152500000004
  2.1385085707260001  5.2981944109889998  1.8996717500000000
  4.7870000707260001  2.9087060890110004  5.6990152500000004
