Rb Sn Br
 1.0000000000000000
     6.6027300000000002   -0.0000000000000000    3.8120880000000001
     2.2009099999999999    6.2251139999999996    3.8120880000000001
    -0.0000000000000000   -0.0000000000000000    7.6241760000000003
 Rb  Sn  Br 
   2   1   6
Cartesian
  2.2009099999999999  1.5562784999999999  3.8120880000000001
  6.6027300000000002  4.6688355000000001 11.4362640000000013
  0.0000000000000000  0.0000000000000000  0.0000000000000000
  5.5321193396000004  1.5140722270799998  5.6664400867199998
  3.2715206603999998  4.7110417729199998  9.5819119132800008
  2.1412213208000002  1.5140722270799998  7.6241760000000003
  5.5321193396000004  1.5140722270799998  9.5819119132800008
  6.6624186792000000  4.7110417729199998  7.6241760000000003
  3.2715206603999998  4.7110417729199998  5.6664400867199998
