Zr Te
 1.0000000000000000
     3.7674509999999999    0.0006860000000000    0.9478220000000001
     1.8842930000000000    7.6818900000000001    0.4764700000000000
     0.0011030000000000    0.0030840000000000    7.9190420000000001
 Zr  Te 
   5   4
Cartesian
  0.0000000000000000  0.0000000000000000  0.0000000000000000
  1.2805646885629998  0.4606119929340001  2.8685741232300002
  3.6563274203590002  5.2124812270299996  1.3977708213060001
  1.9965195796410000  2.4731787729700003  7.9455631786940000
  4.3722823114370000  7.2250480070660004  6.4747598767700003
  0.6258620326070000  1.7430096753300000  5.4412918746139995
  3.3409410840080001  2.5551672455640002  2.6338305661960000
  2.3119059159920003  5.1304927544360011  6.7095034338040005
  5.0269849673930000  5.9426503246700006  3.9020421253860000
