Fe Si
 1.0000000000000000
     2.7059810000000000    0.0000000000000000    0.0000000000000000
     0.0000000000000000    2.7059810000000000    0.0000000000000000
     0.0000000000000000    0.0000000000000000    5.1348909999999997
 Fe  Si 
   1   2
Cartesian
  0.0000000000000000  0.0000000000000000  0.0000000000000000
  1.3529905000000000  1.3529905000000000  3.7367526087379996
  1.3529905000000000  1.3529905000000000  1.3981383912620000
