Ta Se
 1.0000000000000000
     3.5266489999999999    0.0000000000000000    0.0000000000000000
     0.0000000000000000    9.6528440000000000   -3.0023680000000001
     0.0000000000000000   -0.1633930000000000   10.7488729999999997
 Ta  Se 
   4  12
Cartesian
  2.6449867500000002  0.3879585658890000  3.4349681822430003
  0.8816622500000000  9.1014924341110000  4.3115368177570002
  2.6449867500000002  3.4741711248240001  7.5763193209799997
  0.8816622500000000  6.0152798751760006  0.1701856790199996
  2.6449867500000002  1.0403239318230000  6.1116974979930001
  0.8816622500000000  8.4491270681770008  1.6348075020069996
  2.6449867500000002  7.1101633009019993  4.2733318103459998
  0.8816622500000000  2.3792876990979996  3.4731731896540001
  0.8816622500000000  5.3723111944549995  8.1485215958690009
  2.6449867500000002  4.1171398055450004 -0.4020165958690001
  0.8816622500000000  1.8213461917109999  8.7007609502970009
  2.6449867500000002  7.6681048082889998 -0.9542559502970002
  0.8816622500000000  0.6921537149850000  1.5293011313550000
  2.6449867500000002  8.7972972850150004  6.2172038686450000
  0.8816622500000000  3.9153888513000004  5.6589722810160001
  2.6449867500000002  5.5740621486999995  2.0875327189839998
