Er Tl Te
 1.0000000000000000
    -2.2067630000000000   -3.8222250000000000    0.0000000000000000
    -4.4135249999999999   -0.0000000000000000    0.0000000000000000
    -2.2067630000000000   -1.2740750000000001   -8.1617619999999995
 Er  Tl  Te 
   1   1   2
Cartesian
  0.0000000000000000  0.0000000000000000  0.0000000000000000
 -4.4135255000000004 -2.5481500000000001 -4.0808809999999998
 -6.6202860563729997 -3.8222237259249998 -6.4429520551339996
 -2.2067649436269998 -1.2740762740749998 -1.7188099448659999
