Tl I 
 1.0000000000000000
     4.3123659999999999    0.0000000000000000    2.4897459999999998
     1.4374560000000001    4.0657360000000002    2.4897459999999998
     0.0000000000000000    0.0000000000000000    4.9794900000000002
 Tl  I  
   1   1
Cartesian
  0.0000000000000000  0.0000000000000000  0.0000000000000000
  2.8749110000000000  2.0328680000000001  4.9794909999999994
