Si Mo Pt
 1.0000000000000000
     3.4914869999999998    0.0000000000000000    0.0000000000000000
     0.0000000000000000    9.2041670000000000    0.0000000000000000
     0.0000000000000000    0.0000000000000000    5.4983839999999997
 Si  Mo  Pt 
   6   2   4
Cartesian
  1.7457400085129999  4.0018797699300004  0.9431762962079999
  1.7457400085129999  7.1613205426839999  1.0140779578879999
  0.0000000000000000  1.1677878922920000  1.8951390100479997
  1.7457400085129999  5.2022780259029995  3.6923682962080000
  1.7457400085129999  2.0428372531490000  3.7632644595039997
  0.0000000000000000  8.0363791077080009  4.6443310100480000
  0.0000000000000000  5.5679871933139999  5.4972733264319995
  0.0000000000000000  3.6361798066860000  2.7480813264320001
  0.0000000000000000  2.6250284284000003  0.0037608946560000
  1.7457400085129999  0.2698661764400000  0.0009787123520000
  0.0000000000000000  6.5791293674329996  2.7529583930400001
  1.7457400085129999  8.9343008235599992  2.7501652139679997
