Pr Zn
 1.0000000000000000
     3.7028989999999999    0.0000000000000000    0.0000000000000000
     0.0000000000000000    3.7028989999999999    0.0000000000000000
     0.0000000000000000    0.0000000000000000    3.7028989999999999
 Pr  Zn 
   1   1
Cartesian
  0.0000000000000000  0.0000000000000000  0.0000000000000000
  1.8514495000000000  1.8514495000000000  1.8514495000000000
