Cu P  S 
 1.0000000000000000
     6.0330149999999998    0.0000000000000000    0.0000000000000000
     0.0000000000000000    6.2802809999999996    0.0000000000000000
     0.0000000000000000    0.0000000000000000    7.2183690000000000
 Cu  P   S  
   6   2   8
Cartesian
  5.4954854295299995  5.1778090718550001  1.8114208270740000
  2.4789779295300001  1.1024719281449999  1.7977636729260000
  2.4789779295300001  1.1024719281449999  5.4206053270740000
  5.4954854295299995  5.1778090718550001  5.4069481729259996
  2.4546829781249997  4.0961751160680002  3.6091845000000000
  5.4711904781250000  2.1841058839320002  0.0000000000000000
  2.4220745320499999  4.2376698469979992  0.0000000000000000
  5.4385820320499993  2.0426111530019999  3.6091845000000000
  1.7257560067799997  5.2233913513529995  5.5098099311760000
  4.7422635067799996  1.0568896486469999  5.3177435688240005
  4.7232715755600001  3.9895861869360001  3.6091845000000000
  1.7067640755600000  2.2906948130639999  0.0000000000000000
  4.7422635067799996  1.0568896486469999  1.9006254311759998
  1.7257560067799997  5.2233913513529995  1.7085590688240000
  4.4982099509850002  4.2556251703769998  0.0000000000000000
  1.4817024509850001  2.0246558296229997  3.6091845000000000
