K  Fe As
 1.0000000000000000
     3.3644390000000000   -0.1394560000000000   -1.3165190000000000
    -0.3791460000000000    3.3459140000000001   -1.3165199999999999
     1.1144600000000000    1.1970250000000000    7.7003519999999996
 K   Fe  As 
   1   2   2
Cartesian
  0.0000000000000000  0.0000000000000000  0.0000000000000000
  1.1151744536149999  3.0719721669700002  2.5336562503189999
  2.9845785463849999  1.3315108330300001  2.5336567496809996
  2.2531383187990000  2.4200618594990000  0.5444037388470000
  1.8466146812010000  1.9834211405010000  4.5229092611530000
