Ti Pt
 1.0000000000000000
     8.4280659999999994    0.0000000000000000    0.0000000000000000
     0.0000000000000000    8.4280659999999994    0.0000000000000000
     0.0000000000000000    0.0000000000000000    3.9416400000000000
 Ti  Pt 
   2  16
Cartesian
  0.0000000000000000  0.0000000000000000  0.0000000000000000
  4.2140329999999997  4.2140329999999997  1.9708200000000000
  7.0630564306399997  1.3650095693599997  1.9708200000000000
  1.3650095693599997  7.0630564306399997  1.9708200000000000
  7.0630564306399997  7.0630564306399997  1.9708200000000000
  5.6551395772739994  0.0000000000000000  0.0000000000000000
  0.0000000000000000  5.6551395772739994  0.0000000000000000
  0.0000000000000000  2.7729264227260000  0.0000000000000000
  2.7729264227260000  0.0000000000000000  0.0000000000000000
  1.3650095693599997  1.3650095693599997  1.9708200000000000
  2.8490234306400000  5.5790425693599994  0.0000000000000000
  5.5790425693599994  2.8490234306400000  0.0000000000000000
  2.8490234306400000  2.8490234306400000  0.0000000000000000
  1.4411065772739999  4.2140329999999997  1.9708200000000000
  4.2140329999999997  1.4411065772739999  1.9708200000000000
  4.2140329999999997  6.9869594227259997  1.9708200000000000
  6.9869594227259997  4.2140329999999997  1.9708200000000000
  5.5790425693599994  5.5790425693599994  0.0000000000000000
