Al Fe Si
 1.0000000000000000
     0.0000000000000000    2.7741280000000001    2.7741280000000001
     2.7741280000000001    0.0000000000000000    2.7741280000000001
     2.7741280000000001    2.7741280000000001    0.0000000000000000
 Al  Fe  Si 
   1   2   1
Cartesian
  1.3870584517440001  1.3870584517440001  1.3870584517440001
  0.0000000000000000  0.0000000000000000  0.0000000000000000
  2.7741280000000001  2.7741280000000001  2.7741280000000001
  4.1611864517440003  4.1611864517440003  4.1611864517440003
