Na H  S 
 1.0000000000000000
     3.8535930000000000    0.0000000000000000   -0.6501280000000000
     0.0000000000000000    4.4528109999999996    0.0000000000000000
    -0.0056500000000000    0.0000000000000000    5.9125690000000004
 Na  H   S  
   2   2   2
Cartesian
  0.9020588092080000  1.1132027499999999  4.3776688532790002
  2.9458841907919999  3.3396082499999995  0.8847721467210000
  2.1121607766260002  1.1132027499999999  1.9835522297320001
  1.7357860769670002  3.3396082499999995  3.2788881201400000
  0.9367439370290001  1.1132027499999999  1.3327796887120003
  2.9111990629709998  3.3396082499999995  3.9296613112880006
