Ca P  O  F 
 1.0000000000000000
     4.6809459999999996   -8.1076309999999996    0.0000000000000000
     4.6809419999999999    8.1076339999999991    0.0000000000000000
     0.0000000000000000    0.0000000000000000    6.8786509999999996
 Ca  P   O   F  
  10   6  24   2
Cartesian
  4.6809446666680001 -2.7025480717549999  3.4480338721659995
  4.6809433333320003  2.7025510717549999  0.0087083721660000
  4.6809433333320003  2.7025510717549999  3.4360375048220000
  4.6809446666680001 -2.7025480717549999  6.8753630048219998
  5.7836635665519998 -6.0921056376659992  5.1639615146729998
  7.0650330492119995 -0.0527784235980001  5.1639615146729998
  1.1941373842359999 -1.9627439387359999  5.1639615146729998
  3.5782244334479998  6.0921086376659987  1.7246360146729998
  2.2968549507880001  0.0527814235980001  1.7246360146729998
  8.1677506157639996  1.9627469387359995  1.7246360146729998
  3.5910188958219997  0.2447948988080001  5.1639615146729998
  7.3543801716439994  2.9875189955629993  5.1639615146729998
  3.0974309325339999  4.8753231056289996  5.1639615146729998
  5.7708691041779998 -0.2447918988080005  1.7246360146729998
  2.0075078283559997 -2.9875159955629997  1.7246360146729998
  6.2644570674660001 -4.8753201056290001  1.7246360146729998
  3.7984833897480001 -1.2749888544680004  5.1656192695639991
  3.8858726500339995 -4.1805616236519993  5.1656192695639991
  6.3584779602219994 -2.6520937371450004  5.1656192695639991
  5.5634046102519994  1.2749918544679995  1.7262937695639999
  5.4760153499660005  4.1805646236519998  1.7262937695639999
  3.0034100397780001  2.6520967371449999  1.7262937695639999
  2.7924871871620001  0.6899523129650001  3.9294431410519999
  7.3681330106119995  2.0733996508599994  3.9294431410519999
  3.8822098022220000  5.3443012514399992  3.9294431410519999
  6.5694008128379995 -0.6899493129650002  0.4901176410520000
  1.9937549893880000 -2.0733966508599999  0.4901176410520000
  5.4796781977779991 -5.3442982514399997  0.4901176410520000
  6.5564439618980002 -0.6982677480619996  2.9641826821749997
  2.0074373904420000 -2.0804583943830002  2.9641826821749997
  5.4789526476639994 -5.3289180728199996  2.9641826821749997
  2.8054440381019998  0.6982707480619996  6.4035081821750000
  7.3544506095579996  2.0804613943829993  6.4035081821750000
  3.8829353523359997  5.3289210728199992  6.4035081821750000
  4.9414850986880001  0.9905596918100004  5.1571172569279993
  6.0332958737800002  3.7841745416739996  5.1571172569279993
  3.0680490275320000  3.3329027665159994  5.1571172569279993
  4.4204029013119994 -0.9905566918100004  1.7177917569279999
  3.3285921262199998 -3.7841715416740000  1.7177917569279999
  6.2938389724679995 -3.3328997665160003  1.7177917569279999
  0.0000000000000000  0.0000000000000000  5.2020898771659994
  0.0000000000000000  0.0000000000000000  1.7627643771659998
