Hf Zn Re
 1.0000000000000000
     0.0007990000000000    3.2788300000000001    3.2788300000000001
     3.2788300000000001    0.0007990000000000    3.2788300000000001
     3.2788300000000001    3.2788300000000001    0.0007990000000000
 Hf  Zn  Re 
   2   1   1
Cartesian
  6.5584065323280001  6.5584065323280001  6.5584065323280001
  3.2792754092130001  3.2792754092130001  3.2792754092130001
  4.9188442500000003  4.9188442500000003  4.9188442500000003
  1.6396213084589999  1.6396213084589999  1.6396213084589999
