Ta Rh
 1.0000000000000000
     3.9047380000000000    0.0000000000000000    0.0000000000000000
     0.0000000000000000    3.9047380000000000    0.0000000000000000
     0.0000000000000000    0.0000000000000000    3.9047380000000000
 Ta  Rh 
   1   3
Cartesian
  0.0000000000000000  0.0000000000000000  0.0000000000000000
  0.0000000000000000  1.9523690000000000  1.9523690000000000
  1.9523690000000000  1.9523690000000000  0.0000000000000000
  1.9523690000000000  0.0000000000000000  1.9523690000000000
