Mn Pd
 1.0000000000000000
     3.9455179999999999    0.0000000000000000    0.0000000000000000
     0.0000000000000000    3.9455179999999999    0.0000000000000000
     0.0000000000000000    0.0000000000000000   15.6975660000000001
 Mn  Pd 
   4  12
Cartesian
  0.0000000000000000  0.0000000000000000  1.9443476174580001
  0.0000000000000000  0.0000000000000000 13.7532183825420002
  1.9727589999999999  1.9727589999999999  9.7931306174579991
  1.9727589999999999  1.9727589999999999  5.9044353825420002
  1.9727589999999999  1.9727589999999999 13.7287458771480004
  1.9727589999999999  1.9727589999999999  1.9688201228520001
  1.9727589999999999  0.0000000000000000  0.0000000000000000
  0.0000000000000000  1.9727589999999999  0.0000000000000000
  0.0000000000000000  1.9727589999999999 11.7731744999999997
  1.9727589999999999  0.0000000000000000 11.7731744999999997
  0.0000000000000000  0.0000000000000000  5.8799628771480004
  0.0000000000000000  0.0000000000000000  9.8176031228520007
  0.0000000000000000  1.9727589999999999  7.8487830000000001
  1.9727589999999999  0.0000000000000000  7.8487830000000001
  1.9727589999999999  0.0000000000000000  3.9243915000000000
  0.0000000000000000  1.9727589999999999  3.9243915000000000
