Ba Ni P 
 1.0000000000000000
     5.1878869999999999    0.0224100000000000   -1.6558649999999999
    -2.9118050000000002    4.3718709999999996   -1.4369010000000000
    -0.0383480000000000   -0.0224100000000000    5.4456030000000002
 Ba  Ni  P  
   1   2   4
Cartesian
  0.0000000000000000  0.0000000000000000  0.0000000000000000
 -0.8609508830060002  3.3603822165769999  1.1698701561780003
  3.0986848830060003  1.0114887834230000  1.1829668438220002
 -0.1917598858100002  2.1747304999999999  2.9487916069800004
  2.4294938858099995  2.1971404999999997 -0.5959546069799998
  0.4339545348669998  3.2351872117210001 -0.5896621719780000
  1.8037794651329999  1.1366837882789997  2.9424991719780000
