Ge Bi O 
 1.0000000000000000
    -5.2531840000000001    5.2532019999999999    5.2532160000000001
     5.2531920000000003   -5.2531710000000000    5.2531879999999997
     5.2532180000000004    5.2532050000000003   -5.2531780000000001
 Ge  Bi  O  
   6   8  24
Cartesian
 -2.6265647372299998  3.9398991185990000  5.2531927371740004
  5.2532100063340001 -2.6265941378110003  3.9398864935300000
  5.2531934870699999  2.6265911056799998  1.3133044934620004
  3.9399134966980007  5.2531822339190004 -2.6265940097060003
  1.3133097435640009  5.2532049935900007  2.6266317563559998
  2.6266002435980003  1.3133248749970006  5.2532197563940004
  6.1447221203780007  0.8915539205470002  4.3617006680139996
  6.9882961433260009  3.5181299050130002 -1.7350607126780000
  1.7350880155740001  1.7351018248470003  1.7350880155779997
  3.5181229611620002  1.7351026091680004 -1.7350757176700002
  4.3617062687660013  4.3617145716760000  4.3617062687659995
  6.1447137079360008 -0.8914881440679996  0.8915130291039994
 -0.8914980970459996  0.8915311582519999  6.1447200341540000
 -1.7350683732120002  3.5181224205810002  1.7351016680240001
  2.2154125347640004  5.9991379292450002  1.3157617922239990
  1.3157557275200000  2.2153976856130004  5.9991291765719996
  4.5073010914400005  3.9374915145430007  2.2153936254759996
  3.0378365462240002  5.9991275731420002 -1.3157081432640001
  1.3157597466860007  8.2910228237560002 -0.7458866719700004
  5.9991240291700008  1.3157748183859999  2.2154013226579998
  6.5640904963000004  3.3725475832340002  0.4112285917320004
  3.9423528896100004  1.8807081031230000  0.4112469666619999
  1.3108590294780003  1.8806919073350001 -0.4112231091420002
  0.4112403305040000  3.9423417381060002  1.8806977386160000
  3.3725166600720002  0.4112563048230004  6.5640644583640002
 -1.8806602381599997  4.8419777697339992  3.9423652147439996
  4.8419954384980004  3.9423607379779999 -1.8806589677579999
  1.8806937482480006  0.4112384882769999  3.9423317566840006
  3.9423283314959998 -1.8806513276759997  4.8419888040399996
 -0.7458972601599991  1.3157551577289994  8.2910329546040007
  5.9991213927840006 -1.3157152373910004  3.0378278568920005
  3.9374926237799999  2.2154122744950002  4.5072958488079991
 -1.3157295915839997  3.0378412161390003  5.9991191401960009
  8.2910427350280003 -0.7458769051500006  1.3157484325160000
  2.2153939436879999  4.5073146688470000  3.9374771718360004
  0.4112552038980001  6.5640781702769999  3.3725482973820000
  1.8806890830740002 -0.4112003095670000  1.3108843298380000
 -0.4112152132220000  1.3108781133470002  1.8806926914380000
