La Ni
 1.0000000000000000
     4.9464439999999996   -0.0000170000000000    0.0000000000000000
    -2.4732379999999998    4.2836999999999996    0.0000000000000000
     0.0000000000000000    0.0000000000000000    3.9419040000000001
 La  Ni 
   1   5
Cartesian
  0.0000000000000000  0.0000000000000000  0.0000000000000000
 -1.2366189999999999  2.1418499999999998  1.9709520000000000
 -0.0000180872980001  2.8560527827459996  0.0000000000000000
  2.4732240872979996  1.4276302172539999  0.0000000000000000
  2.4732219999999998 -0.0000085000000000  1.9709520000000000
  1.2366029999999999  2.1418415000000000  1.9709520000000000
