Nb As
 1.0000000000000000
     3.3241630000000000    0.0000000000000000    0.8244120000000000
     1.5233509999999999    4.6601369999999998    0.9715950000000000
     0.0035360000000000   -0.0161060000000000    7.0997329999999996
 Nb  As 
   2   4
Cartesian
  1.8694533711349999  4.0979131205570001  6.6900579543759999
  2.9815966288649998  0.5461178794429999  2.2056820456240001
  4.0050280352929999  3.4985786201170002  5.1930542440309999
  0.8460219647070000  1.1454523798830001  3.7026857559689996
  3.0516963911290000  3.2829266055959998  1.9230667793730001
  1.7993536088710003  1.3611043944040000  6.9726732206269997
