Ti Al Re
 1.0000000000000000
     0.0001750000000000    3.1355119999999999    3.1353670000000000
     3.1353939999999998    0.0002000000000000    3.1353420000000001
     3.1353659999999999    3.1354579999999999    0.0002290000000000
 Ti  Al  Re 
   2   1   1
Cartesian
  0.0000438953550000  0.0000407614080000  0.0000094087990000
  3.1354173340600000  3.1355442384459997  3.1354595909970002
  1.5677368850159998  1.5677893644340000  1.5677282294949999
  4.7031981146339996  4.7033743645419994  4.7032034997709999
