Ca S 
 1.0000000000000000
     3.4934300000000000    0.0000000000000000    2.0169340000000000
     1.1644779999999999    3.2936380000000001    2.0169340000000000
     0.0000000000000000    0.0000000000000000    4.0338669999999999
 Ca  S  
   1   1
Cartesian
  0.0000000000000000  0.0000000000000000  0.0000000000000000
  2.3289540000000000  1.6468190000000000  4.0338674999999995
