Pr Se
 1.0000000000000000
     3.6913649999999998   -0.0000000000000000    2.1312090000000001
     1.2304550000000001    3.4802529999999998    2.1312090000000001
    -0.0000000000000000   -0.0000000000000000    4.2624219999999999
 Pr  Se 
   1   1
Cartesian
  0.0000000000000000  0.0000000000000000  0.0000000000000000
  2.4609100000000002  1.7401264999999999  4.2624200000000005
