Mg In Ag
 1.0000000000000000
     0.0000530000000000    3.3476900000000001    3.3476900000000001
     3.3476900000000001    0.0000530000000000    3.3476900000000001
     3.3476900000000001    3.3476900000000001    0.0000530000000000
 Mg  In  Ag 
   1   1   2
Cartesian
  5.0215680545670001  5.0215680545670001  5.0215680545670001
  1.6738649454329999  1.6738649454329999  1.6738649454329997
  3.3477231954330002  3.3477231954330002  3.3477231954330002
  0.0000000000000000  0.0000000000000000  0.0000000000000000
