Zn Sn As
 1.0000000000000000
     5.3534579999999998    0.0000000000000000   -2.3918430000000002
    -1.0686400000000000    5.2457140000000004   -2.3918430000000002
     0.0061700000000000    0.0075540000000000    7.2008229999999998
 Zn  Sn  As 
   2   2   4
Cartesian
  0.0000000000000000  0.0000000000000000  0.0000000000000000
  0.5399695000000000  3.9380625000000005  1.2085684999999997
  2.1424089999999998  2.6228570000000002 -2.3918430000000002
  3.7510184999999998  1.3152055000000000  1.2085684999999997
  1.4837475150499999  1.9690312500000002  0.0619936458249999
  3.8753599849499998  4.5918882500000002 -2.4411896458250002
 -0.0189628460000001  3.4063307433500007  3.5510648541749994
  3.2418313459999997  0.5392857566500000  3.6624051458249998
