Na Dy S 
 1.0000000000000000
    -1.9835469999999999   -3.4356040000000001    0.0000000000000000
    -3.9670930000000002    0.0000000000000000    0.0000000000000000
    -1.9835469999999999   -1.1452020000000001   -6.5930609999999996
 Na  Dy  S  
   1   1   2
Cartesian
 -3.9670934999999998 -2.2904030000000000 -3.2965304999999998
  0.0000000000000000  0.0000000000000000  0.0000000000000000
 -5.9506382734950005 -3.4356033688820000 -5.0840741636249991
 -1.9835487265050000 -1.1452026311179999 -1.5089868363749999
