Mn Al
 1.0000000000000000
     4.9982660000000001   -0.0252810000000000    0.1145060000000000
     0.8840120000000000    4.8347730000000002    1.3407070000000001
     0.1024270000000000   -0.0051110000000000    8.7972199999999994
 Mn  Al 
   4  11
Cartesian
  3.5434870715039999  0.6406425328260000  3.8061558367789998
  2.4412179284960001  4.1637384671740003  6.4462771632209996
  2.2378124654580001  2.9455059950700000  1.9924079950119999
  3.7468925345420003  1.8588750049300000  8.2600250049880000
  0.0000000000000000  0.0000000000000000  0.0000000000000000
  1.1139795363600000  4.0779029134870006  3.9402986468259997
  4.8707254636400004  0.7264780865130001  6.3121343531739988
  1.1044386004710001  1.4482408560520001  3.7454656059849998
  1.3392546553550000  2.6096450227190000  8.4291588296719997
  4.6454503446450008  2.1947359772810002  1.8232741703280000
  3.4999596858699999  4.3062668255869996  8.9372252682160003
  2.4847453141300000  0.4981141744130000  1.3152077317839999
  2.4320097734989998  1.6406232273510002  6.0618884589339999
  3.5526952265010001  3.1637577726490003  4.1905445410660001
  4.8802663995289999  3.3561401439480001  6.5069673940149997
