Ti Sn
 1.0000000000000000
     9.3030349999999995    0.0000000000000000    0.0000000000000000
    -4.6515180000000003    8.0566650000000006    0.0000000000000000
     0.0000000000000000    0.0000000000000000    5.7309799999999997
 Ti  Sn 
  12  10
Cartesian
 -0.0000001565090001  2.5218811649700004  1.4327449999999999
  2.1840129789680001  1.2609405824850002  4.2982350000000000
  7.1190218645229999  1.2609405824850002  4.2982350000000000
 -2.4675048645230002  6.7957244175150002  1.4327449999999999
  2.4675040210319996  6.7957244175150002  1.4327449999999999
  4.6515171565089997  5.5347838350300007  4.2982350000000000
  4.6515174999999997  0.0000000000000000  2.8654899999999999
 -2.3257590000000001  4.0283325000000003  0.0000000000000000
  2.3257584999999996  4.0283325000000003  0.0000000000000000
  2.3257584999999996  4.0283325000000003  2.8654899999999999
  4.6515174999999997  0.0000000000000000  0.0000000000000000
 -2.3257590000000001  4.0283325000000003  2.8654899999999999
  4.6515218558899996  4.7635434645750001  1.4327449999999999
  1.7995879956209988  6.4101082606200004  4.2982350000000000
 -1.7995980942840004  6.4101082606200004  4.2982350000000000
  6.4511150942839999  1.6465567393800000  1.4327449999999999
  2.8519290043790000  1.6465567393800000  1.4327449999999999
 -0.0000048558900003  3.2931215354250005  4.2982350000000000
 -0.0000049848510003  5.3711126855550004  1.4327449999999999
  4.6515219848509997  2.6855523144450002  4.2982350000000000
  0.0000000000000000  0.0000000000000000  2.8654899999999999
  0.0000000000000000  0.0000000000000000  0.0000000000000000
