Dy Ge
 1.0000000000000000
     3.9410479999999999    0.0000000000000000    0.0000000000000000
     0.0000000000000000    3.9599890000000002   -1.5866819999999999
     0.0000000000000000    0.0062250000000000    5.7504890000000000
 Dy  Ge 
   2   2
Cartesian
  0.9852620000000000  3.4164880414350005  2.7918286490180000
  2.9557859999999998  0.5497259585650001  1.3719783509820000
  0.9852620000000000  2.3173538820749999  0.0486305878000001
  2.9557859999999998  1.6488601179250002  4.1151764122000003
