Fe Co
 1.0000000000000000
     5.6910200000000000    0.0000000000000000    0.0000000000000000
     0.0000000000000000    5.6910200000000000    0.0000000000000000
     0.0000000000000000    0.0000000000000000    5.6910200000000000
 Fe  Co 
  15   1
Cartesian
  2.8455100000000000  2.8455100000000000  2.8455100000000000
  2.8455100000000000  0.0000000000000000  2.8455100000000000
  2.8455100000000000  2.8455100000000000  0.0000000000000000
  0.0000000000000000  2.8455100000000000  2.8455100000000000
  2.8455100000000000  0.0000000000000000  0.0000000000000000
  0.0000000000000000  0.0000000000000000  2.8455100000000000
  0.0000000000000000  2.8455100000000000  0.0000000000000000
  1.4197216863400000  1.4197216863400000  1.4197216863400000
  1.4197216863400000  4.2712983136600000  1.4197216863400000
  1.4197216863400000  1.4197216863400000  4.2712983136600000
  4.2712983136600000  1.4197216863400000  1.4197216863400000
  4.2712983136600000  4.2712983136600000  1.4197216863400000
  1.4197216863400000  4.2712983136600000  4.2712983136600000
  4.2712983136600000  1.4197216863400000  4.2712983136600000
  4.2712983136600000  4.2712983136600000  4.2712983136600000
  0.0000000000000000  0.0000000000000000  0.0000000000000000
