Li V  N 
 1.0000000000000000
     5.4300899999999999    0.0000000000000000    0.0000000000000000
     0.0000000000000000    6.5923579999999999    0.0000000000000000
     0.0000000000000000    0.0000000000000000    5.0218629999999997
 Li  V   N  
   4   4   8
Cartesian
  3.1687235894099999  5.7898109294379996  4.9827175779149995
  2.2613664105900000  0.8025470705620000  2.4717860779150000
  4.9764114105899999  2.4936319294380000  2.4717860779150000
  0.4536785894100000  4.0987260705619999  4.9827175779149995
  3.1213297638899999  2.4691149500359999  0.0197660527680000
  2.3087602361099999  4.1232430499639996  2.5306975527680002
  5.0238052361099994  5.7652939500359999  2.5306975527680002
  0.4062847638900000  0.8270640499639998  0.0197660527680000
  3.0128474258700000  2.6321241863019997  1.8056158635130000
  2.4172371440400000  3.9602338136980002  4.3165473635129992
  5.1322875741300003  5.9283031863020001  4.3165473635129992
  0.2978078559600000  0.6640548136980000  1.8056158635130000
  3.2793671032500002  5.5825735633500004  2.0805879720779998
  2.1507228967500001  1.0097844366500000  4.5915194720779997
  4.8657678967499995  2.2863945633500000  4.5915194720779997
  0.5643221032500000  4.3059634366499999  2.0805879720779998
