Nd B  C 
 1.0000000000000000
     6.6552629999999997    1.8401179999999999    0.0229730000000000
    -6.6552629999999997    1.8401179999999999   -0.0229730000000000
    -6.3463360000000000    0.0000000000000000    7.1660680000000001
 Nd  B   C  
   4   2   2
Cartesian
  1.4710226403959998  1.8401179999999999  2.7450977448959999
 -7.8173389835339995  1.8401179999999999  4.4209631349820002
 -1.6728419962000003  1.8401179999999999  1.0061414729959999
 -4.6735003501360000  1.8401180000000001  6.1599336930720003
 -6.3467446595860002  1.8401179999999999  0.7512736393780000
  0.0003883848699996  1.8401180000000001  6.4147871026620003
  0.5365640520540002  1.8401180000000001  5.0175777092900002
 -6.8828803951920001  1.8401179999999999  2.1484831705879999
