Sc Ge Au
 1.0000000000000000
     4.3257729999999999    0.0000000000000000    0.0000000000000000
    -2.1628880000000001    3.7462300000000002    0.0000000000000000
     0.0000000000000000    0.0000000000000000    6.9154000000000000
 Sc  Ge  Au 
   2   2   2
Cartesian
  0.0000000000000000  0.0000000000000000  0.0137408998000000
  0.0000000000000000  0.0000000000000000  3.4714408997999997
 -0.0000031628870002  2.4974879154100003  2.0730916966000001
  2.1628881628870000  1.2487420845899999  5.5307916965999997
 -0.0000031628870002  2.4974879154100003  4.8230281681999996
  2.1628881628870000  1.2487420845899999  1.3653281682000000
