Na Ca As
 1.0000000000000000
     4.2385469999999996   -0.0000000000000000    2.4471259999999999
     1.4128480000000001    3.9961400000000000    2.4471259999999999
    -0.0000000000000000    0.0000000000000000    4.8942530000000000
 Na  Ca  As 
   1   1   1
Cartesian
  2.8256975000000000  1.9980700000000000  4.8942525000000003
  0.0000000000000000  0.0000000000000000  0.0000000000000000
  1.4128487500000000  0.9990350000000000  2.4471262500000002
