Be Tl F 
 1.0000000000000000
     5.7600870000000004    0.0000000000000000    0.0000000000000000
     0.0000000000000000    7.6331970000000000    0.0000000000000000
     0.0000000000000000    0.0000000000000000   10.4095250000000004
 Be  Tl  F  
   4   8  16
Cartesian
  1.4400217500000001  5.5802028676680004  9.6011837456500011
  1.4400217500000001  1.7636043676680000  6.0131037543500003
  4.3200652500000007  5.8695926323320000  4.3964212456500000
  4.3200652500000007  2.0529941323320000  0.8083412543500000
  1.4400217500000001  7.5511630318410008  3.1589993708000002
  4.3200652500000007  0.0820339681590000  7.2505256292000002
  1.4400217500000001  3.7345645318409999  2.0457631292000000
  4.3200652500000007  3.8986324681589997  8.3637618707999994
  1.4400217500000001  1.2778506101789999  9.5128381069749999
  4.3200652500000007  6.3553463898210003  0.8966868930249999
  1.4400217500000001  5.0944491101790002  6.1014493930250007
  4.3200652500000007  2.5387478898210003  4.3080756069749997
  1.4400217500000001  0.2143020057750000  6.0694817417499998
  4.3200652500000007  7.4188949942250000  4.3400432582500006
  1.4400217500000001  4.0309005057749996  9.5448057582499999
  4.3200652500000007  3.6022964942250000  0.8647192417500000
  4.3200652500000007  1.5314712137010000  9.7360807801250004
  1.4400217500000001  2.2851272862989997  4.5313182801250003
  1.4400217500000001  6.1017257862990002  0.6734442198750000
  4.3200652500000007  5.3480697137009994  5.8782067198749992
  3.0415505793930002  1.4800768982999999  1.4875419415500000
  0.1615070793930000  6.1531201016999999  8.9219830584500013
  5.5985799206070004  5.2966753982999997  3.7172205584500002
  2.7185364206070002  2.3365216016999999  6.6923044415500001
  2.7185364206070002  6.1531201016999999  8.9219830584500013
  5.5985799206070004  1.4800768982999999  1.4875419415500000
  0.1615070793930000  2.3365216016999999  6.6923044415500001
  3.0415505793930002  5.2966753982999997  3.7172205584500002
