Fe Si
 1.0000000000000000
     3.9295429999999998    0.0000000000000000    0.0000000000000000
    -1.9647720000000000    3.4030840000000002    0.0000000000000000
     0.0000000000000000    0.0000000000000000    4.8375649999999997
 Fe  Si 
   4   2
Cartesian
 -0.0000022981050000  2.2687238010280000  3.2829022232549998
  1.9647732981049999  1.1343601989720000  1.5546627767450001
  0.0000000000000000  0.0000000000000000  2.4187824999999998
  0.0000000000000000  0.0000000000000000  0.0000000000000000
  1.9647732981049999  1.1343601989720000  3.9639442990850000
 -0.0000022981050000  2.2687238010280000  0.8736207009150000
