Ti Co Sb
 1.0000000000000000
     3.5864780000000001    0.0000000000000000    2.0706540000000002
     1.1954929999999999    3.3813650000000002    2.0706540000000002
     0.0000000000000000    0.0000000000000000    4.1413089999999997
 Ti  Co  Sb 
   1   1   1
Cartesian
  0.0000000000000000  0.0000000000000000  0.0000000000000000
  1.1954927500000001  0.8453412500000000  2.0706542500000000
  2.3909855000000002  1.6906825000000001  4.1413085000000001
