Ti V  Re
 1.0000000000000000
     0.0000000000000000    3.0656439999999998    3.0656439999999998
     3.0656439999999998    0.0000000000000000    3.0656439999999998
     3.0656439999999998    3.0656439999999998    0.0000000000000000
 Ti  V   Re 
   1   1   2
Cartesian
  1.5328219999999999  1.5328219999999999  1.5328219999999999
  4.5984660000000002  4.5984660000000002  4.5984660000000002
  0.0000000000000000  0.0000000000000000  0.0000000000000000
  3.0656439999999998  3.0656439999999998  3.0656439999999998
