Ba Sn O 
 1.0000000000000000
     5.5021160000000000    0.0000000000000000    0.0000000000000000
     0.0000000000000000    5.5021160000000000    0.0000000000000000
     0.0000000000000000    0.0000000000000000    5.5021160000000000
 Ba  Sn  O  
   3   1   1
Cartesian
  2.7510580000000000  0.0000000000000000  2.7510580000000000
  2.7510580000000000  2.7510580000000000  0.0000000000000000
  0.0000000000000000  2.7510580000000000  2.7510580000000000
  0.0000000000000000  0.0000000000000000  0.0000000000000000
  2.7510580000000000  2.7510580000000000  2.7510580000000000
