Sr S  O 
 1.0000000000000000
     5.3428230000000001    0.0000000000000000    0.0000000000000000
     0.0000000000000000    6.8705429999999996    0.0000000000000000
     0.0000000000000000    0.0000000000000000    8.3557749999999995
 Sr  S   O  
   4   4  16
Cartesian
  1.3357057500000000  2.3562252396779999  5.7120746361999997
  4.0071172500000003  4.5143177603220002  2.6437003637999998
  4.0071172500000003  5.7914967396779993  6.8215878637999996
  1.3357057500000000  1.0790462603219999  1.5341871361999999
  4.0071172500000003  2.1694289165939997  7.8355528042750002
  1.3357057500000000  4.7011140834059999  0.5202221957249999
  1.3357057500000000  5.6047004165939995  4.6981096957249990
  4.0071172500000003  1.2658425834059999  3.6576653042749996
  2.5371730721249999  5.5668780773790001  0.6516334691500000
  5.2085845721249999  1.3036649226210000  7.7041415308499994
  2.8056499278749998  2.1316065773789998  3.5262540308499997
  0.1342384278750000  4.7389364226209993  4.8295209691499998
  2.8056499278749998  1.3036649226210000  7.7041415308499994
  0.1342384278750000  5.5668780773790001  0.6516334691500000
  2.5371730721249999  4.7389364226209993  4.8295209691499998
  5.2085845721249999  2.1316065773789998  3.5262540308499997
  4.0071172500000003  0.6313960311569999  4.9715440768250003
  1.3357057500000000  6.2391469688430004  3.3842309231750001
  1.3357057500000000  4.0666675311569991  7.5621184231749989
  4.0071172500000003  2.8038754688429997  0.7936565768249999
  4.0071172500000003  0.2850725701560000  2.5600256329499995
  1.3357057500000000  6.5854704298439994  5.7957493670499991
  1.3357057500000000  3.7203440701559995  1.6178618670499998
  4.0071172500000003  3.1501989298440001  6.7379131329500002
