Li Pt
 1.0000000000000000
     2.7643870000000001    0.0000000000000000    0.0000000000000000
    -1.3821939999999999    2.3940290000000002    0.0000000000000000
     0.0000000000000000    0.0000000000000000    4.2381799999999998
 Li  Pt 
   1   1
Cartesian
 -0.0000017155269999  1.5960201313430002  2.1190899999999999
  0.0000000000000000  0.0000000000000000  0.0000000000000000
