Na Os O 
 1.0000000000000000
     5.4421929999999996    0.0261740000000000   -0.9837710000000000
    -1.5150530000000000    4.6136249999999999   -2.7623340000000001
     0.0163860000000000   -0.0037330000000000    5.5866930000000004
 Na  Os  O  
   5   1   6
Cartesian
 -1.0060639339599999  3.0789998951199999  0.0125486137200000
  2.4666367927769999  0.8259660838059999  3.6182236318609999
  1.9717629999999997  2.3180329999999998  0.9202940000000002
 -0.4926030660400000  1.5308921048799999  2.8118103862800004
  1.4768892072230000  3.8100999161939999 -1.7776356318609998
  0.0000000000000000  0.0000000000000000  0.0000000000000000
 -0.0750734801080001  3.6804139644460001  2.0491930548260004
  4.0185940379149994  0.9556520093799999 -0.2086040710549998
  1.0847054476129998  0.3357514169990000  1.5701340235340000
  3.2924820447709999  2.9928219616730001  2.6346386192580007
  2.8588205523869998  4.3003145830009997  0.2704539764660003
  0.6510439552289997  1.6432440383269997 -0.7940506192579999
