Er Cl
 1.0000000000000000
     9.6300609999999995   -0.0000070000000000    0.0000000000000000
    -4.8150350000000000    8.3399710000000002   -0.0000240000000000
     0.0000000000000000   -0.0000110000000000    3.5326350000000000
 Er  Cl 
   2   6
Cartesian
 -0.0000078150320001  5.5599728632930008  2.6494708478969997
  4.8150193699359995  2.7799884766740002  0.8831436847140000
  0.0000028643119998  3.6153147814739999  0.8831483461680000
  1.6841159881240002  6.5323172700090000  0.8831505497849998
 -1.6841374824970001  6.5322946984579993  0.8831505498569999
  4.8150375807749999  4.7246465584500008  2.6494732517129997
  3.1309051968410002  1.8076440699400000  2.6494675154609997
  6.4991442223839995  1.8076416215990001  2.6494675154609997
