Er Ag
 1.0000000000000000
     3.5739809999999999    0.0000000000000000    0.0000000000000000
     0.0000000000000000    3.5739809999999999    0.0000000000000000
     0.0000000000000000    0.0000000000000000    3.5739809999999999
 Er  Ag 
   1   1
Cartesian
  1.7869904999999999  1.7869904999999999  1.7869904999999999
  0.0000000000000000  0.0000000000000000  0.0000000000000000
