Zn Ga Rh
 1.0000000000000000
     0.0000000000000000    2.9915129999999999    2.9915129999999999
     2.9915129999999999    0.0000000000000000    2.9915129999999999
     2.9915129999999999    2.9915129999999999    0.0000000000000000
 Zn  Ga  Rh 
   1   1   2
Cartesian
  4.4872695000000000  4.4872695000000000  4.4872695000000000
  1.4957564999999999  1.4957564999999999  1.4957564999999999
  2.9915129999999999  2.9915129999999999  2.9915129999999999
  0.0000000000000000  0.0000000000000000  0.0000000000000000
