Ba P  O 
 1.0000000000000000
     6.9356369999999998    0.0000000000000000    0.0000000000000000
     0.0000000000000000    7.5372100000000000    0.0068810000000000
     0.0000000000000000    6.7421090000000001    9.7007999999999992
 Ba  P   O  
   4   8  24
Cartesian
  0.6729648581100001  7.9664545498130002  7.9910746852569998
  2.7948536418900001  4.5954000498129997  3.1406746852569998
  4.1407833581099993  9.6839189501869996  6.5670063147429998
  6.2626721418900004  6.3128644501869999  1.7166063147429997
  0.7402752151949999 11.6821302314370001  6.4490047456319992
  1.4170269311069998  8.1760017732739989  4.0965296610599999
  4.2080937151950000  5.9682432685630005  8.1090762543680004
  5.5186100688929995  6.1033172267260003  5.6111513389399992
  4.8848454311070002  2.7322627267260002  0.7607513389400000
  2.0507915688929996 11.5470562732740003  8.9469296610599987
  2.7275432848049999  8.3110757314370005  1.5986047456320001
  6.1953617848049998  2.5971887685630000  3.2586762543679995
  1.5618499673040001  5.0597468824009999  0.6186683434450000
  0.1988724553380000  3.7282449087170000  3.0697519659579995
  3.4583790980429998  2.0518257422759998  0.9932863519499998
  6.9261975980430002  8.8564387577239998  3.8639946480499994
  1.1037164652689999 12.3269059972580006  7.9089185842079992
  2.3641020347310002  8.9558514972580010  3.0585185842079996
  0.0094394019570000  5.4228802422760003  5.8436863519499997
  5.6714923152839996  7.5071385107320001  6.0865398528069994
  5.0296684673039991  5.8485176175989997  4.2386126565549995
  5.8319205347310001  1.9524130027419999  1.7987624157919999
  5.3737870326960007  9.2195721175990002  9.0890126565549991
  5.4819690986220007  6.1628184632260004  8.8527071210259987
  1.9059685326959999  8.4308013824010004  5.4690683434449996
  1.2641446847160001  6.7721804892680000  3.6211411471929997
  3.6666909553379998  7.1800195912830009  1.7875290340420000
  4.9214864013779991  2.7917639632259998  4.0023071210259999
  2.0141505986219999 11.4875550367740011  5.7053738789739992
  4.5715349652689996  5.3234675027420000  6.6491624157919995
  3.2689460446620000  7.0992994087170000  7.9201519659579995
  3.4772579019569996 12.2274932577239994  8.7143946480499999
  1.4536679013780001  8.1165005367739997  0.8549738789740000
  2.2036738152840001 10.1432349892680005  8.4715411471929993
  6.7367645446619999 10.5510740912830006  6.6379290340419992
  4.7319631847160002  4.1360840107320005  1.2361398528070000
