Mn Fe As
 1.0000000000000000
     3.1940650000000002   -5.5320029999999996    0.0000000000000000
     3.1939810000000000    5.5319550000000000   -0.0000000000000000
     0.0000000000000000   -0.0000000000000000    3.3293689999999998
 Mn  Fe  As 
   3   3   3
Cartesian
  1.9217858646420001 -3.3284402451059996  1.6646844999999999
  2.5445854967189998  0.0000749235390001  1.6646844999999999
  5.1156182661010003 -2.2037299333529994  1.6646844999999999
  4.0261850559910002  4.0902873595770002  0.0000000000000000
  4.7236086747220005 -0.0000686852339995  3.3293689999999998
  4.0262950754739997 -4.0903423342139993  3.3293689999999998
  3.1941175996940001  1.8435854486400005  3.3293689999999998
  3.1937591165410000 -1.8435615316409999  0.0000000000000000
  0.0003002381620000 -0.0000000022560000  1.6646844999999999
