Mn As Rh
 1.0000000000000000
     6.5021220000000000    0.0005130000000000    0.0000000000000000
    -3.2506159999999999    5.6300049999999997    0.0000000000000000
     0.0000000000000000    0.0000000000000000    3.7017780000000000
 Mn  As  Rh 
   3   3   3
Cartesian
  1.3417859358359998  2.3230278779760001  1.8508890000000000
 -1.9094833368219999  3.3073802260009999  1.8508890000000000
  0.5682135303059996  5.6301317573100000  1.8508890000000000
  6.5012410198739996  0.0012392342220000  1.8508890000000000
  3.2513523598439997  1.8767551060979997  0.0000000000000000
  0.0008558355119998  3.7533350494319997  0.0000000000000000
 -1.5795089136659999  5.6296582736460001  0.0000000000000000
  2.4164508431840002  4.1827823977489995  0.0000000000000000
 -0.8355025255740001  1.4477614470480000  0.0000000000000000
