Th Te N 
 1.0000000000000000
     3.9325150000000000   -0.0000000000000000   -1.1800660000000001
    -0.3541140000000000    3.9165390000000002   -1.1800660000000001
     0.0170700000000000    0.0186820000000000    7.1993809999999998
 Th  Te  N  
   2   1   2
Cartesian
  1.2155911291019998  1.3304567095940001  4.0508954865789999
  2.3798798708979998  2.6047642904060004  0.7883535134210000
  0.0000000000000000  0.0000000000000000  0.0000000000000000
  2.8693927500000003  0.9884757500000001  2.4196244999999998
  0.7260782499999999  2.9467452500000002  2.4196244999999998
