Pt F 
 1.0000000000000000
     4.8443529999999999    0.0000000000000000    0.0000000000000000
     0.0000000000000000    8.4227609999999995    0.0000000000000000
     0.0000000000000000    0.0000000000000000    9.0752889999999997
 Pt  F  
   4  24
Cartesian
  4.4245219916080005  6.3170707499999992  1.1443394911660001
  2.0023454916079997  2.1056902499999999  3.3933050088340000
  0.4198310083920000  2.1056902499999999  7.9309495088339990
  2.8420075083919998  6.3170707499999992  5.6819839911660006
  1.1108101428999999  6.3170707499999992  0.0629734303710000
  3.5329866428999996  2.1056902499999999  4.4746710696290002
  3.7335428571000002  2.1056902499999999  9.0123155696289992
  1.3113663571000000  6.3170707499999992  4.6006179303710004
  2.8907126334539996  6.3170707499999992  2.2250158299970000
  0.4685361334540000  2.1056902499999999  2.3126286700030003
  1.9536403665459998  2.1056902499999999  6.8502731700029997
  4.3758168665459998  6.3170707499999992  6.7626603299969998
  3.6685122624279995  7.6461487447560001  0.0650879727080000
  1.2463357624280000  0.7766122552439999  4.4725565272919994
  1.1758407375719999  3.4347682447559995  9.0102010272920001
  3.5980172375720003  4.9879927552439991  4.6027324727079995
  1.1758407375719999  0.7766122552439999  9.0102010272920001
  3.5980172375720003  7.6461487447560001  4.6027324727079995
  3.6685122624279995  4.9879927552439991  0.0650879727080000
  1.2463357624280000  3.4347682447559995  4.4725565272919994
  0.3281031843370000  7.6422405836519998  2.2309782948699999
  2.7502796843370003  0.7805204163480000  2.3066662051300000
  4.5162498156629995  3.4308600836520000  6.8443107051299998
  2.0940733156630000  4.9919009163479995  6.7686227948699997
  4.5162498156629995  0.7805204163480000  6.8443107051299998
  2.0940733156630000  7.6422405836519998  6.7686227948699997
  0.3281031843370000  4.9919009163479995  2.2309782948699999
  2.7502796843370003  3.4308600836520000  2.3066662051300000
