Zr Si
 1.0000000000000000
     4.6029400000000003    0.0000000000000000    2.6568329999999998
     2.3014700000000001    4.6806460000000003    1.3284170000000000
    -0.0384090000000000    0.0000000000000000    5.3822320000000001
 Zr  Si 
   4   2
Cartesian
  1.8708714271460001  2.3403230000000002  2.0744242012030001
  3.4330005000000003  3.8192854392040001  4.6837411579869999
  3.4330005000000003  0.8613605607960000  4.6837408420130000
  4.9951295728540002  2.3403230000000002  7.2930577987970002
  1.1507350000000001  0.0000000000000000  0.6642082499999999
  3.4522050000000002  0.0000000000000000  1.9926247499999998
