Er Si Ni
 1.0000000000000000
     3.6562589999999999    0.0000000000000000   -1.3953270000000000
    -0.5324960000000000    3.6172749999999998   -1.3953270000000000
    -0.0027110000000000   -0.0031380000000000    5.4809120000000000
 Er  Si  Ni 
   1   2   2
Cartesian
  0.0000000000000000  0.0000000000000000  0.0000000000000000
  1.9556843088150002  2.2646561165760000 -0.3634171444680001
  1.1653676911849999  1.3494808834239997  3.0536751444679999
  2.6077147500000000  0.9027497499999999  1.3451290000000000
  0.5133372500000001  2.7113872500000000  1.3451290000000000
