Sn
 1.0000000000000000
     6.6506150000000002    0.0000000000000000    0.0000000000000000
     0.0000000000000000    6.6506150000000002    0.0000000000000000
     0.0000000000000000    0.0000000000000000    6.6506150000000002
 Sn 
   8
Cartesian
  2.4939806249999998  5.8192881249999999  2.4939806249999998
  0.8313268750000000  0.8313268750000000  0.8313268750000000
  2.4939806249999998  2.4939806249999998  5.8192881249999999
  0.8313268750000000  4.1566343750000003  4.1566343750000003
  5.8192881249999999  5.8192881249999999  5.8192881249999999
  4.1566343750000003  0.8313268750000000  4.1566343750000003
  5.8192881249999999  2.4939806249999998  2.4939806249999998
  4.1566343750000003  4.1566343750000003  0.8313268750000000
