Th B  C 
 1.0000000000000000
     5.2825449999999998    0.0053980000000000    1.3114290000000000
     1.0269420000000000    5.1817650000000004    1.3114290000000000
     0.0065650000000000    0.0053980000000000    5.4428910000000004
 Th  B   C  
   3   6   3
Cartesian
  4.3235712879239996  3.5545001292569998  5.5213036232129999
  1.9924807120760000  1.6380608707430000  2.5444453767869999
  0.0000000000000000  0.0000000000000000  0.0000000000000000
  4.6164915312999995  2.5962805000000002  2.8907938020300001
  2.8759580840050001  1.1653514883550002  5.1749551979700001
  1.9816283846950002  4.0272095116450002  4.0328745000000001
  1.6995604687000001  2.5962805000000002  5.1749551979700001
  4.3344236153050000  1.1653514883550002  4.0328745000000001
  3.4400939159949999  4.0272095116450002  2.8907938020300001
  0.0032825000000000  0.0026990000000000  2.7214455000000002
  2.6412724999999999  0.0026990000000000  0.6557145000000000
  0.5134710000000000  2.5908825000000002  0.6557145000000000
