In As
 1.0000000000000000
     6.1935859999999998    0.0000000000000000    0.0000000000000000
     0.0000000000000000    6.1935859999999998    0.0000000000000000
     0.0000000000000000    0.0000000000000000    6.1935859999999998
 In  As 
   4   4
Cartesian
  4.6451894999999999  1.5483965000000000  1.5483965000000000
  4.6451894999999999  4.6451894999999999  4.6451894999999999
  1.5483965000000000  1.5483965000000000  4.6451894999999999
  1.5483965000000000  4.6451894999999999  1.5483965000000000
  0.0000000000000000  0.0000000000000000  0.0000000000000000
  0.0000000000000000  3.0967929999999999  3.0967929999999999
  3.0967929999999999  0.0000000000000000  3.0967929999999999
  3.0967929999999999  3.0967929999999999  0.0000000000000000
