Tm Zn Rh
 1.0000000000000000
     0.0000020000000000    3.1719339999999998    3.1719330000000001
     3.1719360000000001   -0.0000010000000000    3.1719360000000001
     3.1719339999999998    3.1719349999999999    0.0000010000000000
 Tm  Zn  Rh 
   1   1   2
Cartesian
  1.5859616561280001  1.5859606561319999  1.5859611561300000
  4.7579103438720001  4.7579073438680002  4.7579088438700001
  0.0000051719340000  3.1719308280649998  3.1719330000029999
  3.1719296561319998  3.1719340000000003  3.1719349999960000
