Sr Tl Cd
 1.0000000000000000
     0.0000000000000000    4.0464010000000004    4.0464010000000004
     4.0464010000000004    0.0000000000000000    4.0464010000000004
     4.0464010000000004    4.0464010000000004    0.0000000000000000
 Sr  Tl  Cd 
   2   1   1
Cartesian
  4.0464010000000004  4.0464010000000004  4.0464010000000004
  0.0000000000000000  0.0000000000000000  0.0000000000000000
  6.0696015000000010  6.0696015000000010  6.0696015000000010
  2.0232085928019998  2.0232085928019998  2.0232085928019998
