Al Cr Co
 1.0000000000000000
     5.7096650000000002    0.0000000000000000    0.0000000000000000
     0.0000000000000000    5.7096650000000002    0.0000000000000000
     0.0000000000000000    0.0000000000000000    5.7096650000000002
 Al  Cr  Co 
   4   4   8
Cartesian
  0.0000000000000000  0.0000000000000000  0.0000000000000000
  0.0000000000000000  2.8548325000000001  2.8548325000000001
  2.8548325000000001  0.0000000000000000  2.8548325000000001
  2.8548325000000001  2.8548325000000001  0.0000000000000000
  0.0000000000000000  2.8548325000000001  0.0000000000000000
  0.0000000000000000  0.0000000000000000  2.8548325000000001
  2.8548325000000001  2.8548325000000001  2.8548325000000001
  2.8548325000000001  0.0000000000000000  0.0000000000000000
  1.4274162500000001  4.2822487499999999  4.2822487499999999
  4.2822487499999999  1.4274162500000001  1.4274162500000001
  1.4274162500000001  1.4274162500000001  1.4274162500000001
  4.2822487499999999  4.2822487499999999  4.2822487499999999
  4.2822487499999999  4.2822487499999999  1.4274162500000001
  1.4274162500000001  1.4274162500000001  4.2822487499999999
  4.2822487499999999  1.4274162500000001  4.2822487499999999
  1.4274162500000001  4.2822487499999999  1.4274162500000001
