Sc Al Ru
 1.0000000000000000
     5.3084889999999998    0.0000000000000000    0.0000000000000000
    -2.6542439999999998    4.5972860000000004    0.0000000000000000
     0.0000000000000000    0.0000000000000000    8.5491189999999992
 Sc  Al  Ru 
   4   6   2
Cartesian
 -0.0000023209110000  3.0648588657620004  0.4702528397139999
  2.6542473209109998  1.5324271342380000  4.7448123397139996
 -0.0000023209110000  3.0648588657620004  3.8043066602859996
  2.6542473209109998  1.5324271342380000  8.0788661602859992
  2.6542474891380001  3.0792023980820002  2.1372797499999998
 -1.3395490053019998  3.8382464976840005  6.4118392499999999
  1.3395445317070001  3.8382464976840005  6.4118392499999999
  1.3147004682929999  0.7590395023160000  2.1372797499999998
  3.9937940053020005  0.7590395023160000  2.1372797499999998
 -0.0000024891379999  1.5180836019180000  6.4118392499999999
  0.0000000000000000  0.0000000000000000  4.2745594999999996
  0.0000000000000000  0.0000000000000000  0.0000000000000000
