Cs Nb F 
 1.0000000000000000
     6.4092960000000003    0.0000000000000000    0.0000000000000000
    -3.2046480000000002    5.5506140000000004    0.0000000000000000
     0.0000000000000000    0.0000000000000000    4.8683170000000002
 Cs  Nb  F  
   2   1   6
Cartesian
  3.2046512046480005  1.8502028164620001  1.4702122607320001
 -0.0000032046480002  3.7004111835380002  3.3981047392680002
  0.0000000000000000  0.0000000000000000  0.0000000000000000
  4.9155967486080012  0.8623877959520001  3.8353331573550005
  3.2046447953520008  3.8258439587100002  3.8353331573550005
  1.4936928420959998  0.8623877959520001  3.8353331573550005
 -1.7109487486080002  4.6882262040480009  1.0329838426450002
  0.0000032046480001  1.7247700412900000  1.0329838426450002
  1.7109551579040001  4.6882262040480009  1.0329838426450002
