Ca Si
 1.0000000000000000
     6.9578990000000003   -0.0003120000000000   -3.1887770000000000
    -1.4616480000000001    6.8027889999999998   -3.1886079999999999
    -0.0124800000000000   -0.0156850000000000    9.1580960000000005
 Ca  Si 
  10   6
Cartesian
  1.1854694894570004  0.2713434158590000  5.9041511901810004
 -0.5111207031910000  3.6730877209079997  4.7520606459009995
  4.4610050453860008  1.2151543869870001  3.8685468711060009
  5.9948917031910005  3.1137042790920000 -1.9713496459009998
  2.7654908131970002  4.6171022078690003  2.7161494926569998
  4.2983015105430011  6.5154485841409988 -3.1234401901809998
  2.7182801868030002  2.1696897921310003  0.0645615073429999
  1.0227659546140004  5.5716376130129994 -1.0878358711059997
  2.7481255000000000  3.4012384999999998 -3.1886925000000002
  0.0000000000000000  0.0000000000000000  0.0000000000000000
  4.0959734302210000  0.7634997043569999 -2.3080126853590004
  5.2836564868040004  4.1643672698529999 -4.7820512597239997
  0.2001145131960000  2.6224247301469998  7.5627622597240007
  1.3877975697789999  6.0232922956429995  5.0887236853590014
  4.1146541264740000  5.0942737174079991 -0.2034893662220005
  1.3691168735260002  1.6925182825920000  2.9842003662220002
