Hf Cu Si
 1.0000000000000000
     3.6891690000000001    0.0000000000000000    0.0000000000000000
     0.0000000000000000    3.6891690000000001    0.0000000000000000
     0.0000000000000000    0.0000000000000000    9.0014800000000008
 Hf  Cu  Si 
   2   2   4
Cartesian
  0.0000000000000000  1.8445845000000001  2.4006317056400004
  1.8445845000000001  0.0000000000000000  6.6008482943600013
  0.0000000000000000  0.0000000000000000  0.0000000000000000
  1.8445845000000001  1.8445845000000001  0.0000000000000000
  1.8445845000000001  1.8445845000000001  4.5007400000000004
  0.0000000000000000  0.0000000000000000  4.5007400000000004
  1.8445845000000001  0.0000000000000000  1.5677157597600002
  0.0000000000000000  1.8445845000000001  7.4337642402400004
