Li B  O 
 1.0000000000000000
     9.1243789999999994    0.0000000000000000    0.0000000000000000
     0.0000000000000000    3.2248090000000000   -0.0091670000000000
     0.0000000000000000    1.5769709999999999    8.0947460000000007
 Li  B   O  
  12   4  12
Cartesian
  7.0077785546119999  3.1301295090119998  7.9557622294590002
  2.4455890546119998  2.4601359909879998  4.1771897705410010
  2.1166004453879999  1.6716504909879999  0.1298167705410000
  6.6787899453879991  2.3416440090120001  3.9083892294590004
  4.7788661281129992  2.2954279362799999  7.1926606830470003
  0.2166766281130000  3.2948375637199998  4.9402913169530001
  4.3455128718869993  2.5063520637200001  0.8929183169530001
  8.9077023718869999  1.5069424362800001  3.1452876830470005
  5.2165625887429998  3.9237373144139998  5.1152449460490006
  0.6543730887429999  1.6665281855859999  7.0177070539510007
  3.9078164112570000  0.8780426855860000  2.9703340539510004
  8.4700059112569992  3.1352518144140000  1.0678719460490003
  7.4242608340669989  1.8111981132380000  6.0376373931920009
  2.8620713340669997  3.7790673867620002  6.0953146068080004
  1.7001181659329998  2.9905818867620000  2.0479416068080005
  6.2623076659330001  1.0227126132380000  1.9902643931920003
  7.8667567180509987  1.5035631516840000  7.3036438229700007
  3.3045672180510000  4.0867023483159999  4.8293081770299997
  1.2576222819489999  3.2982168483160001  0.7819351770300000
  5.8198117819490003  0.7150776516839999  3.2562708229700004
  8.2741967379170003  1.6942466049759999  4.9504944968869999
  3.7120072379169997  3.8960188950240005  7.1824575031130014
  0.8501822620829999  3.1075333950240003  3.1350845031130001
  5.4123717620829996  0.9057611049759999  0.9031214968870001
  6.1417289974480003  2.3144866386139999  5.8370385857750007
  1.5795394974479997  3.2757788613859997  6.2959134142250006
  2.9826500025520000  2.4872933613859995  2.2485404142250003
  7.5448395025519988  1.5260011386140000  1.7896655857750001
