Pm Mg Tl
 1.0000000000000000
     0.0000000000000000    3.8575659999999998    3.8575659999999998
     3.8575659999999998    0.0000000000000000    3.8575659999999998
     3.8575659999999998    3.8575659999999998    0.0000000000000000
 Pm  Mg  Tl 
   2   1   1
Cartesian
  0.0000000000000000  0.0000000000000000  0.0000000000000000
  3.8575659999999998  3.8575659999999998  3.8575659999999998
  1.9287829999999999  1.9287829999999999  1.9287829999999999
  5.7863567151320003  5.7863567151320003  5.7863567151320003
