Ag F 
 1.0000000000000000
     5.1502970000000001    0.0000020000000000   -0.0000630000000000
     0.0000010000000000    5.6180500000000002    0.0000010000000000
    -0.0001100000000000    0.0000000000000000    5.7374599999999996
 Ag  F  
   4   8
Cartesian
  2.5750934999999999  0.0000010000000000  2.8686984999999998
 -0.0000545000000000  2.8090250000000001  2.8687304999999999
  2.5751490000000001  2.8090260000000002 -0.0000310000000000
  0.0000000000000000  0.0000000000000000  0.0000000000000000
  3.5233471777190006  1.7141583120380000  3.6072933812589998
  0.9483607967640001  1.0946717927400000  2.1301066806139999
  1.6267292793749999  4.5232893184900007  4.9988289922249995
  4.2019335962529993  3.9038047991300004  0.7385439960930000
  0.9482544037470000  1.7142472008700000  4.9988540039069997
  3.5234587206250003  1.0947626815100000  0.7385690077749999
  4.2018272032360002  4.5233802072599998  3.6072913193859999
  1.6268408222810000  3.9038936879619999  2.1301046187409995
