Sn Mo
 1.0000000000000000
     5.1296330000000001    0.0000000000000000    0.0000000000000000
     0.0000000000000000    5.1296330000000001    0.0000000000000000
     0.0000000000000000    0.0000000000000000    5.1296330000000001
 Sn  Mo 
   2   6
Cartesian
  0.0000000000000000  0.0000000000000000  0.0000000000000000
  2.5648165000000001  2.5648165000000001  2.5648165000000001
  1.2824082500000000  0.0000000000000000  2.5648165000000001
  3.8472247500000001  0.0000000000000000  2.5648165000000001
  0.0000000000000000  2.5648165000000001  1.2824082500000000
  0.0000000000000000  2.5648165000000001  3.8472247500000001
  2.5648165000000001  3.8472247500000001  0.0000000000000000
  2.5648165000000001  1.2824082500000000  0.0000000000000000
