Pr Si Ru
 1.0000000000000000
     4.2254300000000002    0.0000000000000000    0.0000000000000000
     0.0000000000000000    4.2254300000000002    0.0000000000000000
     0.0000000000000000    0.0000000000000000    7.0511509999999999
 Pr  Si  Ru 
   2   2   2
Cartesian
  1.0563575000000001  1.0563575000000001  4.8098016316300001
  3.1690725000000004  3.1690725000000004  2.2413493683699999
  1.0563575000000001  1.0563575000000001  1.1827530175890000
  3.1690725000000004  3.1690725000000004  5.8683979824110004
  3.1690725000000004  1.0563575000000001  0.0000000000000000
  1.0563575000000001  3.1690725000000004  0.0000000000000000
