Ga P  Pt
 1.0000000000000000
     3.9176299999999999    0.0000000000000000    0.0000000000000000
     0.0000000000000000    3.9176299999999999    0.0000000000000000
     0.0000000000000000    0.0000000000000000    6.8845980000000004
 Ga  P   Pt 
   1   1   5
Cartesian
  1.9588150000000000  1.9588150000000000  0.0000000000000000
  0.0000000000000000  0.0000000000000000  3.4422990000000002
  0.0000000000000000  1.9588150000000000  1.9959688829640001
  0.0000000000000000  1.9588150000000000  4.8886291170360003
  1.9588150000000000  0.0000000000000000  1.9959688829640001
  1.9588150000000000  0.0000000000000000  4.8886291170360003
  0.0000000000000000  0.0000000000000000  0.0000000000000000
