Pr Sn Rh
 1.0000000000000000
     7.4705279999999998   -0.0000000000000000    0.0000000000000000
    -3.7352650000000001    6.4696670000000003    0.0000000000000000
     0.0000000000000000    0.0000000000000000    4.2020949999999999
 Pr  Sn  Rh 
   3   3   3
Cartesian
  2.1865221080989996  3.7871683807910004  0.0000000000000000
 -1.5487417211550001  2.6824986192090003  0.0000000000000000
  3.0974826130560000  0.0000000000000000  0.0000000000000000
  0.9258745808620000  1.6036622379580001  2.1010475000000000
  5.6187783425279996  0.0000000000000000  2.1010475000000000
 -2.8093899233899999  4.8660047620420004  2.1010475000000000
  3.7352674019310004  2.1565535101109998  2.1010475000000000
 -0.0000044019310002  4.3131134898890000  2.1010475000000000
  0.0000000000000000  0.0000000000000000  0.0000000000000000
