Lu Ni Sb
 1.0000000000000000
     3.8051219999999999    0.0000000000000000    2.1968899999999998
     1.2683739999999999    3.5875040000000000    2.1968899999999998
     0.0000000000000000    0.0000000000000000    4.3937770000000000
 Lu  Ni  Sb 
   1   1   1
Cartesian
  2.5367479999999998  1.7937520000000000  4.3937784999999998
  1.2683739999999999  0.8968760000000000  2.1968892499999999
  0.0000000000000000  0.0000000000000000  0.0000000000000000
