Rb Cl
 1.0000000000000000
     6.7026320000000004    0.0000000000000000    0.0000000000000000
     0.0000000000000000    6.7026320000000004    0.0000000000000000
     0.0000000000000000    0.0000000000000000    6.7026320000000004
 Rb  Cl 
   4   4
Cartesian
  0.0000000000000000  0.0000000000000000  0.0000000000000000
  0.0000000000000000  3.3513160000000002  3.3513160000000002
  3.3513160000000002  0.0000000000000000  3.3513160000000002
  3.3513160000000002  3.3513160000000002  0.0000000000000000
  3.3513160000000002  0.0000000000000000  0.0000000000000000
  3.3513160000000002  3.3513160000000002  3.3513160000000002
  0.0000000000000000  0.0000000000000000  3.3513160000000002
  0.0000000000000000  3.3513160000000002  0.0000000000000000
