Ti Al N 
 1.0000000000000000
     2.9800309999999999   -0.0000000000000000    0.0000000000000000
    -1.4900160000000000    2.5807829999999998    0.0000000000000000
     0.0000000000000000    0.0000000000000000   13.6244029999999992
 Ti  Al  N  
   4   2   2
Cartesian
 -0.0000018233490000  1.7205228602609999  1.1695596267290000
  1.4900168233489999  0.8602601397390000  7.9817611267289994
  1.4900168233489999  0.8602601397390000 12.4548433732709984
 -0.0000018233490000  1.7205228602609999  5.6426418732709998
 -0.0000018233490000  1.7205228602609999 10.2183022499999989
  1.4900168233489999  0.8602601397390000  3.4061007499999998
  0.0000000000000000  0.0000000000000000  0.0000000000000000
  0.0000000000000000  0.0000000000000000  6.8122014999999996
