Si S 
 1.0000000000000000
     4.9579050000000002    0.0000000000000000   -2.4914480000000001
    -1.3000879999999999    4.9670800000000002   -2.5871339999999998
     0.0759460000000000   -0.0106050000000000    6.3298930000000002
 Si  S  
   2   4
Cartesian
  3.7184287500000002  0.0000000000000000 -1.8685860000000001
  1.2394762500000001  0.0000000000000000 -0.6228620000000000
  3.5565631733900003  3.3858949933500000  0.8986761788220003
  0.1771998266100000  1.5705800066500002  0.3526348211779999
  1.8798320792579997  4.5365675199700011 -2.4379419171080001
  1.8539309207420001  0.4199074800300000  3.6892529171080000
