Dy Co C 
 1.0000000000000000
     3.6238250000000001    0.0000000000000000    0.0000000000000000
     0.0000000000000000    3.6237830000000000    0.0000000000000000
     0.0000000000000000    0.0000000000000000    6.8731960000000001
 Dy  Co  C  
   2   2   2
Cartesian
  0.0000000000000000  0.0000000000000000  5.1549519855680002
  0.0000000000000000  0.0000000000000000  1.7182440144319999
  1.8119125000000000  1.8118915000000000  0.0000000000000000
  1.8119125000000000  1.8118915000000000  3.4365980000000000
  1.8119125000000000  0.0000000000000000  3.4365980000000000
  0.0000000000000000  1.8118915000000000  0.0000000000000000
