Nb Sb Ru
 1.0000000000000000
     6.2030149999999997    0.0000000000000000    0.0000000000000000
     0.0000000000000000    6.2030149999999997    0.0000000000000000
     0.0000000000000000    0.0000000000000000    6.2030149999999997
 Nb  Sb  Ru 
   4   4   4
Cartesian
  0.0000000000000000  0.0000000000000000  0.0000000000000000
  0.0000000000000000  3.1015074999999999  3.1015074999999999
  3.1015074999999999  0.0000000000000000  3.1015074999999999
  3.1015074999999999  3.1015074999999999  0.0000000000000000
  0.0000000000000000  0.0000000000000000  3.1015074999999999
  0.0000000000000000  3.1015074999999999  0.0000000000000000
  3.1015074999999999  0.0000000000000000  0.0000000000000000
  3.1015074999999999  3.1015074999999999  3.1015074999999999
  1.5507537499999999  4.6522612499999996  4.6522612499999996
  1.5507537499999999  1.5507537499999999  1.5507537499999999
  4.6522612499999996  4.6522612499999996  1.5507537499999999
  4.6522612499999996  1.5507537499999999  4.6522612499999996
