Nb Pt
 1.0000000000000000
     4.6533319999999998    0.0000000000000000    0.0000000000000000
     0.0000000000000000    2.7960739999999999    0.0000000000000000
     0.0000000000000000    0.0000000000000000    5.0436329999999998
 Nb  Pt 
   2   2
Cartesian
  1.1633330000000000  0.0000000000000000  0.9049437637590000
  3.4899990000000001  0.0000000000000000  4.1386892362409995
  1.1633330000000000  1.3980370000000000  3.3992270712120001
  3.4899990000000001  1.3980370000000000  1.6444059287880000
