Ce Si
 1.0000000000000000
     4.0171669999999997    0.0000000000000000   -1.1553439999999999
    -0.3322680000000000    4.0032610000000002   -1.1553040000000001
     0.0085840000000000    0.0094050000000000    7.5914260000000002
 Ce  Si 
   2   4
Cartesian
  3.3092960113149994  2.5041681610950000  0.1641575287800001
  0.3841869886850000  1.5084978389050001  5.1166204712200010
  2.5379766127339991  3.8483804785290001  5.0438283639900003
  1.7785568506480001  0.8411920172240001  2.4033082333760003
  1.9149261493519998  3.1714739827760003  2.8774697666239999
  1.1555063872659999  0.1642855214710000  0.2369496360100001
