Ca Si Au
 1.0000000000000000
     4.3799560000000000    0.0000000000000000    0.0000000000000000
     0.0000000000000000    4.3799560000000000    0.0000000000000000
     0.0000000000000000    0.0000000000000000   10.1028020000000005
 Ca  Si  Au 
   2   4   4
Cartesian
  0.0000000000000000  0.0000000000000000  0.0000000000000000
  2.1899780000000000  2.1899780000000000  5.0514010000000003
  2.1899780000000000  2.1899780000000000  1.1616908935740000
  2.1899780000000000  2.1899780000000000  8.9411111064260016
  0.0000000000000000  0.0000000000000000  6.2130918935740000
  0.0000000000000000  0.0000000000000000  3.8897101064260000
  2.1899780000000000  0.0000000000000000  7.5771015000000004
  0.0000000000000000  2.1899780000000000  7.5771015000000004
  0.0000000000000000  2.1899780000000000  2.5257005000000001
  2.1899780000000000  0.0000000000000000  2.5257005000000001
