Tm Au
 1.0000000000000000
     3.4315110000000000   -0.0012650000000000   -1.2994079999999999
    -0.4937510000000000    3.3958029999999999   -1.2994079999999999
    -0.0033370000000000   -0.0038570000000000    5.1677260000000000
 Tm  Au 
   1   2
Cartesian
  0.0000000000000000  0.0000000000000000  0.0000000000000000
  1.9517361140989999  2.2552016831469999 -0.0260372638979996
  0.9826868859010000  1.1354793168530000  2.5949472638979998
