Cd Bi O 
 1.0000000000000000
    -2.6189200000000001    1.9470030000000000    4.8305520000000000
    -0.0013330000000000    3.2630210000000002   -4.8318240000000001
    -3.3479779999999999   -1.6793819999999999   -4.6516890000000002
 Cd  Bi  O  
   2   2   6
Cartesian
 -4.7258413238320003  0.8906482553090004 -2.9174085960300000
 -1.3011620928570000  2.6097975026200002 -1.7557406746440003
 -4.2137045394779999  1.1468679426950004  0.7726041385890003
 -1.8970827039240001  2.3115017568650003 -5.4745304850749994
 -4.9553274982210000  3.0293969133930001 -2.3442769323450001
 -3.7906623988299994 -0.0872978275390000 -1.1485560253980003
 -3.1440312434100002  0.8780960966319999 -4.4838297229649999
 -2.9026991659540005  2.9618402118920004 -0.1193556200970003
 -1.9791130620340001  3.5711900855020002 -3.7520859019290005
 -0.9315216552509999  0.3411672113710001 -2.0416158754560003
