Ba Ag Sn S 
 1.0000000000000000
    -3.4236689999999999    3.6200429999999999    4.1229339999999999
     3.4236689999999999   -3.6200429999999999    4.1229339999999999
     3.4236689999999999    3.6200429999999999   -4.1229339999999999
 Ba  Ag  Sn  S  
   1   2   1   4
Cartesian
  0.0000000000000000  0.0000000000000000  0.0000000000000000
  3.4236689999999994  0.0000000000000000  2.5928059963160002
  0.0000000000000000  3.6200429999999999  1.5301280036840001
  0.0000000000000000  0.0000000000000000  4.1229339999999999
  1.3911873561360000 -1.3811260454460002  5.5178792436920006
  2.0324816438640001  5.0011690454459998  1.3949452436920000
  1.3911873561360002  1.3811260454459997  2.7279887563080001
  2.0324816438640001  2.2389169545540000 -1.3949452436920000
