Co Mo P 
 1.0000000000000000
     3.7132060000000000    0.0000000000000000    0.0000000000000000
     0.0000000000000000    5.7818120000000004   -0.0000330000000000
     0.0000000000000000   -0.0000390000000000    6.6708439999999998
 Co  Mo  P  
   4   4   4
Cartesian
  2.7849045000000001  3.6975623062100000  3.7808131497199997
  0.9283015000000000  4.9750442591740001  0.4452771250309999
  2.7849045000000001  0.8068328140270001  6.2254338117149999
  0.9283015000000000  2.0841066199650000  2.8902046470379998
  0.9283015000000000  2.6992990518090001  5.5401005228900004
  0.9283015000000000  5.5901361678379997  4.4659780766589998
  2.7849045000000001  0.1915501055280000  2.2047395320200001
  2.7849045000000001  3.0825144208749999  1.1307104768789999
  0.9283015000000000  4.2385274499520005  2.5408202377659999
  0.9283015000000000  1.3475044591570000  0.7946032337680000
  2.7849045000000001  1.5432686778030000  4.1299040411299996
  2.7849045000000001  4.4342743222649998  5.8762744746389997
