Cr Si
 1.0000000000000000
     4.4074309999999999    0.0000000000000000    0.0000000000000000
    -2.2037149999999999    3.8169469999999999    0.0000000000000000
     0.0000000000000000    0.0000000000000000    6.3647989999999997
 Cr  Si 
   3   6
Cartesian
  2.2037154999999999  0.0000000000000000  3.1823994999999998
 -1.1018574999999999  1.9084734999999999  1.0608019549330001
  1.1018580000000000  1.9084734999999999  5.3039970450669998
 -1.1051805360559999  3.1827078186920001  5.3039970450669998
  1.0985258152460000  0.6342391813080001  1.0608019549330001
  2.2037114264060005  2.5484762712780000  3.1823994999999998
  3.3088965360560003  0.6342391813080001  5.3039970450669998
  1.1051901847540000  3.1827078186920001  1.0608019549330001
  0.0000045735940000  1.2684707287220001  3.1823994999999998
