Ti Be
 1.0000000000000000
     3.6697270000000000   -2.1187179999999999    3.5811009999999999
     0.0000000000000000    4.2374349999999996    3.5811009999999999
    -3.6697270000000000   -2.1187179999999999    3.5811009999999999
 Ti  Be 
   2  17
Cartesian
 -0.0000000000000000 -0.0000008360150002  8.9815624575449995
 -0.0000000000000000 -0.0000001639850000  1.7617405424549999
 -0.0000000000000002 -0.0000005987700001  6.4327675373100002
 -0.0000000000000000 -0.0000004012300001  4.3105354626899999
  1.8348635000000000  1.0593584999999999  3.5811009999999999
  0.0000000000000000 -2.1187179999999999  3.5811009999999999
 -1.8348635000000000  1.0593584999999999  3.5811009999999999
 -1.0832850617649998 -1.8763050848350000  5.3716514999999996
 -1.0832850617650001  1.8763040848349999  5.3716514999999996
  2.1665701235299997 -0.0000005000000001  5.3716514999999996
  1.0832850617650001  1.8763040848349997  5.3716514999999996
  1.0832850617649998 -1.8763050848350000  5.3716514999999996
 -2.1665701235300001 -0.0000005000000000  5.3716514999999996
 -1.8581589269960002  1.0728077754920000  7.2795475175680000
  1.8581589269959999  1.0728077754920000  7.2795475175679991
 -0.0000000000000002 -2.1456175837520002  7.2795475175680000
 -0.0000000000000001  2.1456165837520000  3.4637554824320000
  1.8581589269960002 -1.0728087754920002  3.4637554824320000
 -1.8581589269960002 -1.0728087754919999  3.4637554824319996
