Er Tl Cd
 1.0000000000000000
     0.0000000000000000    3.7053910000000001    3.7053910000000001
     3.7053910000000001    0.0000000000000000    3.7053910000000001
     3.7053910000000001    3.7053910000000001    0.0000000000000000
 Er  Tl  Cd 
   2   1   1
Cartesian
  0.0000000000000000  0.0000000000000000  0.0000000000000000
  3.7053835892180005  3.7053835892180005  3.7053835892180005
  5.5580790892180003  5.5580790892180003  5.5580790892180003
  1.8526955000000001  1.8526955000000001  1.8526955000000001
