Na Sn P 
 1.0000000000000000
     3.9022640000000002   -0.0000000000000000    0.0000000000000000
    -1.9511330000000000    3.3794599999999999    0.0000000000000000
     0.0000000000000000    0.0000000000000000   11.6011679999999995
 Na  Sn  P  
   2   2   2
Cartesian
 -0.0000026177989999  2.2529744598199999  3.2212383127199997
  1.9511336177990002  1.1264855401800000  9.0218223127199995
  0.0000000000000000  0.0000000000000000  0.0025406557920000
  0.0000000000000000  0.0000000000000000  5.8031246557919998
 -0.0000026177989999  2.2529744598199999  7.1105530870560001
  1.9511336177990002  1.1264855401800000  1.3099690870559999
