Rb Ag O 
 1.0000000000000000
     5.3726370000000001   -0.0001830000000000    2.1814369999999998
     2.6862529999999998    7.1050829999999996    1.0902829999999999
     0.0129360000000000   -0.0004710000000000    7.6737700000000002
 Rb  Ag  O  
   4   4   4
Cartesian
  7.2252087789779997  5.7848088129419999  9.1774504914600001
  3.5328730368039993  5.7852445447739997  2.8584602165339996
  1.8526425092809999  1.3192688502479999  6.9963068822869996
  3.5329169168579995  1.3195215825239999  2.8587503739459996
  6.1538234543029997  3.5525913716670003  4.1100925269349995
  5.3788903550990002  1.4928689046869998  6.0185016609329995
  5.3792514843890000  5.6114756996369994  6.0177210954530000
  4.6043183594440000  3.5517390232499997  7.9261148827819996
  4.6076903856209999  5.6029607119949993  7.9182864439229999
  6.1507732437470004  5.6033574459450000  4.1176161794509998
  4.6073390073639997  1.5009942659729998  7.9185715572859996
  0.7778654679810000  1.5015739967070001  1.9365046881390002
