Nb Se
 1.0000000000000000
     3.4460210000000000   -0.0002530000000000   -0.0006840000000000
    -1.7234820000000000    7.0549549999999996   -0.2573350000000000
    -0.0018530000000000   -0.0509730000000000    9.3838849999999994
 Nb  Se 
   8   4
Cartesian
 -0.0019898139130000  3.0646648092519997  1.0285518210500000
  1.7226758139130001  3.9390641907479997  8.0973141789499987
 -0.0012238150690000  1.1740848013029999  3.6904864702459999
  1.7219098150690002  5.8296441986970002  5.4353795297540000
 -0.0016571050749999  5.8230086803059988  3.1213954426939998
  1.7223431050750002  1.1807203196939999  6.0044705573059991
 -0.0006882571220000  3.5870778205110003  5.7146675017999993
  1.7213742571219997  3.4166511794890000  3.4111984982000001
 -0.0001625051489999  1.9277971998090000  7.9890358451009993
  1.7208485051489999  5.0759318001910003  1.1368301548990001
  0.0004866211430000  5.9327581826359994  7.4327228813159998
  1.7201993788569998  1.0709708173640000  1.6931431186840000
