Nb Ru
 1.0000000000000000
     3.9115199999999999    0.0000000000000000    0.0000000000000000
     0.0000000000000000    3.9115199999999999    0.0000000000000000
     0.0000000000000000    0.0000000000000000    3.9115199999999999
 Nb  Ru 
   1   3
Cartesian
  0.0000000000000000  0.0000000000000000  0.0000000000000000
  0.0000000000000000  1.9557599999999999  1.9557599999999999
  1.9557599999999999  1.9557599999999999  0.0000000000000000
  1.9557599999999999  0.0000000000000000  1.9557599999999999
