Si W 
 1.0000000000000000
     4.6175530000000000    0.0000000000000000    0.0000000000000000
    -2.3087759999999999    3.9989189999999999    0.0000000000000000
     0.0000000000000000    0.0000000000000000    6.6524010000000002
 Si  W  
   6   3
Cartesian
 -1.1754069330719998  3.3445678861919999  5.5436652825330004
  1.1333738481129998  0.6543511138079999  1.1087357174670001
  2.3087791451440003  2.6902127734649999  3.3262005000000001
  3.4841839330719999  0.6543511138079999  5.5436652825330004
  1.1754031518869998  3.3445678861919999  1.1087357174670001
 -0.0000021451439999  1.3087062265349998  3.3262005000000001
  2.3087765000000000  0.0000000000000000  3.3262005000000001
 -1.1543880000000000  1.9994594999999999  1.1087357174670001
  1.1543885000000000  1.9994594999999999  5.5436652825330004
