Cs Pt I 
 1.0000000000000000
     7.0773619999999999    0.0000000000000000    4.0861169999999998
     2.3591210000000000    6.6726010000000002    4.0861169999999998
     0.0000000000000000    0.0000000000000000    8.1722330000000003
 Cs  Pt  I  
   2   1   6
Cartesian
  2.3591207499999998  1.6681502500000001  4.0861167500000004
  7.0773622500000002  5.0044507500000002 12.2583502499999994
  0.0000000000000000  0.0000000000000000  0.0000000000000000
  5.9743080278149998  1.5599540247850001 10.3478045080949990
  2.2061081781550000  1.5599540247850001  8.1722332337850006
  5.9743080278149998  1.5599540247850001  5.9966624919050000
  3.4621749721849997  5.1126469752150001  5.9966624919050000
  3.4621749721849997  5.1126469752150001 10.3478045080949990
  7.2303748218449995  5.1126469752150001  8.1722337662149993
