Th Si Au
 1.0000000000000000
     4.2840389999999999    0.0000000000000000    0.0000000000000000
    -2.1420200000000000    3.7100870000000001    0.0000000000000000
     0.0000000000000000    0.0000000000000000    4.2047290000000004
 Th  Si  Au 
   1   1   1
Cartesian
  0.0000000000000000  0.0000000000000000  0.0000000000000000
 -0.0000024753530001  2.4733925700290000  2.1023645000000002
  2.1420214753529998  1.2366944299710001  2.1023645000000002
