Nb Co Si
 1.0000000000000000
     6.2217799999999999    0.0000000000000000    0.0000000000000000
     0.0000000000000000    6.2217799999999999    0.0000000000000000
     0.0000000000000000    0.0000000000000000    5.0224000000000002
 Nb  Co  Si 
   8   2   2
Cartesian
  0.9481432759799999  2.0728046723399998  2.5112000000000001
  5.2736367240199993  4.1489753276599997  2.5112000000000001
  4.1489753276599997  0.9481432759799999  2.5112000000000001
  2.0728046723399998  5.2736367240199993  2.5112000000000001
  5.2736367240199993  2.0728046723399998  0.0000000000000000
  4.1489753276599997  5.2736367240199993  0.0000000000000000
  2.0728046723399998  0.9481432759799999  0.0000000000000000
  0.9481432759799999  4.1489753276599997  0.0000000000000000
  0.0000000000000000  0.0000000000000000  3.7667999999999999
  0.0000000000000000  0.0000000000000000  1.2556000000000000
  3.1108899999999999  3.1108899999999999  3.7667999999999999
  3.1108899999999999  3.1108899999999999  1.2556000000000000
