Ca Sc O 
 1.0000000000000000
     3.1463760000000001    0.0000000000000000    0.0000000000000000
     0.0000000000000000    9.4611029999999996    0.0000000000000000
     0.0000000000000000    0.0000000000000000   11.1251519999999999
 Ca  Sc  O  
   4   8  16
Cartesian
  2.3597820000000000  2.4191472704819996  9.4247170174079997
  0.7865940000000000  7.0419557295179995  1.7004349825920000
  2.3597820000000000  7.1496987704819999  7.2630109825920002
  0.7865940000000000  2.3114042295179997  3.8621410174080002
  0.7865940000000000  5.4913471755389995  9.9353503690559997
  2.3597820000000000  3.9697558244609996  1.1898016309440000
  0.7865940000000000  0.7607956755390000  6.7523776309440002
  2.3597820000000000  8.7003073244610007  4.3727743690559997
  2.3597820000000000  8.7984000403649993  9.8742176588159989
  0.7865940000000000  0.6627029596349999  1.2509343411839999
  2.3597820000000000  4.0678485403649995  6.8135103411840001
  0.7865940000000000  5.3932544596350001  4.3116416588159998
  0.7865940000000000  5.4881682449309990  6.4039156200000003
  2.3597820000000000  3.9729347550689997  4.7212363799999997
  0.7865940000000000  0.7576167449310000 10.2838123799999988
  2.3597820000000000  8.7034862550690004  0.8413396200000000
  0.7865940000000000  4.5183957263279995  2.4051354857280001
  2.3597820000000000  4.9427072736720001  8.7200165142720003
  0.7865940000000000  9.2489472263279993  3.1574405142719999
  2.3597820000000000  0.2121557736720000  7.9677114857279996
  0.7865940000000000  8.2917012080970007  5.8292013928320001
  2.3597820000000000  1.1694017919030000  5.2959506071679998
  0.7865940000000000  3.5611497080969996 10.8585266071679989
  2.3597820000000000  5.8999532919029996  0.2666253928320000
  2.3597820000000000  6.6937492947059996  3.6479818414079999
  0.7865940000000000  2.7673537052939996  7.4771701585920001
  2.3597820000000000  1.9631977947059998  1.9145941585919999
  0.7865940000000000  7.4979052052939998  9.2105578414079989
