Pr C 
 1.0000000000000000
     3.4485549999999998    0.0000000000000000   -1.7814620000000001
    -0.9202720000000000    3.3234979999999998   -1.7814620000000001
     0.0147890000000000    0.0194410000000000    4.2572159999999997
 Pr  C  
   1   2
Cartesian
  0.0000000000000000  0.0000000000000000  0.0000000000000000
  1.0257534182200001  1.3483816275999998  1.9856537381599997
  1.5173185817800001  1.9945573723999996 -1.2913617381600002
