Ti Tl
 1.0000000000000000
    -2.0257540000000001    2.0257540000000001    4.4277369999999996
     2.0257540000000001   -2.0257540000000001    4.4277369999999996
     2.0257540000000001    2.0257540000000001   -4.4277369999999996
 Ti  Tl 
   3   1
Cartesian
  0.0000000000000000  2.0257540000000001  2.2138684999999998
  2.0257540000000001  0.0000000000000000  2.2138684999999998
 -0.0000000000000001  0.0000000000000001  4.4277281445260002
  0.0000000000000000  0.0000000000000000  0.0000000000000000
