Ta Ti B 
 1.0000000000000000
     3.1240450000000002    0.0000000000000000    0.0000000000000000
     0.0000000000000000    3.2703850000000001    0.0000000000000000
     0.0000000000000000    0.0000000000000000    8.6688670000000005
 Ta  Ti  B  
   3   1   4
Cartesian
  0.0000000000000000  1.6351925000000000  5.5939418552969995
  1.5620225000000001  1.6351925000000000  3.0418880925659999
  1.5620225000000001  0.0000000000000000  7.4304153226459997
  0.0000000000000000  0.0000000000000000  1.2565349339160001
  0.0000000000000000  0.0000000000000000  3.7998504787109999
  0.0000000000000000  1.6351925000000000  8.1911777528320009
  1.5620225000000001  1.6351925000000000  0.5282114040440000
  1.5620225000000001  0.0000000000000000  4.8334654977220000
