Cs Au O 
 1.0000000000000000
     5.7187400000000004    0.0007260000000000    2.4582920000000001
     2.8603920000000000    7.2245759999999999    1.2287870000000001
     0.0078620000000000   -0.0003690000000000    7.8667790000000002
 Cs  Au  O  
   4   4   4
Cartesian
  2.0038772047319999  2.1689098152659998  3.2218144595479998
  4.8636464337499996  5.0565523818750000  4.4501603489999999
  3.7233475662499997  2.1683806181250000  7.1036976510000001
  6.5831167952680003  5.0560231847339994  8.3320435404520001
  4.8881649050400009  0.0005849934120000  4.3924146633440007
  2.8677159541599999  5.1192880313879998  9.0954886857760009
  5.7192780458400012  2.1056449686120002  2.4583693142240004
  3.6988290949600002  7.2243480065880004  7.1614433366560002
  4.9169566305200005  2.0336303122800001  4.3264043937199999
  2.0578697673900002  5.1919316485350002  3.0962997553040004
  0.8103842326100000  2.0322753514650000  5.9992662446960008
  3.6700373694800006  5.1913026877200004  7.2274536062800010
