Cs Li Ga F 
 1.0000000000000000
     3.1804380000000001   -5.5086800000000000    0.0000000000000000
     3.1804380000000001    5.5086800000000000    0.0000000000000000
     0.0000000000000000    0.0000000000000000    5.1795970000000002
 Cs  Li  Ga  F  
   2   1   1   6
Cartesian
  3.1804380000000001 -1.8362303391200001  3.7902736966900004
  3.1804380000000001  1.8362303391200001  1.3893233033100001
  0.0000000000000000  0.0000000000000000  2.5897985000000001
  0.0000000000000000  0.0000000000000000  0.0000000000000000
  1.3200598745280001 -0.7621368953600001  1.1876297961300000
  3.1804379999999997 -3.9844062092799999  1.1876297961300000
  5.0408161254720003 -0.7621368953599994  1.1876297961300000
  3.1804380000000001  3.9844062092799999  3.9919672038700003
  1.3200598745280001  0.7621368953600000  3.9919672038700003
  5.0408161254720003  0.7621368953599995  3.9919672038700003
