Cd Cl
 1.0000000000000000
     3.7534280000000000    0.0527350000000000    5.3055139999999996
     1.7254020000000001    3.3337659999999998    5.3055139999999996
     0.0853180000000000    0.0527350000000000    6.4984159999999997
 Cd  Cl 
   1   2
Cartesian
  0.0000000000000000  0.0000000000000000  0.0000000000000000
  4.1473656872040001  2.5635136550279993 12.7529176026119977
  1.4167823127960000  0.8757223449720000  4.3565263973879995
