Sc Al
 1.0000000000000000
     3.3806579999999999    0.0000000000000000    0.0000000000000000
     0.0000000000000000    3.3806579999999999    0.0000000000000000
     0.0000000000000000    0.0000000000000000    3.3806579999999999
 Sc  Al 
   1   1
Cartesian
  1.6903290000000000  1.6903290000000000  1.6903290000000000
  0.0000000000000000  0.0000000000000000  0.0000000000000000
