Pm Ru Au
 1.0000000000000000
     0.0000000000000000    3.5716209999999999    3.5716209999999999
     3.5716209999999999    0.0000000000000000    3.5716209999999999
     3.5716209999999999    3.5716209999999999    0.0000000000000000
 Pm  Ru  Au 
   2   1   1
Cartesian
  0.0000000000000000  0.0000000000000000  0.0000000000000000
  3.5716209999999999  3.5716209999999999  3.5716209999999999
  5.3574314999999997  5.3574314999999997  5.3574314999999997
  1.7858176432419999  1.7858176432419999  1.7858176432419999
