Zr Sb
 1.0000000000000000
     3.9340290000000002    0.0000000000000000    0.0000000000000000
     0.0000000000000000   10.0503269999999993    0.0000000000000000
     0.0000000000000000    0.0000000000000000   15.0529810000000008
 Zr  Sb 
   8  16
Cartesian
  1.9670145000000001  6.7232064479579998 14.9480015105059998
  1.9670145000000001  3.3271205520420000  0.1049794894940000
  0.0000000000000000  1.6980429479579999  7.6314699894940006
  0.0000000000000000  8.3522840520419983  7.4215110105060011
  0.0000000000000000  9.8482651756649986 11.2731925238810007
  0.0000000000000000  0.2020618243350000  3.7797884761190006
  1.9670145000000001  4.8231016756649998 11.3062789761189997
  1.9670145000000001  5.2272253243350004  3.7467020238810003
  0.0000000000000000  8.8794337535189989 14.1767921349330006
  0.0000000000000000  1.1708932464809998  0.8761888650670001
  1.9670145000000001  3.8542702535189997  8.4026793650669998
  1.9670145000000001  6.1960567464810001  6.6503016349330002
  0.0000000000000000  6.6612662826569995  9.9214498830619995
  0.0000000000000000  3.3890607173429994  5.1315311169379996
  1.9670145000000001  1.6361027826569998 12.6580216169380009
  1.9670145000000001  8.4142242173429995  2.3949593830620000
  1.9670145000000001  7.7519478693509996 12.0742369077960010
  1.9670145000000001  2.2983791306489998  2.9787440922040003
  0.0000000000000000  2.7267843693509999 10.5052345922039994
  0.0000000000000000  7.3235426306489995  4.5477464077960006
  1.9670145000000001  9.9301753407149995  9.0685479796020019
  1.9670145000000001  0.1201516592850000  5.9844330203980007
  0.0000000000000000  4.9050118407149998 13.5109235203980003
  0.0000000000000000  5.1453151592850004  1.5420574796020001
