Na B  N 
 1.0000000000000000
     7.8819330000000001    0.0000000000000000    0.0000000000000000
     0.0000000000000000    5.6718640000000002   -0.0040750000000000
     0.0000000000000000    2.8410430000000000    7.2717190000000000
 Na  B   N  
  12   4   8
Cartesian
  2.3014140889380004  3.7713887840250000  5.9127413366959995
  6.2423805889379995  6.1620397159750011  4.9907621633040007
  5.5805189110620006  4.7415182159750007  1.3549026633040000
  1.6395524110620001  2.3508672840250000  2.2768818366960000
  3.7795760398920000  6.8048108849009994  6.3808250908590001
  7.7205425398919996  3.1286176150989999  4.5226784091410002
  4.1023569601080005  1.7080961150990002  0.8868189091410000
  0.1613904601080000  5.3842893849009998  2.7449655908590000
  0.2473823491380000  7.0622611917270008  7.2102415661099997
  4.1883488491380003  2.8711673082729998  3.6932619338900001
  7.6345506508619998  1.4506458082729998  0.0574024338900000
  3.6935841508619998  5.6417396917270004  3.5743820661100001
  2.5373439894270002  4.9582498457310002  1.2797690307270000
  5.3445890105730003  3.5546571542690000  5.9878749692730002
  1.4036225105730000  6.3787713457309998  4.9156285307270000
  6.4783104894269998  2.1341356542690000  2.3520154692729998
  7.2904175741490000  3.1529994556240002  2.0061071687530001
  1.7366420617560001  5.9853930563429998  0.9357386856779999
  0.5915154258510000  5.3599075443760000  5.2615368312469997
  3.3494510741490005  3.9393860443760000  1.6256773312470001
  5.6776085617560001  1.1069924436570000  2.6960458143220003
  6.1452909382440000  2.5275139436570000  6.3319053143219994
  4.5324819258510001  4.5735209556239997  5.6419666687530006
  2.2043244382440004  7.4059145563430002  4.5715981856780008
