Hf B  Rh
 1.0000000000000000
     4.0952630000000001    0.0000000000000000    0.0000000000000000
     0.0000000000000000    4.0952630000000001    0.0000000000000000
     0.0000000000000000    0.0000000000000000    4.0952630000000001
 Hf  B   Rh 
   1   1   3
Cartesian
  0.0000000000000000  0.0000000000000000  0.0000000000000000
  2.0476315000000000  2.0476315000000000  2.0476315000000000
  0.0000000000000000  2.0476315000000000  2.0476315000000000
  2.0476315000000000  2.0476315000000000  0.0000000000000000
  2.0476315000000000  0.0000000000000000  2.0476315000000000
