Ca F 
 1.0000000000000000
     5.5135839999999998    0.0000000000000000    0.0000000000000000
     0.0000000000000000    5.5135839999999998    0.0000000000000000
     0.0000000000000000    0.0000000000000000    5.5135839999999998
 Ca  F  
   4   8
Cartesian
  0.0000000000000000  0.0000000000000000  0.0000000000000000
  0.0000000000000000  2.7567919999999999  2.7567919999999999
  2.7567919999999999  0.0000000000000000  2.7567919999999999
  2.7567919999999999  2.7567919999999999  0.0000000000000000
  4.1351879999999994  1.3783960000000000  1.3783960000000000
  1.3783960000000000  4.1351879999999994  4.1351879999999994
  4.1351879999999994  4.1351879999999994  4.1351879999999994
  1.3783960000000000  1.3783960000000000  1.3783960000000000
  1.3783960000000000  1.3783960000000000  4.1351879999999994
  4.1351879999999994  4.1351879999999994  1.3783960000000000
  1.3783960000000000  4.1351879999999994  1.3783960000000000
  4.1351879999999994  1.3783960000000000  4.1351879999999994
