Pr Ni P 
 1.0000000000000000
     3.6959190000000000    0.0000000000000000   -1.4204600000000001
    -0.5459290000000000    3.6553760000000000   -1.4204600000000001
     0.0067230000000000    0.0078030000000000    5.5359559999999997
 Pr  Ni  P  
   1   2   2
Cartesian
  0.0000000000000000  0.0000000000000000  0.0000000000000000
  2.6388185000000002  0.9177455000000000  1.3475179999999998
  0.5178945000000000  2.7454334999999999  1.3475179999999998
  1.1660393394409998  1.3531202864150000  3.0339298842519997
  1.9906736538359997  2.3100587057820001 -0.3388994202080002
