Eu Cl
 1.0000000000000000
     4.5153540000000003    0.0000000000000000    0.0000000000000000
     0.0000000000000000    7.4966819999999998    0.0000000000000000
     0.0000000000000000    0.0000000000000000    8.9772409999999994
 Eu  Cl 
   4   8
Cartesian
  1.1288385000000001  5.5950886372439994  3.4954503736879996
  3.3865155000000002  1.9015933627560000  5.4817906263119989
  1.1288385000000001  1.8467476372439999  0.9931701263119999
  3.3865155000000002  5.6499343627560004  7.9840708736880002
  1.1288385000000001  3.8912727390120003  5.9544782739260000
  3.3865155000000002  3.6054092609879995  3.0227627260739998
  1.1288385000000001  0.1429317390120000  7.5113832260739990
  3.3865155000000002  7.3537502609879999  1.4658577739259997
  3.3865155000000002  6.4330602545220001  5.1689696864260002
  1.1288385000000001  1.0636217454779999  3.8082713135739996
  3.3865155000000002  2.6847192545220002  8.2968918135739997
  1.1288385000000001  4.8119627454779996  0.6803491864260000
