Sr Mg H 
 1.0000000000000000
     1.9789650000000001    6.7378080000000002    0.0000000000000000
    -1.9789650000000001    6.7378080000000002    0.0000000000000000
     0.0000000000000000    0.0000000000000000    5.5762330000000002
 Sr  Mg  H  
   2   2   8
Cartesian
 -0.0000000000000000 11.4399894470400003  4.2080428948869999
 -0.0000000000000000  2.0356265529600002  1.4199263948870000
  0.0000000000000000  7.8829254208319997  3.9511848742080002
 -0.0000000000000000  5.5926905791679999  1.1630683742080001
 -0.0000000000000000  8.9751240976320013  5.4944910004530003
  0.0000000000000000  4.5004919023680001  2.7063745004530002
 -0.0000000000000000  9.4396285811520002  2.8345609446570004
  0.0000000000000000  4.0359874188480003  0.0464444446570000
  0.0000000000000000 12.4781509036800013  0.9903557094990001
 -0.0000000000000000  0.9974650963200000  3.7784722094989998
  0.0000000000000000  6.2177031248640002  4.8318783855290004
  0.0000000000000001  7.2579128751359994  2.0437618855289998
