Er B  Ru
 1.0000000000000000
     5.4570999999999996    0.0000000000000000    0.0000000000000000
    -2.7285499999999998    4.7259859999999998    0.0000000000000000
     0.0000000000000000    0.0000000000000000    3.0162969999999998
 Er  B   Ru 
   1   2   3
Cartesian
  0.0000000000000000  0.0000000000000000  0.0000000000000000
 -0.0000027285500001  3.1506589086619998  0.0000000000000000
  2.7285527285500000  1.5753270913380000  0.0000000000000000
  2.7285499999999998  0.0000000000000000  1.5081484999999999
  1.3642749999999999  2.3629929999999999  1.5081484999999999
 -1.3642749999999999  2.3629929999999999  1.5081484999999999
