Ti Co Si
 1.0000000000000000
     5.7489309999999998    0.0000000000000000    0.0000000000000000
     0.0000000000000000    5.7489309999999998    0.0000000000000000
     0.0000000000000000    0.0000000000000000    5.7489309999999998
 Ti  Co  Si 
   4   8   4
Cartesian
  0.0000000000000000  0.0000000000000000  2.8744654999999999
  0.0000000000000000  2.8744654999999999  0.0000000000000000
  2.8744654999999999  0.0000000000000000  0.0000000000000000
  2.8744654999999999  2.8744654999999999  2.8744654999999999
  4.3116982500000001  4.3116982500000001  1.4372327499999999
  1.4372327499999999  4.3116982500000001  1.4372327499999999
  4.3116982500000001  1.4372327499999999  4.3116982500000001
  1.4372327499999999  1.4372327499999999  4.3116982500000001
  1.4372327499999999  4.3116982500000001  4.3116982500000001
  4.3116982500000001  4.3116982500000001  4.3116982500000001
  1.4372327499999999  1.4372327499999999  1.4372327499999999
  4.3116982500000001  1.4372327499999999  1.4372327499999999
  0.0000000000000000  0.0000000000000000  0.0000000000000000
  0.0000000000000000  2.8744654999999999  2.8744654999999999
  2.8744654999999999  0.0000000000000000  2.8744654999999999
  2.8744654999999999  2.8744654999999999  0.0000000000000000
