Ti Pb O 
 1.0000000000000000
     3.8795519999999999    0.0000000000000000    0.0000000000000000
     0.0000000000000000    3.8795519999999999    0.0000000000000000
     0.0000000000000000    0.0000000000000000    4.2858879999999999
 Ti  Pb  O  
   1   1   3
Cartesian
  1.9397759999999999  1.9397759999999999  2.4965897624319999
  0.0000000000000000  0.0000000000000000  0.5296843261440000
  0.0000000000000000  1.9397759999999999  2.1179058423039998
  1.9397759999999999  0.0000000000000000  2.1179058423039998
  1.9397759999999999  1.9397759999999999  4.2678101244160001
