Y  Al Co
 1.0000000000000000
     3.7306370000000002   -6.3685919999999996    0.0000000000000000
     3.7306370000000002    6.3685919999999996    0.0000000000000000
     0.0000000000000000    0.0000000000000000    9.3327139999999993
 Y   Al  Co 
   4  18   6
Cartesian
  6.2118500929670004 -2.0463750872159991  2.3331784999999998
  1.2494239070330002  2.0463750872160000  6.9995354999999995
  6.2118500929670004  2.0463750872159996  2.3331784999999998
  1.2494239070330002 -2.0463750872160000  6.9995354999999995
  0.9326965563700000  0.0000000000000000  2.3331784999999998
  6.5285774436299997  0.0000000000000002  6.9995354999999995
  2.4788068321020003 -0.0000000000000001  5.0582749917159990
  4.9824671678980001  0.0000000000000002  0.3919179917159999
  2.4788068321020003 -0.0000000000000001  8.9407960082839999
  4.9824671678980001  0.0000000000000002  4.2744390082840003
  3.3274819819580004  1.3672220677440001  2.3331784999999998
  4.1337920180420005 -1.3672220677440006  6.9995354999999995
  3.3274819819580004 -1.3672220677440001  2.3331784999999998
  4.1337920180420005  1.3672220677440001  6.9995354999999995
  4.9745582174580001 -4.2230770411199998  0.6607281530579999
  2.4867157825420003  4.2230770411199998  5.3270851530579995
  4.9745582174580001  4.2230770411199998  4.0056288469419998
  2.4867157825420003 -4.2230770411199998  8.6719858469419986
  2.4867157825420003  4.2230770411199998  8.6719858469419986
  4.9745582174580001 -4.2230770411199998  4.0056288469419998
  2.4867157825420003 -4.2230770411199998  5.3270851530579995
  4.9745582174580001  4.2230770411199998  0.6607281530579999
  0.0000000000000000  0.0000000000000000  0.0000000000000000
  0.0000000000000000  0.0000000000000000  4.6663569999999996
  3.7306370000000002 -2.1761224120319995  0.0000000000000000
  3.7306370000000002  2.1761224120320000  4.6663569999999996
  3.7306370000000002  2.1761224120320000  0.0000000000000000
  3.7306370000000002 -2.1761224120319995  4.6663569999999996
