Ho Si Os
 1.0000000000000000
     3.8787690000000001    0.0000000000000000   -1.5222199999999999
    -0.5973940000000000    3.8324889999999998   -1.5222199999999999
    -0.0360620000000000   -0.0421180000000000    5.6109700000000000
 Ho  Si  Os 
   1   2   2
Cartesian
  0.0000000000000000  0.0000000000000000  0.0000000000000000
  2.0555506220830000  2.4007849556809999 -0.4651120084699998
  1.1897623779169999  1.3895860443189998  3.0316420084700000
  0.5036157500000000  2.8533077499999999  1.2832650000000001
  2.7416972500000001  0.9370632499999999  1.2832650000000001
