Hf C  S 
 1.0000000000000000
     3.3735149999999998    0.0000000000000000    0.0000000000000000
    -1.6867570000000001    2.9215490000000002    0.0000000000000000
     0.0000000000000000    0.0000000000000000   11.9869900000000005
 Hf  C   S  
   4   2   2
Cartesian
 -0.0000013534240002  1.9477003071830001  4.8003100154000000
  1.6867593534240000  0.9738486928170000 10.7938050154000003
  1.6867593534240000  0.9738486928170000  7.1866799845999996
 -0.0000013534240002  1.9477003071830001  1.1931849846000000
  0.0000000000000000  0.0000000000000000  5.9934950000000002
  0.0000000000000000  0.0000000000000000  0.0000000000000000
  1.6867593534240000  0.9738486928170000  2.9967475000000001
 -0.0000013534240002  1.9477003071830001  8.9902425000000008
