In
 1.0000000000000000
     3.3369309999999999    0.0000000000000000    0.0000000000000000
     0.0000000000000000    3.3369309999999999    0.0000000000000000
     0.0000000000000000    0.0000000000000000    4.9558130000000000
 In 
   2
Cartesian
  0.0000000000000000  0.0000000000000000  0.0000000000000000
  1.6684654999999999  1.6684654999999999  2.4779065000000000
