Ta V  Ru
 1.0000000000000000
     0.0000010000000000    3.1506980000000002    3.1506970000000001
     3.1506989999999999    0.0000020000000000    3.1506959999999999
     3.1506989999999999    3.1506970000000001    0.0000010000000000
 Ta  V   Ru 
   2   1   1
Cartesian
  0.0000000000000000  0.0000000000000000  0.0000000000000000
  3.1507026506989999  3.1507016506970000  3.1506970000010002
  4.7260524006999995  4.7260509007000007  4.7260518013930000
  1.5753560513989997  1.5753555513969999  1.5753548013939997
