Sr Si N 
 1.0000000000000000
     3.2429830000000002    5.0737340000000000    0.0057290000000000
    -3.2429830000000002    5.0737340000000000    0.0057290000000000
     0.0000000000000000    2.3736079999999999   13.1768520000000002
 Sr  Si  N  
  10   4  12
Cartesian
  0.7376813430100000  6.8539399999999997  9.8883679999999998
 -0.7376813430100000  5.6671360000000002  3.2999420000000002
 -1.5275844412690001  6.8358976527660005 13.1191288337650001
 -1.5275844412690001  6.8719823472339998  6.6576071662349996
  1.5275844412689998  5.6851783472340003  0.0691811662350000
  1.5275844412690003  5.6490936527660001  6.5307028337649999
  0.4958196708700001 10.2688279545120018  9.4237503654319994
  0.4958196708700000  3.4390520454880003 10.3529856345680003
 -0.4958196708700000  2.2522480454879998  3.7645596345679997
 -0.4958196708699999  9.0820239545119996  2.8353243654319997
 -0.8778949559980000  3.6426755789520002  7.5681561055400008
 -0.8778949559980003 10.0652044210479996 12.2085798944599997
  0.8778949559980000  8.8784004210479992  5.6201538944600005
  0.8778949559979999  2.4558715789520003  0.9797301055400001
 -0.3613785676219999  5.0530242963359999  8.4856038513200005
 -0.3613785676220002  8.6548557036639995 11.2911321486799991
  0.3613785676220000  7.4680517036640000  4.7027061486799999
  0.3613785676220000  3.8662202963360000  1.8971778513199999
  0.5419640759769996  8.6513173647940000  7.3642895777510002
  0.5419640759770000  5.0565626352059994 12.4124464222489994
 -0.5419640759770000  3.8697586352060003  5.8240204222490002
 -0.5419640759769997  7.4645133647939996  0.7758635777510000
 -0.3341537253370000  2.1485087553179998  8.2414344892970011
 -0.3341537253370000 11.5593712446819996 11.5353015107030004
  0.3341537253369999 10.3725672446819992  4.9468755107030002
  0.3341537253370000  0.9617047553180000  1.6530084892970001
