Ti Ir
 1.0000000000000000
     5.0174310000000002    0.0000000000000000    0.0000000000000000
     0.0000000000000000    5.0174310000000002    0.0000000000000000
     0.0000000000000000    0.0000000000000000    5.0174310000000002
 Ti  Ir 
   6   2
Cartesian
  2.5087155000000001  1.2543577500000000  0.0000000000000000
  2.5087155000000001  3.7630732500000001  0.0000000000000000
  1.2543577500000000  0.0000000000000000  2.5087155000000001
  3.7630732500000001  0.0000000000000000  2.5087155000000001
  0.0000000000000000  2.5087155000000001  1.2543577500000000
  0.0000000000000000  2.5087155000000001  3.7630732500000001
  2.5087155000000001  2.5087155000000001  2.5087155000000001
  0.0000000000000000  0.0000000000000000  0.0000000000000000
