Al Cd Te
 1.0000000000000000
     5.7127590000000001    0.0000610000000000   -2.5232410000000001
    -1.1145140000000000    5.6030139999999999   -2.5231859999999999
    -0.1463020000000000   -0.1783430000000000    7.3973839999999997
 Al  Cd  Te 
   2   1   4
Cartesian
  0.5191532500000000  4.1131042500000001  1.1754922500000000
  2.2991225000000002  2.8015374999999998 -2.5232134999999998
  0.0000000000000000  0.0000000000000000  0.0000000000000000
  1.8505192395240002  2.1627612350860002 -0.0044530462800000
 -0.0719769342160001  3.1877917739660004  3.5761179888359997
  3.2014609757820001  0.6254733344879999  3.5093026471859998
  3.9238690643640006  4.8734488623659997 -2.3790535896320004
