Ho P  Ru
 1.0000000000000000
     3.7554240000000001   -0.0000000000000000   -1.4645570000000001
    -0.5711550000000000    3.7117369999999998   -1.4645570000000001
    -0.0074580000000000   -0.0086940000000000    5.5279900000000000
 Ho  P   Ru 
   1   2   2
Cartesian
  0.0000000000000000  0.0000000000000000  0.0000000000000000
  1.1888655118889997  1.3857983364369997  3.0484930858579999
  1.9879454881109997  2.3172446635629997 -0.4496170858580001
  2.6700502500000005  0.9235872500000000  1.2994379999999999
  0.5067607500000001  2.7794557499999999  1.2994379999999999
