Ce B  Rh
 1.0000000000000000
     5.4953820000000002   -0.0000080000000000    0.0000000000000000
    -2.7476980000000002    4.7591299999999999    0.0000000000000000
     0.0000000000000000    0.0000000000000000    3.0597780000000001
 Ce  B   Rh 
   1   2   3
Cartesian
  0.0000000000000000  0.0000000000000000  0.0000000000000000
  0.0000475395020003  3.1727236982099996  0.0000000000000000
  2.7476364604980001  1.5863983017899999  0.0000000000000000
  2.7476910000000001 -0.0000040000000000  1.5298890000000001
  1.3738420000000000  2.3795609999999998  1.5298890000000001
 -1.3738490000000001  2.3795649999999999  1.5298890000000001
