Cs Ti Cl
 1.0000000000000000
     7.4011560000000003    0.0000000000000000    0.0000000000000000
    -3.7005770000000000    6.4095899999999997    0.0000000000000000
     0.0000000000000000    0.0000000000000000    5.9238270000000002
 Cs  Ti  Cl 
   2   2   6
Cartesian
  3.7005820339110005  2.1365278634700000  1.4810219120969998
 -0.0000030339109998  4.2730621365300001  4.4428050879030003
  0.0000000000000000  0.0000000000000000  2.9619135000000001
  0.0000000000000000  0.0000000000000000  0.0000000000000000
  3.7005823796049997  4.3522846689300003  4.4426096016120002
 -1.9188931760289998  5.3809341296699991  1.4812173983879999
  1.9189022562110010  5.3809341296699991  1.4812173983879999
  1.7816767437890000  1.0286558703299999  4.4426096016120002
  0.0000040215510000  2.0573053310699998  1.4812173983879999
  5.6194795771849995  1.0286558703299999  4.4426096016120002
