Pm Zn Ge
 1.0000000000000000
     0.0000000000000000    3.6337560000000000    3.6337560000000000
     3.6337560000000000    0.0000000000000000    3.6337560000000000
     3.6337560000000000    3.6337560000000000    0.0000000000000000
 Pm  Zn  Ge 
   2   1   1
Cartesian
  3.6337560000000000  3.6337560000000000  3.6337560000000000
  0.0000000000000000  0.0000000000000000  0.0000000000000000
  5.4506412675120002  5.4506412675120002  5.4506412675120002
  1.8168852675119997  1.8168852675119997  1.8168852675119997
