Mg Ni B 
 1.0000000000000000
     4.8439519999999998    0.0000000000000000    0.0000000000000000
    -2.4219759999999999    4.1949850000000000    0.0000000000000000
     0.0000000000000000    0.0000000000000000    8.6941419999999994
 Mg  Ni  B  
   3   9   6
Cartesian
  0.0000000000000000  0.0000000000000000  5.7960975647139996
  0.0000000000000000  0.0000000000000000  0.0000000000000000
  0.0000000000000000  0.0000000000000000  2.8980444352859998
  2.4219759999999999  0.0000000000000000  6.8892728973679995
  1.2109880000000000  2.0974925000000000  7.6009666673459995
  1.2109880000000000  2.0974925000000000  3.9912284620819998
 -1.2109880000000000  2.0974925000000000  7.2451154352859994
 -1.2109880000000000  2.0974925000000000  1.0931753326539999
  1.2109880000000000  2.0974925000000000  1.4490265647139999
  2.4219759999999999  0.0000000000000000  1.8048691026319998
 -1.2109880000000000  2.0974925000000000  4.7029135379179996
  2.4219759999999999  0.0000000000000000  4.3470709999999997
  2.4219808439520003  0.9509275897699999  0.0000000000000000
  2.8094388765279996  1.6220245101299999  2.8980444352859998
 -0.3874628765280002  2.5729604898700003  2.8980444352859998
  2.0345228113760001  1.6220245101299999  5.7960975647139996
  0.3874531886239998  2.5729604898700003  5.7960975647139996
 -0.0000048439519999  3.2440574102299999  0.0000000000000000
