Ba Te
 1.0000000000000000
     6.1695599999999997   -0.0251940000000000   -2.9929589999999999
    -3.7427180000000000    5.6793360000000002   -0.8712700000000000
    -0.0166020000000000    0.0251940000000000    6.8571850000000003
 Ba  Te 
   2   4
Cartesian
 -2.8194900000000001  4.2783975000000005  4.4894362500000007
 -0.9398299999999999  1.4261325000000000  1.4964787500000001
  0.0294146825599998  2.0829341435760003  4.9250679152360002
 -0.1592450264600002  4.9100051687700006  2.1124152295750003
  2.3808253174399994  3.5964018564239999 -1.9321119152359998
  2.5694850264599998  0.7693308312299999  0.8805407704250001
