Cs Er S 
 1.0000000000000000
     8.1391989999999996   -2.0208320000000000    0.0089030000000000
     8.1391989999999996    2.0208320000000000    0.0089030000000000
     7.6336709999999997    0.0000000000000000    3.4723860000000002
 Cs  Er  S  
   1   1   2
Cartesian
  0.0000000000000000  0.0000000000000000  0.0000000000000000
 11.9560344999999995  0.0000000000000000  1.7450960000000002
  5.4192161095389997  0.0000000000000000  0.7909857031520000
 18.4928528904609983 -0.0000000000000001  2.6992062968480002
