Ti Rh
 1.0000000000000000
     3.0519900000000000    0.0000000000000000   -0.0000000000000000
     0.0000000000000000    3.0519900000000000   -0.0000000000000000
    -1.5259959999999999   -1.5259959999999999    4.9079680000000003
 Ti  Rh 
   2   1
Cartesian
  1.5259916248520000  1.5259916248520000  1.5860491229440001
  0.0000023751480000  0.0000023751480000  3.3219188770560004
  0.0000000000000000  0.0000000000000000  0.0000000000000000
