Hf Ge S 
 1.0000000000000000
     3.6129530000000001    0.0000000000000000    0.0000000000000000
     0.0000000000000000    3.6129530000000001    0.0000000000000000
     0.0000000000000000    0.0000000000000000    7.9337640000000000
 Hf  Ge  S  
   2   2   2
Cartesian
  2.7097147499999998  2.7097147499999998  5.7613883441039997
  0.9032382500000000  0.9032382500000000  2.1723756558959999
  0.9032382500000000  2.7097147499999998  0.0000000000000000
  2.7097147499999998  0.9032382500000000  0.0000000000000000
  2.7097147499999998  2.7097147499999998  3.0137116592759998
  0.9032382500000000  0.9032382500000000  4.9200523407240002
