Li Ca Sn
 1.0000000000000000
     4.9269249999999998    0.0000000000000000    0.0000000000000000
    -2.4634619999999998    4.2668429999999997    0.0000000000000000
     0.0000000000000000    0.0000000000000000   10.8208900000000003
 Li  Ca  Sn 
   3   3   3
Cartesian
 -0.0000021301290000  2.8445634222809999  8.6472437212499997
  2.4634651301289998  1.4222795777189998  5.3504972693999999
 -0.0000021301290000  2.8445634222809999  2.0703717045899999
  0.0000000000000000  0.0000000000000000  3.5490896066500004
  0.0000000000000000  0.0000000000000000  7.1657556713500004
  0.0000000000000000  0.0000000000000000 10.7683978626099996
 -0.0000021301290000  2.8445634222809999  5.3591648022900005
  2.4634651301289998  1.4222795777189998  1.5581107719900000
  2.4634651301289998  1.4222795777189998  9.1596669671999997
