Ba Sn
 1.0000000000000000
     4.7151389999999997    0.0000000000000000    0.0000000000000000
     0.0000000000000000    4.9380649999999999   -2.1002100000000001
     0.0000000000000000    0.0212980000000000    6.9054310000000001
 Ba  Sn 
   2   2
Cartesian
  1.1787847499999999  4.2840999661990002  3.2175397446580001
  3.5363542499999996  0.6752630338010001  1.5876812553420001
  1.1787847499999999  2.8279289703379997 -0.2062588381840001
  3.5363542499999996  2.1314340296620000  5.0114798381840000
