La Mg Ga
 1.0000000000000000
     7.5639079999999996   -0.0000000000000000    0.0000000000000000
    -3.7819550000000000    6.5505380000000004    0.0000000000000000
     0.0000000000000000    0.0000000000000000    4.6339249999999996
 La  Mg  Ga 
   3   3   3
Cartesian
 -2.1849072606449997  3.7843702628220002  0.0000000000000000
  1.5970468947930001  2.7661677371780002  0.0000000000000000
  4.3698133658520000  0.0000000000000000  0.0000000000000000
 -0.9167685837300000  1.5878897144280002  2.3169624999999998
  2.8651849010819999  4.9626482855720004  2.3169624999999998
  1.8335366826480000  0.0000000000000000  2.3169624999999998
 -0.0000044486210004  4.3670275168460000  2.3169624999999998
  3.7819574486209997  2.1835104831540000  2.3169624999999998
  0.0000000000000000  0.0000000000000000  0.0000000000000000
