Dy
 1.0000000000000000
     3.6406220000000000   -0.0000000000000000    0.0000000000000000
    -1.8203119999999999    3.1528710000000002    0.0000000000000000
     0.0000000000000000    0.0000000000000000    5.5764370000000003
 Dy 
   2
Cartesian
 -0.0000024869780000  2.1019150509570004  1.3941092500000001
  1.8203124869780003  1.0509559490430000  4.1823277500000007
