Er V  Ga
 1.0000000000000000
     4.5229809999999997    0.0000000000000000    2.5435279999999998
     2.2614909999999999    4.6326450000000001    1.2717639999999999
    -0.0092760000000000    0.0000000000000000    5.3097130000000003
 Er  V   Ga 
   1   2   4
Cartesian
  0.0000000000000000  0.0000000000000000  0.0000000000000000
  4.5183432500000000  2.3163225000000001  5.1983844999999995
  2.2568527500000002  2.3163225000000001  3.9266205000000003
  4.5229858262380001  2.8097640495300000  2.5435305435280000
  2.2614861737620000  1.8228809504700001  1.2717614564719999
  3.1457338500000001  0.0000000000000000  4.9926031433140006
  1.3679711500000000  0.0000000000000000  2.8606378566860000
