Na Sm S 
 1.0000000000000000
    -2.0303070000000001   -3.5165959999999998    0.0000000000000000
    -4.0606150000000003    0.0000000000000000    0.0000000000000000
    -2.0303070000000001   -1.1721980000000001   -6.6194810000000004
 Na  Sm  S  
   1   1   2
Cartesian
 -4.0606145000000007 -2.3443969999999998 -3.3097405000000002
  0.0000000000000000  0.0000000000000000  0.0000000000000000
 -6.0909136233660002 -3.5165908003959996 -5.0719390149340002
 -2.0303153766340003 -1.1722031996040001 -1.5475419850660002
