Li W  N 
 1.0000000000000000
     6.6435659999999999    0.0000000000000000    0.0000000000000000
     0.0000000000000000    6.6435659999999999    0.0000000000000000
     0.0000000000000000    0.0000000000000000    4.8750030000000004
 Li  W   N  
  12   2   8
Cartesian
  4.7414200442760004  1.9021459557240001  2.4375015000000002
  5.2239289557239994  5.2239289557239994  0.0000000000000000
  1.4196370442759998  1.4196370442759998  0.0000000000000000
  1.9021459557240001  4.7414200442760004  2.4375015000000002
  5.2239289557239994  1.4196370442759998  0.0000000000000000
  4.7414200442760004  4.7414200442760004  2.4375015000000002
  1.9021459557240001  1.9021459557240001  2.4375015000000002
  1.4196370442759998  5.2239289557239994  0.0000000000000000
  3.3217829999999999  0.0000000000000000  4.4904140133300006
  3.3217829999999999  0.0000000000000000  2.0529125133299999
  0.0000000000000000  3.3217829999999999  0.3845889866700000
  0.0000000000000000  3.3217829999999999  2.8220904866700005
  0.0000000000000000  0.0000000000000000  2.4375015000000002
  3.3217829999999999  3.3217829999999999  0.0000000000000000
  3.3217829999999999  1.7112297995820001  0.9773796014640000
  3.3217829999999999  4.9323362004180007  0.9773796014640000
  1.6105532004179999  0.0000000000000000  3.4148811014640001
  5.0330127995819991  0.0000000000000000  3.4148811014640001
  1.7112297995820001  3.3217829999999999  3.8976233985360005
  0.0000000000000000  1.6105532004179999  1.4601218985360001
  0.0000000000000000  5.0330127995819991  1.4601218985360001
  4.9323362004180007  3.3217829999999999  3.8976233985360005
