Dy P 
 1.0000000000000000
     3.4685709999999998    0.0000000000000000    2.0025810000000002
     1.1561900000000001    3.2701989999999999    2.0025810000000002
     0.0000000000000000    0.0000000000000000    4.0051600000000001
 Dy  P  
   1   1
Cartesian
  0.0000000000000000  0.0000000000000000  0.0000000000000000
  2.3123804999999997  1.6350994999999999  4.0051610000000002
