Hf Al
 1.0000000000000000
     6.8403799999999997    0.0000000000000000    0.0000000000000000
     0.0000000000000000    6.8403799999999997    0.0000000000000000
     0.0000000000000000    0.0000000000000000    5.2394759999999998
 Hf  Al 
   8   4
Cartesian
  1.0352846726200000  2.3849053273799998  2.6197379999999999
  2.3849053273799998  5.8050953273800001  2.6197379999999999
  2.3849053273799998  1.0352846726200000  0.0000000000000000
  1.0352846726200000  4.4554746726199994  0.0000000000000000
  4.4554746726199994  5.8050953273800001  0.0000000000000000
  5.8050953273800001  2.3849053273799998  0.0000000000000000
  5.8050953273800001  4.4554746726199994  2.6197379999999999
  4.4554746726199994  1.0352846726200000  2.6197379999999999
  0.0000000000000000  0.0000000000000000  3.9296069999999999
  0.0000000000000000  0.0000000000000000  1.3098690000000000
  3.4201899999999998  3.4201899999999998  1.3098690000000000
  3.4201899999999998  3.4201899999999998  3.9296069999999999
