Mn Al B 
 1.0000000000000000
     2.8129599999999999    0.0000000000000000    0.0000000000000000
     0.0000000000000000    2.7764940000000000   -0.7317129999999999
     0.0000000000000000    0.0168170000000000    5.6973989999999999
 Mn  Al  B  
   2   1   2
Cartesian
  1.4064800000000000  0.9945689489610000  3.7739167298540002
  1.4064800000000000  1.7987420510390002  1.1917692701459999
  0.0000000000000000  0.0000000000000000  0.0000000000000000
  0.0000000000000000  2.2164900928970002  2.7769335548739997
  0.0000000000000000  0.5768209071030000  2.1887524451259996
