Pr I 
 1.0000000000000000
    11.1435540000000000    0.0000000000000000    0.0000000000000000
    -5.5717739999999996    9.6505989999999997    0.0000000000000000
     0.0000000000000000    0.0000000000000000    4.1720189999999997
 Pr  I  
   2   6
Cartesian
 -0.0000035717760001  6.4337358835330001  3.1290100779809995
  5.5717835717759998  3.2168631164669996  1.0429964059619998
  0.0000012584340000  4.0482139673219999  1.0429964059619998
  2.0659281339480007  7.6264823657399994  1.0429964059619998
 -2.0659233923879996  7.6264823657399994  1.0429964059619998
  5.5717787415660007  5.6023850326779998  3.1290100779809995
  3.5058574378259997  2.0241069836609999  3.1290100779809995
  7.6377089641620000  2.0241069836609999  3.1290100779809995
