Nb Cr
 1.0000000000000000
     6.9576440000000002    0.0000000000000000    0.0000000000000000
     0.0000000000000000    6.9576440000000002    0.0000000000000000
     0.0000000000000000    0.0000000000000000    6.9576440000000002
 Nb  Cr 
   8  16
Cartesian
  6.0879384999999999  6.0879384999999999  6.0879384999999999
  0.8697055000000000  4.3485275000000003  4.3485275000000003
  6.0879384999999999  2.6091164999999998  2.6091164999999998
  0.8697055000000000  0.8697055000000000  0.8697055000000000
  2.6091164999999998  6.0879384999999999  2.6091164999999998
  4.3485275000000003  4.3485275000000003  0.8697055000000000
  2.6091164999999998  2.6091164999999998  6.0879384999999999
  4.3485275000000003  0.8697055000000000  4.3485275000000003
  1.7394110000000000  3.4788220000000001  1.7394110000000000
  3.4788220000000001  3.4788220000000001  3.4788220000000001
  0.0000000000000000  5.2182329999999997  1.7394110000000000
  5.2182329999999997  5.2182329999999997  3.4788220000000001
  1.7394110000000000  0.0000000000000000  5.2182329999999997
  3.4788220000000001  0.0000000000000000  0.0000000000000000
  0.0000000000000000  1.7394110000000000  5.2182329999999997
  5.2182329999999997  1.7394110000000000  0.0000000000000000
  5.2182329999999997  3.4788220000000001  5.2182329999999997
  0.0000000000000000  3.4788220000000001  0.0000000000000000
  3.4788220000000001  5.2182329999999997  5.2182329999999997
  1.7394110000000000  5.2182329999999997  0.0000000000000000
  5.2182329999999997  0.0000000000000000  1.7394110000000000
  0.0000000000000000  0.0000000000000000  3.4788220000000001
  3.4788220000000001  1.7394110000000000  1.7394110000000000
  1.7394110000000000  1.7394110000000000  3.4788220000000001
