As Rh
 1.0000000000000000
     3.4889850000000000    0.0000000000000000    2.0143680000000002
     1.1629950000000000    3.2894470000000000    2.0143680000000002
     0.0000000000000000    0.0000000000000000    4.0287340000000000
 As  Rh 
   1   2
Cartesian
  0.0000000000000000  0.0000000000000000  0.0000000000000000
  1.1629950000000000  0.8223617500000000  2.0143675000000001
  3.4889850000000000  2.4670852500000002  6.0431024999999998
