Zr S 
 1.0000000000000000
     3.6913819999999999    0.0000000000000000    0.0000000000000000
    -1.8456910000000000    3.1968310000000000    0.0000000000000000
     0.0000000000000000    0.0000000000000000    6.0410769999999996
 Zr  S  
   1   2
Cartesian
  0.0000000000000000  0.0000000000000000  0.0000000000000000
  1.8456928456910000  1.0656092677230000  4.6038443709300001
 -0.0000018456910000  2.1312217322770000  1.4372326290699999
