Pb C  O 
 1.0000000000000000
     5.1869360000000002    0.0000000000000000    0.0000000000000000
     0.0000000000000000    6.0650190000000004    0.0000000000000000
     0.0000000000000000    0.0000000000000000    8.5429569999999995
 Pb  C   O  
   4   4  12
Cartesian
  1.2967340000000001  4.5787375738980005  7.8259124471619996
  3.8902020000000004  1.4862814261020001  0.7170445528379999
  1.2967340000000001  1.5462280738980001  4.9885230528379996
  3.8902020000000004  4.5187909261020005  3.5544339471619999
  1.2967340000000001  5.5297022280030008  2.2031175518589996
  3.8902020000000004  0.5353167719970000  6.3398394481409994
  1.2967340000000001  2.4971927280030002  2.0683609481409997
  3.8902020000000004  3.5678262719970002  6.4745960518589998
  2.4164378743200001  2.4818846200469999  2.7187789793359998
  5.0099058743200002  3.5831343799530000  5.8241694777069997
  0.1770301256800000  5.5143941200470010  1.5526995206640000
  2.7704981256800001  0.5506248799530000  6.9902660222929995
  3.8902020000000004  3.6167345852130004  7.7657187721399996
  1.2967340000000001  2.4482844147870000  0.7772382278600000
  3.8902020000000004  0.5842250852130000  5.0487167278599996
  1.2967340000000001  5.4807939147870002  3.4942402721399999
  2.7704981256800001  3.5831343799530000  5.8241694777069997
  0.1770301256800000  2.4818846200469999  2.7187789793359998
  5.0099058743200002  0.5506248799530000  6.9902660222929995
  2.4164378743200001  5.5143941200470010  1.5526995206640000
