Zr Ni H 
 1.0000000000000000
     3.3249409999999999    0.0000000000000000   -1.1199450000000000
     0.0000000000000000    4.2928850000000001    0.0000000000000000
     0.0083530000000000    0.0000000000000000    5.5203769999999999
 Zr  Ni  H  
   2   2   6
Cartesian
  2.8708334550820003  1.0732212500000000  3.0274670004400002
  0.4624605449180000  3.2196637500000000  1.3729649995600000
  1.8936723809890001  1.0732212500000000  0.1264339534690000
  1.4396216190109998  3.2196637500000000  4.2739980465310001
  2.2868271587739999  4.2864800155799996  1.2936358539919999
  1.0464668412260001  0.0064049844200000  3.1067961460079996
  1.0464668412260001  2.1400375155800000  3.1067961460079996
  2.2868271587739999  2.1528474844200001  1.2936358539919999
  0.2309880072280000  1.0732212500000000  0.6857660013160001
  3.1023059927720000  3.2196637500000000  3.7146659986839996
