Li N 
 1.0000000000000000
     3.6097269999999999    0.0000000000000000    0.0000000000000000
    -1.8048640000000000    3.1261160000000001    0.0000000000000000
     0.0000000000000000    0.0000000000000000    3.8546390000000001
 Li  N  
   3   1
Cartesian
  0.0000000000000000  0.0000000000000000  1.9273195000000001
 -0.0000021381970001  2.0840783753720000  0.0000000000000000
  1.8048651381970000  1.0420376246280001  0.0000000000000000
  0.0000000000000000  0.0000000000000000  0.0000000000000000
