Nd Hg
 1.0000000000000000
     4.9917819999999997    0.0000000000000000    0.0000000000000000
    -2.4958920000000000    4.3230110000000002    0.0000000000000000
     0.0000000000000000    0.0000000000000000    3.5213500000000000
 Nd  Hg 
   1   2
Cartesian
  0.0000000000000000  0.0000000000000000  0.0000000000000000
  2.4958931625580001  1.4410022256630000  1.7604672403500001
 -0.0000031625580002  2.8820087743370002  1.7608827596500001
