Zr Ge
 1.0000000000000000
     3.6965290000000000    0.0000000000000000   -0.9284540000000000
     0.0000000000000000    3.7743389999999999    0.0000000000000000
     0.0064480000000000    0.0000000000000000    7.8485490000000002
 Zr  Ge 
   2   4
Cartesian
  0.3944305597560000  2.8307542500000000  1.5703559081609999
  3.3085464402440001  0.9435847500000000  5.3497390918390000
  1.6410422204940001  2.8307542500000000  6.5336421139590000
  2.0619347795060001  0.9435847500000000  0.3864528860410000
  0.9280239593960001  0.9435847500000000  3.6948350530180001
  2.7749530406040002  2.8307542500000000  3.2252599469820002
