Ac Ni Ir
 1.0000000000000000
    -0.0000320000000000    3.6880809999999999    3.6880809999999999
     3.6880820000000001   -0.0000320000000000    3.6880809999999999
     3.6880809999999999    3.6880809999999999   -0.0000320000000000
 Ac  Ni  Ir 
   2   1   1
Cartesian
  3.6880581238690002  3.6880576238700002  3.6880576238700002
  7.3761310000000000  7.3761299999999999  7.3761299999999999
  5.5321056261310000  5.5321048761300000  5.5321048761300000
  1.8440327500000000  1.8440325000000000  1.8440325000000000
