Sr Cu Si
 1.0000000000000000
     3.8891330000000002    0.0000000000000000   -1.5059979999999999
    -0.5831710000000000    3.8451599999999999   -1.5059979999999999
    -0.0039850000000000   -0.0046350000000000    5.7644110000000000
 Sr  Cu  Si 
   1   2   2
Cartesian
  0.0000000000000000  0.0000000000000000  0.0000000000000000
  2.7690644999999998  0.9589725000000000  1.3762075000000000
  0.5329125000000001  2.8815524999999997  1.3762075000000000
  2.0626014924059999  2.3990090363999994 -0.4481711314999999
  1.2393755075939998  1.4415159635999999  3.2005861315000002
