Ho Ga Pd
 1.0000000000000000
     2.1965279999999998    5.0295329999999998    0.0000000000000000
    -2.1965279999999998    5.0295329999999998    0.0000000000000000
     0.0000000000000000    0.0000000000000000    6.5453109999999999
 Ho  Ga  Pd 
   2   4   2
Cartesian
 -0.0000000000000000  4.1420216068200002  1.6363277500000000
 -0.0000000000000001  5.9170343341139997  4.9089832500000004
  0.0000000000000000  1.2796137858599999  0.3560649184000000
  0.0000000000000000  8.7794421550739994  3.6287269637110002
  0.0000000000000000  8.7794421550739994  6.1892460815999994
  0.0000000000000000  1.2796137858599999  2.9165840362890001
 -0.0000000000000000  7.0550667660239998  1.6363277500000000
  0.0000000000000000  3.0039992339760002  4.9089832500000004
