Ti Re Ni
 1.0000000000000000
     0.0000000000000000    3.0558149999999999    3.0558149999999999
     3.0558149999999999    0.0000000000000000    3.0558149999999999
     3.0558149999999999    3.0558149999999999    0.0000000000000000
 Ti  Re  Ni 
   2   1   1
Cartesian
  3.0558149999999999  3.0558149999999999  3.0558149999999999
  0.0000000000000000  0.0000000000000000  0.0000000000000000
  4.5837225000000004  4.5837225000000004  4.5837225000000004
  1.5279136116299998  1.5279136116299998  1.5279136116299998
