Ba Dy Cu Te
 1.0000000000000000
     4.4393840000000004    0.0000000000000000    0.0000000000000000
    -2.2196920000000002    7.4989039999999996    0.0000000000000000
     0.0000000000000000    0.0000000000000000   11.4350579999999997
 Ba  Dy  Cu  Te 
   2   2   2   6
Cartesian
 -0.0000000000000001  3.7602054283360000  2.8587644999999999
  2.2196920000000002  3.7386985716640000  8.5762935000000002
  2.2196920000000002  0.0000000000000000  5.7175289999999999
  2.2196920000000002  0.0000000000000000  0.0000000000000000
  0.0000000000000000  0.4814446346079999  8.5762935000000002
  2.2196920000000002  7.0174593653919999  2.8587644999999999
  2.2196920000000002  5.4584222259839992  5.0182523331839999
 -0.0000000000000000  2.0404817740159999  6.4168056668159998
 -0.0000000000000000  2.0404817740159999 10.7357813331840006
  2.2196920000000002  5.4584222259839992  0.6992766668160000
  0.0000000000000000  6.4425483913279997  8.5762935000000002
  2.2196920000000002  1.0563556086719998  2.8587644999999999
