Mg Se O 
 1.0000000000000000
     4.9174810000000004   -0.0020840000000000    0.0000000000000000
    -1.8984090000000000    4.5362619999999998    0.0000000000000000
     0.0000000000000000    0.0000000000000000    6.4851000000000001
 Mg  Se  O  
   2   2   8
Cartesian
  0.0000000000000000  0.0000000000000000  0.0000000000000000
  0.0000000000000000  0.0000000000000000  3.2425500000000000
  0.5056440095700002  2.9355283673019996  4.8638250000000003
  2.5134279904300003  1.5986496326980000  1.6212750000000000
  0.5785995833230001  1.2644353588260000  4.8638250000000003
  2.4404705182680000  3.2697471774359999  1.6212750000000000
  0.9434746226930002  1.0214840824080000  1.6212750000000000
  2.0756022947880002  3.5126939155079997  4.8638250000000003
 -0.2263689446500000  3.4229376510100002  6.2339255919000003
  3.2454409446500003  1.1112403489900000  2.9913755918999998
  3.2454409446500003  1.1112403489900000  0.2511744081000000
 -0.2263689446500000  3.4229376510100002  3.4937244080999998
