Nb Co
 1.0000000000000000
     4.7196280000000002    0.0000000000000000    0.0000000000000000
    -2.3598150000000002    4.0873179999999998    0.0000000000000000
     0.0000000000000000    0.0000000000000000   15.4654000000000007
 Nb  Co 
   6  18
Cartesian
 -0.0000030264810002  2.7248800291060000  5.0975814248000004
  0.0000000000000000  0.0000000000000000  9.2874366620000011
  0.0000000000000000  0.0000000000000000  6.3602849386000004
  0.0000000000000000  0.0000000000000000  1.5547366620000000
  2.3598160264810000  1.3624379708940000 12.8302814248000008
  0.0000000000000000  0.0000000000000000 14.0929849386000008
  1.1795100511919998  2.0438878898079995  0.0222237798000000
  2.3598109696289997  2.7407796961259998  3.8666747734000002
  2.3598160264810000  1.3624379708940000 10.0539328167999997
  1.1661349607740001  0.6732711955960000  3.8666747734000002
  0.0000020303710000  1.3465383038740000 11.5993747734000010
  2.3598160264810000  1.3624379708940000  1.9795248038000002
  1.1936780392260000  3.4140468044039998 11.5993747734000010
 -1.1795063316759999  2.0438878898079995  0.0222237798000000
  3.5534879901539997  0.6732711955960000  3.8666747734000002
  1.1803029488079997  2.0434301101919998  7.7549237798000004
 -0.0000030264810002  2.7248800291060000  2.3212328168000003
 -0.0000030264810002  2.7248800291060000 13.5498400906000001
 -1.1936749901540000  3.4140468044039998 11.5993747734000010
  0.0000013599269997  4.0868561330660000  0.0222237798000000
  2.3598160264810000  1.3624379708940000  5.8171400906000006
  3.5393193316760003  2.0434301101919998  7.7549237798000004
 -0.0000030264810002  2.7248800291060000  9.7122248038000016
  2.3598116400730000  0.0004618669340000  7.7549237798000004
