Pr Ge
 1.0000000000000000
     4.0745180000000003    0.0000000000000000    0.0000000000000000
     0.0000000000000000    6.0425279999999999    0.0000000000000000
     0.0000000000000000    0.0000000000000000    8.3751060000000006
 Pr  Ge 
   4   4
Cartesian
  1.0186295000000001  2.3151885606720000  5.7009011537759999
  3.0558885000000000  3.7273394393280004  2.6742048462239998
  3.0558885000000000  5.3364525606719999  6.8617578462240010
  1.0186295000000001  0.7060754393280000  1.5133481537760001
  1.0186295000000001  5.2303095138239994  4.5032944961999997
  3.0558885000000000  0.8122184861760000  3.8718115038000001
  3.0558885000000000  2.2090455138239999  8.0593645038000012
  1.0186295000000001  3.8334824861760000  0.3157414962000000
