Cd Ga Rh
 1.0000000000000000
     0.0000000000000000    3.1049540000000002    3.1049540000000002
     3.1049540000000002    0.0000000000000000    3.1049540000000002
     3.1049540000000002    3.1049540000000002    0.0000000000000000
 Cd  Ga  Rh 
   1   1   2
Cartesian
  1.5524707900920001  1.5524707900920001  1.5524707900920001
  4.6574310000000008  4.6574310000000008  4.6574310000000008
  0.0000000000000000  0.0000000000000000  0.0000000000000000
  3.1049477900920004  3.1049477900920004  3.1049477900920004
