Tb Tm Hg
 1.0000000000000000
     0.0000000000000000    3.6754259999999999    3.6754259999999999
     3.6754259999999999    0.0000000000000000    3.6754259999999999
     3.6754259999999999    3.6754259999999999    0.0000000000000000
 Tb  Tm  Hg 
   1   1   2
Cartesian
  1.8377129999999999  1.8377129999999999  1.8377129999999999
  5.5131389999999998  5.5131389999999998  5.5131389999999998
  0.0000000000000000  0.0000000000000000  0.0000000000000000
  3.6754259999999999  3.6754259999999999  3.6754259999999999
