Ba Cu O 
 1.0000000000000000
     3.6843560000000002    0.0000000000000000   -1.0585270000000000
    -0.3436760000000000    3.9357419999999999   -1.1962159999999999
     0.0548080000000000    0.0084000000000000    7.1319910000000002
 Ba  Cu  O  
   2   1   3
Cartesian
  2.3438338275280004  0.5748097739760000  1.2168199456419999
  1.0516541724719999  3.3693322260240000  3.6604280543579999
 -0.1718380000000000  1.9678709999999999 -0.5981080000000000
  0.0000000000000000  0.0000000000000000  0.0000000000000000
  3.0613178256160003  1.3960164039479999  3.7141236012459999
  0.3341701743840000  2.5481255960520000  1.1631243987540001
