Li Al Rh
 1.0000000000000000
     6.0403419999999999    0.0000000000000000    0.0000000000000000
     0.0000000000000000    6.0403419999999999    0.0000000000000000
     0.0000000000000000    0.0000000000000000    6.0403419999999999
 Li  Al  Rh 
   4   8   4
Cartesian
  0.0000000000000000  0.0000000000000000  0.0000000000000000
  0.0000000000000000  3.0201709999999999  3.0201709999999999
  3.0201709999999999  0.0000000000000000  3.0201709999999999
  3.0201709999999999  3.0201709999999999  0.0000000000000000
  1.5100855000000000  4.5302565000000001  1.5100855000000000
  1.5100855000000000  4.5302565000000001  4.5302565000000001
  1.5100855000000000  1.5100855000000000  4.5302565000000001
  1.5100855000000000  1.5100855000000000  1.5100855000000000
  4.5302565000000001  4.5302565000000001  4.5302565000000001
  4.5302565000000001  4.5302565000000001  1.5100855000000000
  4.5302565000000001  1.5100855000000000  1.5100855000000000
  4.5302565000000001  1.5100855000000000  4.5302565000000001
  3.0201709999999999  0.0000000000000000  0.0000000000000000
  3.0201709999999999  3.0201709999999999  3.0201709999999999
  0.0000000000000000  0.0000000000000000  3.0201709999999999
  0.0000000000000000  3.0201709999999999  0.0000000000000000
