Fe Se
 1.0000000000000000
     3.5809009999999999    0.0000000000000000    0.0000000000000000
     0.0000000000000000    4.7795930000000002    0.0000000000000000
     0.0000000000000000    0.0000000000000000    5.7562639999999998
 Fe  Se 
   2   4
Cartesian
  0.0000000000000000  0.0000000000000000  0.0000000000000000
  1.7904504999999999  2.3897965000000001  2.8781319999999999
  0.0000000000000000  1.0193007827730001  2.1285052518079999
  0.0000000000000000  3.7602922172270001  3.6277587481919999
  1.7904504999999999  3.4090972827730002  0.7496267481920000
  1.7904504999999999  1.3704957172270003  5.0066372518079998
