Mn Al Au
 1.0000000000000000
     3.8972579999999999    0.0000000000000000    2.2500830000000001
     1.2990860000000000    3.6743690000000000    2.2500830000000001
     0.0000000000000000    0.0000000000000000    4.5001660000000001
 Mn  Al  Au 
   1   1   2
Cartesian
  2.5981719999999999  1.8371845000000000  4.5001660000000001
  0.0000000000000000  0.0000000000000000  0.0000000000000000
  1.2990860000000000  0.9185922500000000  2.2500830000000001
  3.8972579999999999  2.7557767499999999  6.7502490000000002
