Ba Sb N 
 1.0000000000000000
     7.6295229999999998    0.0000000000000000    0.0000000000000000
    -3.8147620000000000    6.6073620000000002    0.0000000000000000
     0.0000000000000000    0.0000000000000000    6.7369960000000004
 Ba  Sb  N  
   6   2   2
Cartesian
  1.9844041794150000  5.5506003438059999  1.6842490000000001
  5.7991583899550001  1.0567616561940001  5.0527470000000001
  0.0000036548249999  2.1135167050260000  1.6842490000000001
  3.8147573451749999  4.4938452949740002  5.0527470000000001
  1.8303568205850003  1.0567616561940001  5.0527470000000001
 -1.9843973899550000  5.5506003438059999  1.6842490000000001
  3.8147651480950002  2.2024517975459998  1.6842490000000001
 -0.0000041480949999  4.4049102024540003  5.0527470000000001
  0.0000000000000000  0.0000000000000000  3.3684980000000002
  0.0000000000000000  0.0000000000000000  0.0000000000000000
