Cr Si
 1.0000000000000000
     4.4072209999999998    0.0000000000000000    0.0000000000000000
    -2.2036099999999998    3.8167659999999999    0.0000000000000000
     0.0000000000000000    0.0000000000000000    6.3653909999999998
 Cr  Si 
   3   6
Cartesian
 -1.1018049999999999  1.9083829999999999  2.1217948782030001
  1.1018055000000000  1.9083829999999999  4.2435961217970002
  2.2036104999999999  0.0000000000000000  0.0000000000000000
  2.2036108338370002  2.5483554222839997  0.0000000000000000
 -1.1051344885470000  3.1825607111420000  4.2435961217970002
  1.1051353223839997  3.1825607111420000  2.1217948782030001
  0.0000001661630001  1.2684105777160000  0.0000000000000000
  3.3087454885470002  0.6342052888580000  4.2435961217970002
  1.0984756776160001  0.6342052888580000  2.1217948782030001
