Sn Ir
 1.0000000000000000
     4.0341209999999998    0.0000000000000000    0.0000000000000000
    -2.0170610000000000    3.4936509999999998    0.0000000000000000
     0.0000000000000000    0.0000000000000000    5.6700679999999997
 Sn  Ir 
   2   2
Cartesian
  2.0170623503939997  1.1645491687829999  4.2525509999999995
 -0.0000023503940001  2.3291018312169998  1.4175169999999999
  0.0000000000000000  0.0000000000000000  2.8350339999999998
  0.0000000000000000  0.0000000000000000  0.0000000000000000
