Sc Ag
 1.0000000000000000
     3.5382590000000000   -0.0003000000000000    0.0003520000000000
    -0.0003000000000000    3.5382579999999999    0.0003510000000000
    -1.7685350000000000   -1.7685360000000001    4.4628579999999998
 Sc  Ag 
   1   2
Cartesian
 -1.7688279234819999  1.7697219993999997  4.4632090007039995
  1.7690427343109996  1.7690452729639998  1.4878767248960001
  0.0003759585950002  0.0003784970580000  2.9756887379609998
