Ac Cd Rh
 1.0000000000000000
     0.0000000000000000    3.4513479999999999    3.4513479999999999
     3.4513479999999999    0.0000000000000000    3.4513479999999999
     3.4513479999999999    3.4513479999999999    0.0000000000000000
 Ac  Cd  Rh 
   1   1   2
Cartesian
  1.7256739999999999  1.7256739999999999  1.7256739999999999
  5.1770150973039994  5.1770150973039994  5.1770150973039994
  0.0000000000000000  0.0000000000000000  0.0000000000000000
  3.4513410973040002  3.4513410973040002  3.4513410973040002
