Sc Ag
 1.0000000000000000
     3.7407339999999998    0.0000000000000000    1.6370320000000000
     1.8703829999999999    4.6677679999999997    0.8184820000000000
    -0.0010050000000000    0.0000360000000000    5.0947329999999997
 Sc  Ag 
   1   4
Cartesian
  0.0000000000000000  0.0000000000000000  0.0000000000000000
  1.1217858540660000  0.9371108366679999  2.5290874117830002
  3.3650450875819997  2.8005700041960000  2.4954990123849998
  2.2450669124179998  1.8672339958039998  5.0547479876149994
  4.4883261459339989  3.7306931633319995  5.0211595882170004
