Mg Hg
 1.0000000000000000
     4.1664500000000002   -2.4055010000000001    8.9351970000000005
     0.0000000000000000    4.8110030000000004    8.9351970000000005
    -4.1664500000000002   -2.4055010000000001    8.9351970000000005
 Mg  Hg 
  18   6
Cartesian
 -2.7937463842999999 -0.4259417316989999 10.4379452370510002
 -0.0000000000000001  0.0000008657410000 23.2066991579310020
 -2.0746171143000001  2.3714398767420000 11.8558091026020005
  0.0000000000000000  0.0000004435160003 11.8887084979560012
  1.0279965414000003  2.6324270965090002 10.4379452370510002
 -2.7937463843000003  0.4259427316990003 16.3676457629489995
 -1.0164179768500001  2.9823916263060006 14.9497818973980010
 -1.0164179768500001 -2.9823906263060000 11.8558091026020005
  3.0910350911500002  0.6109520764300000 11.8558091026020005
 -0.0000000000000001  0.0000006797070001 18.2199478418370013
  1.7657498428999998 -2.2064841966270001 10.4379452370510002
  1.7657498429000003  2.2064851966269998 16.3676457629489995
 -0.0000000000000000  0.0000001342590000  3.5988918420689999
  3.0910350911500002 -0.6109510764299999 14.9497818973980010
 -0.0000000000000000  0.0000005564839999 14.9168825020440003
 -2.0746171143000001 -2.3714388767420003 14.9497818973980010
  1.0279965413999999 -2.6324260965090005 16.3676457629490031
 -0.0000000000000001  0.0000003202930000  8.5856431581630002
  1.3294100337499999 -2.3026055137999997 13.4027954999999999
 -1.4423666597000004 -2.4055010000000001  8.9351970000000005
  2.8044083298500002 -0.0463753268720000  8.9351970000000005
 -1.3620416701500000  2.4518773268720007  8.9351970000000005
 -2.6588200675000002  0.0000005000000002 13.4027954999999999
  1.3294100337500001  2.3026065138000003 13.4027955000000016
