Ce Pb
 1.0000000000000000
     4.9341379999999999    0.0000000000000000    0.0000000000000000
     0.0000000000000000    4.9353850000000001    0.0000000000000000
     0.0000000000000000    0.0000000000000000    4.9329720000000004
 Ce  Pb 
   3   1
Cartesian
  0.0000000000000000  2.4676925000000001  2.4664860000000002
  2.4670690000000000  0.0000000000000000  2.4664860000000002
  2.4670690000000000  2.4676925000000001  0.0000000000000000
  0.0000000000000000  0.0000000000000000  0.0000000000000000
