Li B  C 
 1.0000000000000000
     4.6921999999999997    0.0000000000000000    0.0000000000000000
     0.0000000000000000    4.7734389999999998   -2.3045990000000001
     0.0000000000000000    0.0025600000000000    5.3006500000000001
 Li  B   C  
   2  12   2
Cartesian
  2.3460999999999999  2.5126371536819994 -0.6118953310319999
  2.3460999999999999  0.5426219426069999  2.5285021122929998
  3.8336869347999998  1.2314340301619999  0.7724957977380000
  3.2545615341999996  4.3058495540089998 -1.5599741437090000
  3.2545615341999996  0.4694664781339999  4.5555967084160001
  0.8607324757999999  3.5507737685379994  2.2274500685619998
  0.0000000000000000  1.5905572382029998  4.5005688234769998
  1.4376384658000001  0.4694664781339999  4.5555967084160001
  0.0000000000000000  0.0387748594360000  3.5308074579639999
  0.0000000000000000  4.7442179874199999 -0.5266756862500001
  1.4376384658000001  4.3058495540089998 -1.5599741437090000
  0.8585130651999999  1.2314340301619999  0.7724957977380000
  0.0000000000000000  3.1957609113159999 -1.5017379103159998
  3.8314675241999998  3.5507737685379994  2.2274500685619998
  3.0321887917999999  2.3969592741239998  1.5036460916759999
  1.6600112082000000  2.3969592741239998  1.5036460916759999
