Be Re
 1.0000000000000000
     7.0431869999999996   -0.0000380000000000    4.0663260000000001
     2.3476919999999999    6.6403930000000004    4.0663260000000001
    -0.0000530000000000   -0.0000380000000000    8.1327420000000004
 Be  Re 
  44   2
Cartesian
  4.7908662912270001  3.3876543135650006  6.0996163109760007
  7.1252178523669993  1.3615909002580000 10.1658961557899996
  5.2412827166140001  1.3616143457020000  9.0781702154640005
  6.3599945096389998  2.1526533567760002  7.1872156517940002
  1.1738195000000000  3.3201775000000002  6.0995340000000002
  6.5039538402339998  3.2527188173310000 11.2651821183420005
  5.2346770228240000  5.0477468443890006 11.2651821183420005
  2.2656081476329999  5.2787260997420002  6.0994978442100001
  5.2345857029580003  5.0476575113380004  9.0665725808160005
  0.0000000000000000  0.0000000000000000  0.0000000000000000
  6.9745241544649996  6.2638558838909999  8.2515494955600008
  8.2304924658589993  4.4876355895720010 12.0801597830100018
  4.1561489771759996  1.5925701556110001  5.0002118816580001
  1.1603649294729999  2.1526236787340003  8.0138363716979999
  2.2522438177349997  1.5925767959660000  6.0994454545979995
  3.0308314903609999  4.4876636432240007  9.0781783482060003
  5.2413131468870002  1.3615909002580000 11.2535689082220003
  6.5038390428930004  3.2526626864350003  9.0665725808160005
  1.1603335341410002  2.1526814104280003  4.1852342169900005
  2.4163018455350000  0.3764611161090000  8.0138445044399997
  4.1495432833860004  5.2787026542980007  7.1872237845360001
  3.5215669999999997 -0.0000380000000000  6.0995340000000002
  8.2304610705269994  4.4876933212660006  8.2515576283020007
  6.3464750685919995  4.4876355896100000 13.1678894653559997
  2.4163455781230003  0.3764126009070001  4.1852423497320004
  3.5215934999999998 -0.0000190000000000  2.0331630000000001
  3.0443509314080002  2.1526814103900000  3.0975045346440000
  4.5999597087730004  3.2526626864350003 10.1657776890240008
  3.6587921460919994  6.2638558838530001 10.1658961557899996
  2.8869869571069997  3.3876543135650006  7.1988214191840010
  1.1738459999999999  3.3201965000000002  2.0331630000000001
  7.1385821822649991  5.0477402040340005 10.1659485454019993
  5.7320338539079989  0.3764611161470000  6.0994978442100001
  3.0443118039460000  2.1526533567380004  9.1015338471120000
  6.3465141960539997  4.4876636432620005  7.1638601528879997
  3.0308243567269995  4.4876933212659997 11.2535689082220003
  4.1495128531130003  5.2787260997420002  5.0118250917780003
  4.6954395000000000  3.3201775000000002  4.0663260000000001
  6.3600016432729998  2.1526236787340003  5.0118250917780003
  4.1562402970420003  1.5926594886620000  7.1988214191840010
  6.9744804218769998  6.2639043990930006 12.0801516502680002
  4.6954130000000003  3.3201585000000002  8.1326970000000003
  2.8868721597659994  3.3875981826690000  5.0002118816580001
 -0.0000265000000000 -0.0000190000000000  4.0663710000000002
  8.2169750977449976  5.8102840154310007 14.2322156835840001
  1.1738509022549999  0.8300329845690000  2.0331783164160000
