Sc In N 
 1.0000000000000000
     4.4644550000000001    0.0000000000000000    0.0000000000000000
     0.0000000000000000    4.4644579999999996    0.0000000000000000
     0.0000000000000000    0.0000000000000000    4.4644579999999996
 Sc  In  N  
   3   1   1
Cartesian
  2.2322275000000000  2.2322289999999998  0.0000000000000000
  2.2322275000000000  0.0000000000000000  2.2322289999999998
  0.0000000000000000  2.2322289999999998  2.2322289999999998
  0.0000000000000000  0.0000000000000000  0.0000000000000000
  2.2322275000000000  2.2322289999999998  2.2322289999999998
