La B  Rh
 1.0000000000000000
     4.2618799999999997    0.0000000000000000    0.0000000000000000
     0.0000000000000000    4.2618799999999997    0.0000000000000000
     0.0000000000000000    0.0000000000000000    4.2618799999999997
 La  B   Rh 
   1   1   3
Cartesian
  0.0000000000000000  0.0000000000000000  0.0000000000000000
  2.1309399999999998  2.1309399999999998  2.1309399999999998
  0.0000000000000000  2.1309399999999998  2.1309399999999998
  2.1309399999999998  2.1309399999999998  0.0000000000000000
  2.1309399999999998  0.0000000000000000  2.1309399999999998
