Sc Si Rh
 1.0000000000000000
     4.0813800000000002    0.0000000000000000    0.0000000000000000
     0.0000000000000000    6.5329990000000002    0.0000000000000000
     0.0000000000000000    0.0000000000000000    7.2813999999999997
 Sc  Si  Rh 
   4   4   4
Cartesian
  3.0610350000000004  3.2115373794130000  1.3803349979999999
  1.0203450000000001  0.0549621205870000  5.0210349980000002
  3.0610350000000004  6.4780368794130005  2.2603650019999999
  1.0203450000000001  3.3214616205870002  5.9010650019999993
  1.0203450000000001  5.1337351421840003  0.8307931772000000
  1.0203450000000001  1.8672356421840002  2.8099068227999999
  3.0610350000000004  1.3992638578160002  6.4506068227999993
  3.0610350000000004  4.6657633578160000  4.4714931772000002
  1.0203450000000001  4.2892992904409999  3.1778068391999996
  1.0203450000000001  1.0227997904410000  0.4628931608000000
  3.0610350000000004  5.5101992095590004  6.8185068392000003
  3.0610350000000004  2.2436997095589999  4.1035931607999991
