Mg Rh F 
 1.0000000000000000
     4.4225940000000001    0.0154530000000000    3.0228440000000001
     1.6080030000000001    4.1223820000000000    3.0195150000000002
     0.0247430000000000    0.0213020000000000    5.3568720000000001
 Mg  Rh  F  
   1   1   6
Cartesian
  3.0276700000000001  2.0795685000000002  5.6996155000000002
  0.0000000000000000  0.0000000000000000  0.0000000000000000
  1.8798991011790001  0.4699249439140000  5.5404687469920004
  1.7085710149460001  3.1339614885399998  4.6594836716070001
  2.0878038478790004  2.5731441617450002  7.3749296196370002
  4.3467689850540001  1.0251755114599999  6.7397473283930003
  4.1754408988209999  3.6892120560860002  5.8587622530079999
  3.9675361521210002  1.5859928382550001  4.0243013803630001
