Tb Co Si
 1.0000000000000000
     3.6186389999999999    0.0000000000000000   -1.3382050000000001
    -0.4948800000000000    3.5846390000000001   -1.3382050000000001
     0.0048610000000000    0.0055780000000000    5.5748300000000004
 Tb  Co  Si 
   1   2   2
Cartesian
  0.0000000000000000  0.0000000000000000  0.0000000000000000
  0.5359302500000001  2.6912682500000003  1.4492100000000001
  2.5926897499999999  0.8989487500000001  1.4492100000000001
  1.9687338016599998  2.2592011130169998 -0.2380353215800000
  1.1598861983400002  1.3310158869830002  3.1364553215799997
