Sm Co Ge
 1.0000000000000000
     4.3976259999999998    0.0000000000000000    0.0000000000000000
     0.0000000000000000    6.9319210000000000    0.0001410000000000
     0.0000000000000000    0.0001480000000000    7.2594240000000001
 Sm  Co  Ge 
   4   4   4
Cartesian
  1.0994065000000000  4.7974560649290003  7.0577168528250001
  3.2982195000000001  2.1346129350709999  0.2018481471750000
  3.2982195000000001  1.3309514947320000  3.8317325436720000
  1.0994065000000000  5.6011175052679993  3.4278324563280003
  3.2982195000000001  3.9570212601410004  2.5506863692770003
  3.2982195000000001  6.4414056320120006  6.1804706801160005
  1.0994065000000000  0.4906633679879999  1.0790943198840000
  1.0994065000000000  2.9750477398589998  4.7088786307230004
  3.2982195000000001  4.2095810526879998  5.0378427621240007
  3.2982195000000001  6.1894369816530004  1.4078443611690001
  1.0994065000000000  0.7426320183470001  5.8517206388309999
  1.0994065000000000  2.7224879473120001  2.2217222378760000
