Be C 
 1.0000000000000000
     2.6482109999999999    0.0000000000000000    1.5289450000000000
     0.8827380000000000    2.4967579999999998    1.5289450000000000
     0.0000000000000000    0.0000000000000000    3.0578930000000000
 Be  C  
   2   1
Cartesian
  0.8827372499999999  0.6241895000000000  1.5289457500000001
  2.6482117499999998  1.8725684999999999  4.5868372500000003
  0.0000000000000000  0.0000000000000000  0.0000000000000000
