Bi
 1.0000000000000000
     2.2935010000000000   -1.3241529999999999    4.0373460000000003
     0.0000000000000000    2.6483070000000000    4.0373460000000003
    -2.2935010000000000   -1.3241529999999999    4.0373460000000003
 Bi 
   2
Cartesian
  0.0000000000000000  0.0000007658580003  9.2761011986040014
  0.0000000000000000  0.0000002341420000  2.8359368013960000
