Sc P  O 
 1.0000000000000000
     5.2693800000000000   -0.0025700000000000   -1.5327029999999999
    -2.9691589999999999    4.3532140000000004   -1.5327029999999999
     0.0013600000000000    0.0025700000000000    5.4877640000000003
 Sc  P   O  
   2   2   8
Cartesian
 -1.9390016250000000  3.8093835000000005 -0.1607619999999998
  4.2405826250000000  0.5438305000000000  2.5831200000000001
  0.1213131250000000  2.7217225000000003  2.5831200000000001
  2.1802678749999997  1.6314915000000003 -0.1607619999999998
  2.0320740807159998  3.1455532369340005  0.0367244633240003
 -0.4413916230359997  3.4517779683460001  1.3568587598280002
  1.4559904424040002  3.4517779632059997  2.7806064633240006
  3.1004342386520003  1.5775406946180002 -1.3870232401720000
  2.7429726230359996  0.9014360316540001  1.0654992401720003
  0.2695069192839999  1.2076607630660001  2.3856335366760000
 -0.7988532386519999  2.7756733053820000  3.8093812401720006
  0.8455905575960000  0.9014360367940001 -0.3582484633239999
