Nb B  O 
 1.0000000000000000
     5.0177399999999999   -0.0071360000000000   -1.4577739999999999
    -2.8303250000000002    4.1433109999999997   -1.4577739999999999
     0.0037740000000000    0.0071360000000000    5.2252090000000004
 Nb  B   O  
   2   2   8
Cartesian
 -1.8483733750000002  3.6262891249999996 -0.1514717499999998
  4.0395623749999992  0.5170218750000000  2.4611327500000004
  2.0756591249999996  1.5510656249999999 -0.1514717499999998
  0.1155298749999998  2.5922453749999996  2.4611327500000004
  2.9580404047289992  1.5346976388569999 -1.3275744773920000
  1.3873941693010001  3.3123493063249998  2.6220474948880006
  0.8037948306989998  0.8309616936749999 -0.3123864948880000
 -0.7668514047290004  2.6086133611430000  3.6372354773920006
  0.2362576265589998  1.1356695262070000  2.3002180051119998
  2.5858698911310003  0.8309616936749999  1.0246309773920002
  1.9549313734409994  3.0076414737930000  0.0094429948880002
 -0.3946808911310001  3.3123493063250002  1.2850300226080000
