Ti Al
 1.0000000000000000
     5.7546840000000001    0.0000000000000000    0.0000000000000000
    -2.8773420000000001    4.9837020000000001    0.0000000000000000
     0.0000000000000000    0.0000000000000000    4.6529360000000004
 Ti  Al 
   6   2
Cartesian
 -0.0000000000000000  1.6912491759120001  3.4897020000000003
  1.4646649076279998  0.8456245879560000  1.1632340000000001
  4.2900190923719999  0.8456245879560000  1.1632340000000001
 -1.4126770923720000  4.1380774120439998  3.4897020000000003
  1.4126770923720002  4.1380774120439998  3.4897020000000003
  2.8773420000000001  3.2924528240880000  1.1632340000000001
  2.8773448773420003  1.6612323387660000  3.4897020000000003
 -0.0000028773420000  3.3224696612339999  1.1632340000000001
