Li Ag Sb
 1.0000000000000000
     4.0458140000000000   -0.0000000000000000    2.3358509999999999
     1.3486039999999999    3.8144300000000002    2.3358509999999999
    -0.0000000000000000    0.0000000000000000    4.6717040000000001
 Li  Ag  Sb 
   2   1   1
Cartesian
  1.3486045000000000  0.9536075000000001  2.3358515000000000
  2.6972090000000000  1.9072150000000001  4.6717029999999999
  4.0458134999999995  2.8608225000000003  7.0075544999999995
  0.0000000000000000  0.0000000000000000  0.0000000000000000
