Sr Ni Sn
 1.0000000000000000
     0.0000000000000000    0.0000000000000000    4.5501709999999997
     4.6157779999999997    0.0000000000000000    0.0000000000000000
     2.3078889999999999    9.2959790000000009    0.0000000000000000
 Sr  Ni  Sn 
   2   2   4
Cartesian
  4.6157803078889996  2.0257890396590001  1.1375473001709999
  2.3078820763329997  7.2701899603410007  3.4126282500000000
  2.3078866921109999  3.3951239302750005  3.4126282500000000
  4.6157733842219999  5.9008457737460001  1.1375473001709999
  2.3078889999999999  0.8781539522140001  3.4126282500000000
  2.3078843842219996  4.6371689804440006  1.1375473001709999
  4.6157803078889996  4.6588193155350002  3.4126282500000000
  4.6157733842219999  8.4178250477859997  1.1375473001709999
