Ho Tl Cd
 1.0000000000000000
     0.0000000000000000    3.7244139999999999    3.7244139999999999
     3.7244139999999999    0.0000000000000000    3.7244139999999999
     3.7244139999999999    3.7244139999999999    0.0000000000000000
 Ho  Tl  Cd 
   2   1   1
Cartesian
  0.0000000000000000  0.0000000000000000  0.0000000000000000
  3.7244065511720001  3.7244065511720001  3.7244065511720001
  5.5866210000000001  5.5866210000000001  5.5866210000000001
  1.8622069999999999  1.8622069999999999  1.8622069999999999
