Li Ta O 
 1.0000000000000000
     4.8372830000000002    1.9977890000000000    0.0123980000000000
    -4.8372830000000002    1.9977890000000000   -0.0123980000000000
    -1.8662799999999999    0.0000000000000000    5.4778770000000003
 Li  Ta  O  
   5   1   5
Cartesian
 -3.2894717269380003  1.9977890000000003  3.5797563919490001
 -2.1076408946100003  1.9977890000000003  0.7573951411930001
 -0.9331400000000000  0.0000000000000000  2.7389385000000002
  0.2413608946100004  1.9977890000000000  4.7204818588070010
  1.4231917269380003  1.9977890000000000  1.8981206080510000
  0.0000000000000000  0.0000000000000000  0.0000000000000000
 -4.9604089798219997  1.9977890000000000  4.5190779796439999
 -3.9094712703760002  1.9977890000000000  1.7379507789699999
  0.0000000000000000  1.9977890000000000  0.0000000000000000
  2.0431912703760005  1.9977890000000000  3.7399262210300002
  3.0941289798219995  1.9977889999999998  0.9587990203560001
