Sr Cd In
 1.0000000000000000
     0.0000000000000000    4.0513420000000000    4.0513420000000000
     4.0513420000000000    0.0000000000000000    4.0513420000000000
     4.0513420000000000    4.0513420000000000    0.0000000000000000
 Sr  Cd  In 
   2   1   1
Cartesian
  2.0256710000000000  2.0256710000000000  2.0256710000000000
  6.0770130000000000  6.0770130000000000  6.0770130000000000
  4.0513420000000000  4.0513420000000000  4.0513420000000000
  0.0000000000000000  0.0000000000000000  0.0000000000000000
