Ti C 
 1.0000000000000000
     8.6403130000000008    0.0000000000000000    0.0000000000000000
     0.0000000000000000    8.6403130000000008    0.0000000000000000
     0.0000000000000000    0.0000000000000000    8.6403130000000008
 Ti  C  
  32  16
Cartesian
  6.4280472594800004  0.0521874905200000  0.0521874905200000
  6.4280472594800004  2.1078907594800005  2.1078907594800005
  4.3723439905200010  2.1078907594800005  0.0521874905200000
  8.5881255094800011  4.2679690094800007  6.5324222405200008
  6.5324222405200008  2.2122657405199999  6.5324222405200008
  6.5324222405200008  4.2679690094800007  8.5881255094800011
  8.5881255094800011  2.2122657405199999  8.5881255094800011
  4.3723439905200010  0.0521874905200000  2.1078907594800005
  6.4280472594800004  4.3723439905200010  4.3723439905200010
  6.4280472594800004  6.4280472594800004  6.4280472594800004
  4.3723439905200010  6.4280472594800004  4.3723439905200010
  8.5881255094800011  8.5881255094800011  2.2122657405199999
  6.5324222405200008  6.5324222405200008  2.2122657405199999
  6.5324222405200008  8.5881255094800011  4.2679690094800007
  8.5881255094800011  6.5324222405200008  4.2679690094800007
  4.3723439905200010  4.3723439905200010  6.4280472594800004
  2.1078907594800005  0.0521874905200000  4.3723439905200010
  2.1078907594800005  2.1078907594800005  6.4280472594800004
  0.0521874905200000  2.1078907594800005  4.3723439905200010
  4.2679690094800007  4.2679690094800007  2.2122657405199999
  2.2122657405199999  2.2122657405199999  2.2122657405199999
  2.2122657405199999  4.2679690094800007  4.2679690094800007
  4.2679690094800007  2.2122657405199999  4.2679690094800007
  0.0521874905200000  0.0521874905200000  6.4280472594800004
  2.1078907594800005  4.3723439905200010  0.0521874905200000
  2.1078907594800005  6.4280472594800004  2.1078907594800005
  0.0521874905200000  6.4280472594800004  0.0521874905200000
  4.2679690094800007  8.5881255094800011  6.5324222405200008
  2.2122657405199999  6.5324222405200008  6.5324222405200008
  2.2122657405199999  8.5881255094800011  8.5881255094800011
  4.2679690094800007  6.5324222405200008  8.5881255094800011
  0.0521874905200000  4.3723439905200010  2.1078907594800005
  0.0000000000000000  4.3201565000000004  0.0000000000000000
  0.0000000000000000  2.1600782500000002  6.4802347500000010
  6.4802347500000010  4.3201565000000004  6.4802347500000010
  6.4802347500000010  2.1600782500000002  0.0000000000000000
  0.0000000000000000  0.0000000000000000  4.3201565000000004
  0.0000000000000000  6.4802347500000010  2.1600782500000002
  6.4802347500000010  0.0000000000000000  2.1600782500000002
  6.4802347500000010  6.4802347500000010  4.3201565000000004
  4.3201565000000004  4.3201565000000004  4.3201565000000004
  4.3201565000000004  2.1600782500000002  2.1600782500000002
  2.1600782500000002  4.3201565000000004  2.1600782500000002
  2.1600782500000002  2.1600782500000002  4.3201565000000004
  4.3201565000000004  0.0000000000000000  0.0000000000000000
  4.3201565000000004  6.4802347500000010  6.4802347500000010
  2.1600782500000002  0.0000000000000000  6.4802347500000010
  2.1600782500000002  6.4802347500000010  0.0000000000000000
