Gd Si Rh
 1.0000000000000000
    -2.0271210000000002    2.0271210000000002    5.0063680000000002
     2.0271210000000002   -2.0271210000000002    5.0063680000000002
     2.0271210000000002    2.0271210000000002   -5.0063680000000002
 Gd  Si  Rh 
   1   2   2
Cartesian
  0.0000000000000000  0.0000000000000000  0.0000000000000000
 -0.0000000000000000  0.0000000000000000  6.2392762346239996
  0.0000000000000000 -0.0000000000000000  3.7734597653759998
  0.0000000000000000  2.0271210000000002  2.5031840000000001
  2.0271210000000002  0.0000000000000000  2.5031840000000001
