Zr Sb
 1.0000000000000000
     4.0064859999999998   -0.0000000000000000   -1.0114719999999999
    -0.2553570000000000    3.9983390000000001   -1.0114719999999999
     0.0162580000000000    0.0173300000000000    8.5050640000000008
 Zr  Sb 
   4   2
Cartesian
  2.0032429999999999  0.0000000000000000 -0.5057360000000000
 -0.1276785000000000  1.9991695000000000 -0.5057360000000000
  1.2199039189330001  1.3002993899150002  4.8321014344240005
  2.5474830810669999  2.7153696100850002  1.6500185655760005
  0.5234446001379999  0.5579412309860000  2.0733954883600005
  3.2439423998619996  3.4577277690139998  4.4087245116400009
