Ho Si Ru C 
 1.0000000000000000
     1.8948550000000000   -5.5761659999999997    0.0000000000000000
     1.8948550000000000    5.5761659999999997    0.0000000000000000
     0.0000000000000000    0.0000000000000000    7.1490720000000003
 Ho  Si  Ru  C  
   2   2   4   2
Cartesian
  1.8948550000000000 -0.5206131624239998  1.7872680000000001
  1.8948550000000000  0.5206131624239998  5.3618040000000002
  1.8948550000000000  2.5826570445599999  1.7872680000000001
  1.8948550000000000 -2.5826570445600003  5.3618040000000002
  1.8948549999999997 -3.7489456204559999  3.1688047167840003
  1.8948550000000000  3.7489456204559994  6.7433407167840000
  1.8948550000000000  3.7489456204559994  3.9802672832160004
  1.8948549999999997 -3.7489456204559999  0.4057312832160000
  0.0000000000000000  0.0000000000000000  3.5745360000000002
  0.0000000000000000  0.0000000000000000  0.0000000000000000
