Sm Si Ru
 1.0000000000000000
     3.8956119999999999    0.0000000000000000   -1.5397149999999999
    -0.6085620000000000    3.8477839999999999   -1.5397149999999999
    -0.0104900000000000   -0.0122800000000000    5.6714370000000001
 Sm  Si  Ru 
   1   2   2
Cartesian
  0.0000000000000000  0.0000000000000000  0.0000000000000000
  2.0841406950000003  2.4396716678880002 -0.4249128888549997
  1.1924193050000000  1.3958323321119999  3.0169198888550000
  2.7643235000000002  0.9558059999999999  1.2960035000000001
  0.5122365000000000  2.8796979999999999  1.2960035000000001
