Th Sn Pt
 1.0000000000000000
     4.1634549999999999    0.0000000000000000    2.4037720000000000
     1.3878189999999999    3.9253420000000001    2.4037720000000000
     0.0000000000000000    0.0000000000000000    4.8075429999999999
 Th  Sn  Pt 
   1   1   1
Cartesian
  0.0000000000000000  0.0000000000000000  0.0000000000000000
  2.7756369999999997  1.9626710000000001  4.8075434999999995
  1.3878184999999998  0.9813355000000000  2.4037717499999998
