Al Ru Rh
 1.0000000000000000
     0.0000000000000000    2.9756980000000000    2.9756980000000000
     2.9756980000000000    0.0000000000000000    2.9756980000000000
     2.9756980000000000    2.9756980000000000    0.0000000000000000
 Al  Ru  Rh 
   2   1   1
Cartesian
  2.9756980000000000  2.9756980000000000  2.9756980000000000
  0.0000000000000000  0.0000000000000000  0.0000000000000000
  4.4635470000000002  4.4635470000000002  4.4635470000000002
  1.4878490000000000  1.4878490000000000  1.4878490000000000
