Th Si Ni
 1.0000000000000000
     0.0000000000000000    0.0000000000000000    4.0885610000000003
     4.1435709999999997    0.0000000000000000    0.0000000000000000
    -2.0717840000000001    8.1829520000000002    0.0000000000000000
 Th  Si  Ni 
   2   4   2
Cartesian
  0.0000011807459999  6.4413252281280000  1.0221402500000001
  2.0717858192540000  1.7416267718720000  3.0664207500000003
 -0.0000081688310000  0.6454221560480000  1.0221402500000001
  2.0717951688309992  7.5375298439520000  3.0664207500000003
  2.0717821035879997  4.0759774889119997  1.0221402500000001
  0.0000048964120000  4.1069745110879996  3.0664207500000003
 -0.0000015295880000  2.9578507446800000  1.0221402500000001
  2.0717885295879999  5.2251012553200002  3.0664207500000003
