Ba U  O 
 1.0000000000000000
     5.8325849999999999    0.0000000000000000    0.0000000000000000
     0.0000000000000000    8.1516599999999997    0.0000000000000000
     0.0000000000000000    0.0000000000000000    8.2415179999999992
 Ba  U   O  
   4   4  16
Cartesian
  2.8053392355450000  1.5871852636199999  2.0603794999999998
  2.8053392355450000  2.4886447363799999  6.1811384999999994
  3.0272457644549999  5.6630152636199993  2.0603794999999998
  3.0272457644549999  6.5644747363800002  6.1811384999999994
  0.0000000000000000  0.0000000000000000  0.0000000000000000
  0.0000000000000000  4.0758299999999998  0.0000000000000000
  0.0000000000000000  4.0758299999999998  4.1207589999999996
  0.0000000000000000  0.0000000000000000  4.1207589999999996
  0.6780496714199999  7.9358774081399996  6.1811384999999994
  0.6780496714199999  4.2916125918599999  2.0603794999999998
  5.1545353285799997  3.8600474081399998  6.1811384999999994
  5.1545353285799997  0.2157825918600000  2.0603794999999998
  0.8511316312950000  2.0379149999999999  4.1207589999999996
  4.9814533687050000  6.1137449999999998  0.0000000000000000
  4.9814533687050000  6.1137449999999998  4.1207589999999996
  0.8511316312950000  2.0379149999999999  0.0000000000000000
  1.7209741952700000  7.5385654997399998  0.5644945338920000
  1.7209741952700000  4.6889245002599997  7.6770234661079986
  4.1116108047299997  3.4627354997399999  3.5562644661079998
  4.1116108047299997  0.6130945002600000  4.6852535338920003
  4.1116108047299997  0.6130945002600000  7.6770234661079986
  4.1116108047299997  3.4627354997399999  0.5644945338920000
  1.7209741952700000  4.6889245002599997  4.6852535338920003
  1.7209741952700000  7.5385654997399998  3.5562644661079998
