Cd S  O 
 1.0000000000000000
     4.8905760000000003    0.0028660000000000    0.0000000000000000
    -1.9767100000000000    4.4732940000000001    0.0000000000000000
     0.0000000000000000    0.0000000000000000    7.1837559999999998
 Cd  S   O  
   2   2   8
Cartesian
  0.0000000000000000  0.0000000000000000  3.5918779999999999
  0.0000000000000000  0.0000000000000000  0.0000000000000000
  2.4057790393339999  1.6204054336680001  1.7959390000000000
  0.5080869606660001  2.8557545663320001  5.3878170000000001
  0.5831978094920001  1.3597967438759999  5.3878170000000001
  2.3306681905079998  3.1163632561240000  1.7959390000000000
  1.0074175348559999  1.0836405246040000  1.7959390000000000
  1.9064484651439999  3.3925194753960000  5.3878170000000001
 -0.1472924787439998  3.2823898625120003  6.6165912800440001
  3.0611584787440003  1.1937701374880001  3.0247132800439998
  3.0611584787440003  1.1937701374880001  0.5671647199559999
 -0.1472924787439998  3.2823898625120003  4.1590427199560001
