Mg Ni H 
 1.0000000000000000
     3.1715960000000001    7.1119230000000000   -0.0075520000000000
    -3.1715960000000001    7.1119230000000000   -0.0075520000000000
     0.0000000000000000    2.5489780000000000    5.8919540000000001
 Mg  Ni  H  
   8   4  16
Cartesian
 -0.0762388246480000  3.5613498809740003  0.4704378372980000
 -0.0762388246480000 11.9369851190259997  2.4604351627020002
  0.0762388246480001 13.2114741190260006  5.4064121627019999
  0.0762388246480000  4.8358388809740003  3.4164148372979999
 -3.0253473652480003  7.7491675000000004  1.4654365000000000
  3.0253473652479999  9.0236565000000013  4.4114135000000001
  0.1622017626320002  7.7491675000000004  1.4654365000000000
 -0.1622017626320002  9.0236564999999995  4.4114135000000001
 -1.7113487992559999  5.6153774575019995  0.4769513335760000
 -1.7113487992560001  9.8829575424979996  2.4539216664240002
  1.7113487992560004 11.1574465424979987  5.3998986664239998
  1.7113487992559999  6.8898664575019994  3.4229283335759999
 -1.2220159388000000  4.9269888962180000  1.7820469450460001
 -1.2220159387999998 10.5713461037819982  1.1488260549539999
  1.2220159387999998 11.8458351037819991  4.0948030549540002
  1.2220159388000000  6.2014778962179999  4.7280239450460000
 -1.1701508294120000  7.3761226938750006  5.1663414634980001
 -1.1701508294120002 10.6711903061250002  3.6564855365020001
  1.1701508294120002  9.3967013061250011  0.7105085365020001
  1.1701508294120000  6.1016336938750007  2.2203644634980000
 -1.3316516693279998  7.0995760755699999  0.3019543766240000
 -1.3316516693280001  8.3987589244300001  2.6289186233760002
  1.3316516693280001  9.6732479244300009  5.5748956233760003
  1.3316516693280001  8.3740650755699999  3.2479313766239999
 -0.0690615028999999 12.6554633008810011  0.4437866845720000
 -0.0690615029000000  2.8428716991189997  2.4870863154279998
  0.0690615029000000  4.1173606991189997  5.4330633154279999
  0.0690615029000000 13.9299523008810002  3.3897636845720003
