Rb Th Se
 1.0000000000000000
     4.1744289999999999    0.0000000000000000   -0.7573480000000000
    -0.2428380000000000    5.4251420000000001   -1.3385030000000000
     0.0089810000000000    0.0613400000000000   11.9327059999999996
 Rb  Th  Se 
   1   2   6
Cartesian
  0.0000000000000000  0.0000000000000000  0.0000000000000000
  3.3538203488879996  1.7791643241119999  6.6027371344559995
  0.5867516511119999  3.7073176758880004  3.2341178655439995
  1.6102477584510000  0.8543900838139999  8.8755453179289994
  0.9037604327400000  1.2694860396520000  4.9814654307980000
  2.4488724107129998  1.9836569449100001  1.6147373996049998
  1.4916995892870000  3.5028250550900002  8.2221176003950003
  2.3303242415490000  4.6320919161859999  0.9613096820709999
  3.0368115672600000  4.2169959603480009  4.8553895692019999
