Sb Te Pd
 1.0000000000000000
     6.6065589999999998    0.0000000000000000    0.0000000000000000
     0.0000000000000000    6.6065589999999998    0.0000000000000000
     0.0000000000000000    0.0000000000000000    6.6065589999999998
 Sb  Te  Pd 
   4   4   4
Cartesian
  4.1390422462949994  4.1390422462949994  4.1390356397360000
  5.7708028602640002  2.4675233602639999  0.8357627462950000
  0.8357627462950000  5.7707962537049999  2.4675233602639999
  2.4675233602639999  0.8357561397360000  5.7707962537049999
  2.4772151823169999  2.4772151823169999  2.4772217888760002
  0.8260643176830000  4.1293438176830000  5.7804880757579999
  5.7804946823170003  0.8260643176830000  4.1293372111240005
  4.1293438176830000  5.7804946823170003  0.8260709242420000
  0.0285799742340000  0.0285799742340000  0.0285799742340000
  3.2746995257660001  6.5779790257659991  3.3318594742340002
  3.3318594742340002  3.2746995257660001  6.5779790257659991
  6.5779790257659991  3.3318594742340002  3.2746995257660001
