Mn S 
 1.0000000000000000
     6.7969090000000003   -0.3748260000000000   -0.2220020000000000
     6.1472629999999997    2.9239730000000002   -0.2220020000000000
     6.1472629999999997    1.2106040000000000    2.6708300000000000
 Mn  S  
   1   2
Cartesian
  0.0000000000000000  0.0000000000000000  0.0000000000000000
 11.4535055081150006  2.2555836576790003  1.3359374953540002
  7.6379294918850000  1.5041673423210002  0.8908885046460000
