Ti Zn N 
 1.0000000000000000
     5.6613210000000000    0.0000000000000000    0.0000000000000000
     0.0000000000000000    6.5301879999999999    0.0000000000000000
     0.0000000000000000    0.0000000000000000    5.2059480000000002
 Ti  Zn  N  
   4   4   8
Cartesian
  0.4694367373200000  4.0865720598360005  5.1856500087480004
  5.1918842626800004  2.4436159401639999  2.5826760087480003
  3.3000972373200002  5.7087099401639998  5.1856500087480004
  2.3612237626799999  0.8214780598360000  2.5826760087480003
  0.4893872325240000  0.8116370665200000  5.1940263790800003
  5.1719337674760002  5.7185509334799995  2.5910523790800002
  3.3200477325239999  2.4534569334800000  5.1940263790800003
  2.3412732674759997  4.0767310665199998  2.5910523790800002
  0.5103171362609999  0.8776637973879999  2.0338129111079999
  5.1510038637389997  5.6525242026119997  4.6367869111080005
  3.3409776362610000  2.3874302026119998  2.0338129111079999
  2.3203433637390001  4.1427577973879997  4.6367869111080005
  0.4048184194260000  4.0149620182280001  1.9080788550120000
  5.2565025805740007  2.5152259817719997  4.5110528550120002
  3.2354789194259999  5.7803199817720001  1.9080788550120000
  2.4258420805739997  0.7498680182280000  4.5110528550120002
