La F 
 1.0000000000000000
     7.1672000000000002    0.0000000000000000    0.0000000000000000
    -3.5836000000000001    6.2069780000000003    0.0000000000000000
     0.0000000000000000    0.0000000000000000    7.3317560000000004
 La  F  
   6  18
Cartesian
  1.2248816471999999  2.1215574943560003  5.4988170000000007
 -2.3587183528000000  4.0854205056439996  5.4988170000000007
  4.7174367055999999  0.0000000000000000  5.4988170000000007
  2.3587183528000000  4.0854205056439996  1.8329390000000001
 -1.2248816471999999  2.1215574943560003  1.8329390000000001
  2.4497632943999998  0.0000000000000000  1.8329390000000001
  0.0000000000000000  0.0000000000000000  5.4988170000000007
  0.0000000000000000  0.0000000000000000  1.8329390000000001
 -0.0000035835999999  4.1379874023259999  5.9954114973920003
  3.5836035836000000  2.0689905976740000  5.0022225026080003
  3.5836035836000000  2.0689905976740000  1.3363445026080001
 -0.0000035835999999  4.1379874023259999  2.3295334973920001
 -1.1479453388000000  5.8596541320539997  4.2626756066440006
 -0.9170360727999999  2.2830009921359999  4.2626756066440006
  2.0649814115999998  4.2713008758100006  4.2626756066440006
  2.4356546611999996  0.3473238679460000  6.7349583933560000
  2.6665639272000004  3.9239770078639999  6.7349583933560000
  5.6485814115999995  1.9356771241900002  6.7349583933560000
  4.7315453388000002  0.3473238679460000  3.0690803933560002
  4.5006360727999999  3.9239770078639999  3.0690803933560002
  1.5186185883999999  1.9356771241900002  3.0690803933560002
  1.1479453388000000  5.8596541320539997  0.5967976066440001
  0.9170360728000000  2.2830009921359999  0.5967976066440001
 -2.0649814116000003  4.2713008758100006  0.5967976066440001
