Mg Si Rh
 1.0000000000000000
     0.0000000000000000    2.9778560000000001    2.9778560000000001
     2.9778560000000001    0.0000000000000000    2.9778560000000001
     2.9778560000000001    2.9778560000000001    0.0000000000000000
 Mg  Si  Rh 
   1   1   2
Cartesian
  1.4889280000000000  1.4889280000000000  1.4889280000000000
  4.4667840000000005  4.4667840000000005  4.4667840000000005
  0.0000000000000000  0.0000000000000000  0.0000000000000000
  2.9778619557120001  2.9778619557120001  2.9778619557120001
