Mg Ir
 1.0000000000000000
     4.5835169999999996    0.0000000000000000    0.0000000000000000
    -2.2917589999999999    3.9694430000000001    0.0000000000000000
     0.0000000000000000    0.0000000000000000    8.2837510000000005
 Mg  Ir 
   6   2
Cartesian
  0.0000000000000000  0.0000000000000000  2.0709377500000001
  0.0000000000000000  0.0000000000000000  6.2128132500000000
 -0.0000026250920002  2.6462966564810002  4.7863347602980006
  2.2917606250919995  1.3231463435190001  0.6444592602980000
  2.2917606250919995  1.3231463435190001  3.4974162397020003
 -0.0000026250920002  2.6462966564810002  7.6392917397020002
 -0.0000026250920002  2.6462966564810002  2.0709377500000001
  2.2917606250919995  1.3231463435190001  6.2128132500000000
