Tb Ni Ge
 1.0000000000000000
     4.1185159999999996    0.0000000000000000    0.0000000000000000
     0.0000000000000000    3.9877170000000000   -1.0013680000000000
     0.0000000000000000    0.0297410000000000    8.5592059999999996
 Tb  Ni  Ge 
   2   2   4
Cartesian
  3.0888869999999997  0.4388620410230000  1.7476592239780000
  1.0296289999999999  3.5785959589770000  5.8101787760219992
  3.0888869999999997  1.2972487252109999  5.1660046725259994
  1.0296289999999999  2.7202092747890001  2.3918333274740000
  3.0888869999999997  1.8528765343239997  7.3786652921539995
  1.0296289999999999  1.0145113138480000  4.0400423010679996
  1.0296289999999999  2.1645814656760001  0.1791727078459999
  3.0888869999999997  3.0029466861520002  3.5177956989319998
