Na P  S  O 
 1.0000000000000000
     4.6534610000000001   -4.2562350000000002    0.0000000000000000
     4.6534610000000001    4.2562350000000002    0.0000000000000000
     0.7605440000000000    0.0000000000000000    6.2603359999999997
 Na  P   S   O  
   6   2   2   6
Cartesian
  6.5973891628359995  1.6023873528000001  1.1879801403679999
  3.9041173584729996  1.3422420133649999  5.5191247382719997
  5.3697227506329996 -2.9446293661650000  3.1622334409919994
  2.3242001628360001 -1.6023873528000001  4.3181481403679998
  4.9894507506329999 -1.3116056338350002  0.0320654409920000
  3.5238453584730003  2.9139929866350003  2.3889567382719998
  9.1315138209119979 -0.0000000000000001  5.6783250827519991
  4.0977808209119999 -0.0000000000000001  2.5481570827519997
  5.8830647016239999  0.0000000000000001  3.6583149863039996
  0.8493317016240000  0.0000000000000000  0.5281469863039999
  7.2911685225109988 -0.7162094321550002  0.2705842425920000
  4.7509506429200004  3.4935006630599998  4.3555974703199993
  4.0958778205790001 -2.7772912309050000  5.4090429900479995
  3.0179795225110002  0.7162094321550001  3.4007522425919996
  3.7156058205790004 -1.4789437690950000  2.2788749900480001
  4.3706786429199997  0.7627343369400000  1.2254294703199999
