Li Ge N 
 1.0000000000000000
     0.0000000000000000    0.0000000000000000   -5.0489949999999997
     0.0000000000000000   -5.5132659999999998    0.0000000000000000
    -4.7741100000000003    2.7566329999999999    0.0000000000000000
 Li  Ge  N  
   2   4   6
Cartesian
  0.0000000000000000 -1.8821297736120000 -2.5055688177450000
  0.0000000000000000 -3.6311362263880000 -5.0300663177449998
 -3.2151243795000002 -1.8357521800200001 -2.4840449520599996
 -1.5589856205000001 -4.5923851800200008 -2.4840449520599996
 -1.5589856205000001 -0.9208808199800002 -5.0085424520599995
 -3.2151243795000002  1.8357521800199998 -5.0085424520599995
 -2.9906075344200005 -1.9364960896379999 -0.6215161375149999
 -1.7835024655800003  0.8201369103620000 -0.6215161375149999
 -1.7835024655800003 -0.8201369103619999 -3.1460136375149998
 -2.9906075344200005 -3.5767699103620001 -3.1460136375149998
  0.0000000000000000 -1.6499826821500001 -0.4775288981049999
  0.0000000000000000 -3.8632833178500001 -3.0020263981049995
