Sn Ir
 1.0000000000000000
     6.4369209999999999    0.0000000000000000    0.0000000000000000
     0.0000000000000000    6.4369209999999999    0.0000000000000000
     0.0000000000000000    0.0000000000000000    6.4369209999999999
 Sn  Ir 
   8   4
Cartesian
  1.6092302500000000  4.8276907500000004  4.8276907500000004
  1.6092302500000000  4.8276907500000004  1.6092302500000000
  1.6092302500000000  1.6092302500000000  1.6092302500000000
  1.6092302500000000  1.6092302500000000  4.8276907500000004
  4.8276907500000004  4.8276907500000004  1.6092302500000000
  4.8276907500000004  4.8276907500000004  4.8276907500000004
  4.8276907500000004  1.6092302500000000  4.8276907500000004
  4.8276907500000004  1.6092302500000000  1.6092302500000000
  0.0000000000000000  0.0000000000000000  0.0000000000000000
  0.0000000000000000  3.2184604999999999  3.2184604999999999
  3.2184604999999999  0.0000000000000000  3.2184604999999999
  3.2184604999999999  3.2184604999999999  0.0000000000000000
