Si Ru
 1.0000000000000000
     2.9422990000000002    0.0000000000000000    0.0000000000000000
     0.0000000000000000    2.9422990000000002    0.0000000000000000
     0.0000000000000000    0.0000000000000000    2.9422990000000002
 Si  Ru 
   1   1
Cartesian
  1.4711495000000001  1.4711495000000001  1.4711495000000001
  0.0000000000000000  0.0000000000000000  0.0000000000000000
