Cr Cl
 1.0000000000000000
     5.4347960000000004    0.0380070000000000    4.2426640000000004
     2.0920779999999999    5.0158920000000000    4.2419859999999998
     0.0551090000000000    0.0381750000000000    6.8927690000000004
 Cr  Cl 
   2   6
Cartesian
  5.0538720902979994  3.3946124545830001 10.2500985963100000
  2.5281109097020003  1.6974615454169999  5.1273204036899998
  5.0464905113630003  4.6757889256109992  8.2795274329670008
  4.8126812046950000  2.1900831788670003  5.3894835848630009
  2.7693017953050001  2.9019908211329999  9.9879354151370006
  1.9319741910879999  3.6255355552830002  6.3334425443200004
  2.5354924886370003  0.4162850743890000  7.0978915670329998
  5.6500088089120002  1.4665384447169998  9.0439764556800011
