Sc Ga
 1.0000000000000000
     3.9633259999999999    0.0000000000000000    1.5908800000000001
     1.7068410000000001    4.9234890000000000    1.4800979999999999
     0.1279550000000000   -0.1480970000000000    5.4135410000000004
 Sc  Ga 
   2   4
Cartesian
  3.3263937081299999  3.5824287191679995  3.1776551793609999
  2.4717282918699999  1.1929632808319999  5.3068638206390002
  1.2464621821889998  1.5188404972950000  2.6270235549450001
  4.5516598178110002  3.2565515027050003  5.8574954450550010
  2.2117335845950001  4.0603120564010000  5.9545771297419998
  3.5863884154050001  0.7150799435990001  2.5299418702580003
