Nd Pt
 1.0000000000000000
     4.7523970000000002    0.0000000000000000    2.7437980000000000
     1.5841320000000001    4.4806030000000003    2.7437980000000000
     0.0000000000000000    0.0000000000000000    5.4875959999999999
 Nd  Pt 
   2   4
Cartesian
  5.5444628749999998  3.9205276250000001  9.6032930000000007
  0.7920661250000001  0.5600753750000000  1.3718990000000000
  3.1682645000000003  2.2403015000000002  5.4875959999999999
  3.1682645000000003  2.2403015000000002  2.7437980000000000
  0.7920660000000000  2.2403015000000002  4.1156969999999999
  2.3761985000000001  0.0000000000000000  4.1156969999999999
