Pr As
 1.0000000000000000
     3.7332209999999999    0.0000000000000000    2.1553760000000000
     1.2444070000000000    3.5197140000000000    2.1553760000000000
    -0.0000000000000000   -0.0000000000000000    4.3107530000000001
 Pr  As 
   1   1
Cartesian
  2.4888140000000001  1.7598570000000000  4.3107524999999995
  0.0000000000000000  0.0000000000000000  0.0000000000000000
