Li In Au
 1.0000000000000000
     0.0000130000000000    3.2721619999999998    3.2721619999999998
     3.2721619999999998    0.0000130000000000    3.2721619999999998
     3.2721619999999998    3.2721619999999998    0.0000130000000000
 Li  In  Au 
   1   1   2
Cartesian
  4.9082462056629996  4.9082462056629996  4.9082462056629996
  1.6360777056629998  1.6360777056629998  1.6360777056629998
  3.2721684999999998  3.2721684999999998  3.2721684999999998
  0.0000000000000000  0.0000000000000000  0.0000000000000000
