Zr Al
 1.0000000000000000
     4.3767430000000003    0.0000000000000000    0.0000000000000000
     0.0000000000000000    4.3767420000000001    0.0000000000000000
     0.0000000000000000    0.0000000000000000    4.3767440000000004
 Zr  Al 
   3   1
Cartesian
  0.0000000000000000  2.1883710000000001  2.1883720000000002
  2.1883715000000001  2.1883710000000001  0.0000000000000000
  2.1883715000000001  0.0000000000000000  2.1883720000000002
  0.0000000000000000  0.0000000000000000  0.0000000000000000
