Sc Ni Pt
 1.0000000000000000
     0.0000000000000000    3.2264450000000000    3.2264450000000000
     3.2264450000000000    0.0000000000000000    3.2264450000000000
     3.2264450000000000    3.2264450000000000    0.0000000000000000
 Sc  Ni  Pt 
   2   1   1
Cartesian
  0.0000000000000000  0.0000000000000000  0.0000000000000000
  3.2264450000000000  3.2264450000000000  3.2264450000000000
  1.6132225000000000  1.6132225000000000  1.6132225000000000
  4.8396739528900001  4.8396739528900001  4.8396739528900001
