Be V  Fe
 1.0000000000000000
    -0.0000900000000000    2.7340529999999998    2.7335410000000002
     2.7351369999999999   -0.0000680000000000    2.7335159999999998
     2.7351179999999999    2.7340089999999999   -0.0000510000000000
 Be  V   Fe 
   1   1   2
Cartesian
  1.3675439851179998  1.3670012340089999  1.3667514999490000
  4.1026292204159995  4.1009954999120000  4.1002490328159995
  5.4700036280179996  5.4678764387970000  5.4669403975049997
  2.7352356664289998  2.7341145613589997  2.7335713361630001
