Hf Sn Rh
 1.0000000000000000
     7.3254149999999996    0.0000000000000000    0.0000000000000000
    -3.6627070000000002    6.3439959999999997    0.0000000000000000
     0.0000000000000000    0.0000000000000000    7.2090610000000002
 Hf  Sn  Rh 
   6   6   6
Cartesian
 -1.3546851304560001  2.5729534897080000  5.4067957500000006
  2.1118039067100005  3.8843335908599999  5.4067957500000006
 -0.7571287643760003  6.2307112634279997  5.4067957500000006
  5.7745186198399994  2.4596624091399999  1.8022652500000000
  2.3080297893859991  3.7710425102920002  1.8022652500000000
  2.9055855788959999  0.1132847365720000  1.8022652500000000
  0.9921580057479998  1.7184679804759999  3.6045305000000001
 -2.6705492651329998  4.6255280195239994  3.6045305000000001
 -2.6705492651329998  4.6255280195239994  0.0000000000000000
  5.3410992593849995  0.0000000000000000  3.6045305000000001
  5.3410992593849995  0.0000000000000000  0.0000000000000000
  0.9921580057479998  1.7184679804759999  0.0000000000000000
 -0.0000033293740006  4.2293327813320003  3.3423874148570003
  3.6627113293739999  2.1146632186679999  3.8666735851430003
 -0.0000033293740006  4.2293327813320003  0.2621430851430000
  0.0000000000000000  0.0000000000000000  5.4067957500000006
  0.0000000000000000  0.0000000000000000  1.8022652500000000
  3.6627113293739999  2.1146632186679999  6.9469179148569999
