Ca Ti F 
 1.0000000000000000
     5.0561800000000003    0.0085000000000000    2.9330650000000000
     1.6934050000000000    4.7641790000000004    2.9330650000000000
     0.0120190000000000    0.0085000000000000    5.8453130000000000
 Ca  Ti  F  
   1   1   6
Cartesian
  3.3808020000000001  2.3905894999999999  5.8557214999999996
  0.0000000000000000  0.0000000000000000  0.0000000000000000
  5.2196215345820010  3.6908313705010003  5.8661492489790010
  4.3032224485460011  1.0988626678470002  7.4534001274269999
  2.4583815514540004  3.6823163321529999  4.2580428725730002
  1.5419824654180001  1.0903476294990000  5.8452937510209999
  4.2911813586040006  1.0903476294990002  4.2580428725730002
  2.4704226413960004  3.6908313705010003  7.4534001274269999
