Ta Fe
 1.0000000000000000
     4.7935610000000004    0.0000000000000000    0.0000000000000000
    -2.3967800000000001    4.1513450000000001    0.0000000000000000
     0.0000000000000000    0.0000000000000000    7.8497320000000004
 Ta  Fe 
   4   8
Cartesian
  2.3967830634470002  1.3837802828849999  4.4281437174480001
 -0.0000020634470001  2.7675647171150000  0.5032777174480001
 -0.0000020634470001  2.7675647171150000  3.4215882825520003
  2.3967830634470002  1.3837802828849999  7.3464542825520001
  1.2108368153350002  0.6990740439649999  1.9624330000000001
 -0.0000022283830000  1.3981522392750001  5.8872990000000005
 -1.1859481466230000  3.4522709560350000  5.8872990000000005
  3.5827291466230005  0.6990740439649999  1.9624330000000001
  0.0000000000000000  0.0000000000000000  0.0000000000000000
  1.1859441846650005  3.4522709560350000  5.8872990000000005
  2.3967832283830002  2.7531927607250002  1.9624330000000001
  0.0000000000000000  0.0000000000000000  3.9248660000000002
