La Ga Br
 1.0000000000000000
     6.1365879999999997    0.0000000000000000    0.0000000000000000
     0.0000000000000000    6.1365790000000002    0.0000000000000000
     0.0000000000000000    0.0000000000000000    6.1365800000000004
 La  Ga  Br 
   3   1   3
Cartesian
  0.0000000000000000  3.0682895000000001  3.0682900000000002
  3.0682939999999999  0.0000000000000000  3.0682900000000002
  3.0682939999999999  3.0682895000000001  0.0000000000000000
  3.0682939999999999  3.0682895000000001  3.0682900000000002
  0.0000000000000000  0.0000000000000000  3.0682900000000002
  3.0682939999999999  0.0000000000000000  0.0000000000000000
  0.0000000000000000  3.0682895000000001  0.0000000000000000
