Li Nb N 
 1.0000000000000000
     6.1335379999999997    0.0000000000000000    0.0000000000000000
     0.0000000000000000    7.3625069999999999    0.0000000000000000
     0.0000000000000000    0.0000000000000000    4.2440199999999999
 Li  Nb  N  
   4   4   8
Cartesian
  3.5389164881639998  2.8891140093629999  4.0006127209399995
  2.5946215118359999  4.4733929906369996  1.8786027209400000
  5.6613905118360002  6.5703675093629998  1.8786027209400000
  0.4721474881640000  0.7921394906370001  4.0006127209399995
  3.5700748612039996  6.3724044211469995  3.9993098067999999
  2.5634631387959996  0.9901025788529999  1.8772998068000000
  5.6302321387959999  2.6911509211469999  1.8772998068000000
  0.5033058612040000  4.6713560788530000  3.9993098067999999
  3.6174441751780000  2.6147722735289998  1.8779873380400001
  2.5160938248219997  4.7477347264710001  3.9999973380399996
  5.5828628248219996  6.2960257735290002  3.9999973380399996
  0.5506751751780000  1.0664812264710000  1.8779873380400001
  3.5559309225760001  6.6009219134129999  1.8780255342199998
  2.5776070774240001  0.7615850865870001  4.0000355342200002
  5.6443760774239990  2.9196684134130000  4.0000355342200002
  0.4891619225760000  4.4428385865870004  1.8780255342199998
