Mg Ti Al
 1.0000000000000000
     0.0003720000000000    7.3219640000000004    7.3219640000000004
     7.3219630000000002    0.0003720000000000    7.3219640000000004
     7.3219640000000004    7.3219640000000004    0.0003720000000000
 Mg  Ti  Al 
   6   4  36
Cartesian
  3.6610674284080003  3.6610749999999999  3.6610823215920001
  1.8306574821640000  5.4915780742239999  5.4915853958160001
  5.4915847708030006  1.8306576071600000  5.4915780742240008
  7.3223423215920009  7.3223360000000000 14.6439206784079996
  1.8304714758409999  1.8304789224280000  1.8304716008360000
  5.4915925931559997  5.4915927181519999  1.8306649294960000
  5.4917566276220002  9.1524575719360008  5.4917567526320008
  5.4917561276350009  5.4917567526320008  9.1524575719360008
  9.1526429421030020  9.1526435671000019  9.1526435671000002
  9.1524496249750005  5.4917494306680004  5.4917567522600006
  4.6285565158580004  6.5947921940200001  4.6285640192360002
 10.9832756965700007 10.9832765852400005 13.0138469105199999
  8.9525878342229994 10.9831660924239998 10.9831660924239998
  6.5947917436810002  4.6285566976440000  4.6285640192360002
  7.3220978439760014  5.2941932166720003  7.3220984824640007
  6.3533691438010003  2.9341938010440005  8.2907071162040005
  4.6287303135130005 10.0155918093000018  8.0493782777000025
 10.0157054366619995  6.5950585718000001 10.0157063542000007
  2.9341864114059999  8.2907071162040005  6.3533772650440001
  5.2941928551600004  7.3220984824640016  7.3220984824640016
  7.3222011563970000  9.3501214268839998  7.3222015179080007
 11.7101546156490013  8.2909719512999995  8.2909719513000013
  2.9341934683920003  6.3533699434519999  8.2907071162039987
  8.2909789406119998 11.7101554156720002  8.2909792732640000
  8.0493773605350007  4.6287378172640006 10.0155991312640005
  7.3222008794190003  7.3222015179080007  9.3501214268839998
  6.5950581214620003 10.0157063542000007 10.0157063542000007
  8.2907141055160007  6.3533772654160003  2.9341938014160003
  9.3501207883949995  7.3222015179080007  7.3222015179080007
  8.0493854178769997 10.0155991312640005  4.6287304956720003
  6.3533771973700004  8.2907144381680009  2.9341938014160003
 10.0155908917630008  4.6287304953000001  8.0493782777000007
 10.0155986809260007  8.0493782780720000  4.6287378172640006
 10.9831725257170003  8.9525884459240004 10.9831734143880002
  8.2907136385159994  2.9341938014160003  6.3533772654160003
  6.3535501890219992  6.3535509886719996 11.7100423390560007
  4.6287373669260008  8.0493782780720018 10.0155991312640005
 13.0138460218500001 10.9832765852400005 10.9832765852400005
 10.9832759739100005 13.0138469105199999 10.9832765852400005
  4.6285562473050001  4.6285566976440000  6.5947995156120003
 10.9831654810949999 10.9831660924239998  8.9525884455520011
 10.0157059038620009 10.0157063542000007  6.5950585718000010
 11.7100488609980005  6.3535509886720005  6.3535436670799994
  7.3220981209520009  7.3220984824640007  5.2941932166720003
  8.2909711516489999  8.2909719512999995 11.7101554152999991
  6.3535509206250005 11.7100496606480000  6.3535436670800003
