Zr Re
 1.0000000000000000
     5.2846419999999998    0.0000000000000000    0.0000000000000000
    -2.6423209999999999    4.5766340000000003    0.0000000000000000
     0.0000000000000000    0.0000000000000000    8.6568299999999994
 Zr  Re 
   4   8
Cartesian
 -0.0000026423210002  3.0510908588780001  3.7972925090099996
  2.6423236423210001  1.5255431411220000  8.1257075090099988
  2.6423236423210001  1.5255431411220000  4.8595374909899993
 -0.0000026423210002  3.0510908588780001  0.5311224909900000
  1.2833488864900000  3.7920341735759999  6.4926224999999995
  1.3589721135099999  0.7845998264240001  2.1642074999999998
  3.9256751711320002  0.7845998264240001  2.1642074999999998
 -0.0000026423209999  1.5692042294820001  6.4926224999999995
 -1.2833541711319998  3.7920341735759999  6.4926224999999995
  2.6423236423210001  3.0074297705180002  2.1642074999999998
  0.0000000000000000  0.0000000000000000  4.3284149999999997
  0.0000000000000000  0.0000000000000000  0.0000000000000000
