Ca C 
 1.0000000000000000
     3.7726730000000002    0.0012350000000000    0.9870970000000000
     1.4751520000000000    3.4723160000000002    0.9870970000000000
    -0.0106570000000000   -0.0070540000000000    7.3840880000000002
 Ca  C  
   2   4
Cartesian
  3.3690545751640002  0.6052306717960000  2.8331189999999999
  1.8681134248359998  2.8612663282040001  6.5251630000000000
  1.1428565449579999  1.4578902642530001  3.8012822243700004
  3.4539630333700000  2.9876185713390000  1.8649557756299999
  1.7832049666300001  0.4788784286610000  7.4933262243700005
  4.0943114550419999  2.0086067357470001  5.5569997756299996
