Ta Pd
 1.0000000000000000
     3.9339909999999998    0.0000000000000000    0.0000000000000000
     0.0000000000000000    3.9339909999999998    0.0000000000000000
     0.0000000000000000    0.0000000000000000    8.0790380000000006
 Ta  Pd 
   2   6
Cartesian
  0.0000000000000000  0.0000000000000000  0.0000000000000000
  1.9669954999999999  1.9669954999999999  4.0395190000000003
  1.9669954999999999  1.9669954999999999  0.0000000000000000
  0.0000000000000000  1.9669954999999999  6.0592785000000005
  0.0000000000000000  1.9669954999999999  2.0197595000000002
  0.0000000000000000  0.0000000000000000  4.0395190000000003
  1.9669954999999999  0.0000000000000000  2.0197595000000002
  1.9669954999999999  0.0000000000000000  6.0592785000000005
