Sr In Pd
 1.0000000000000000
     2.2764259999999998   -5.4592440000000000    0.0000000000000000
     2.2764259999999998    5.4592440000000000    0.0000000000000000
     0.0000000000000000    0.0000000000000000    7.9787569999999999
 Sr  In  Pd 
   2   4   2
Cartesian
  2.2764259999999998 -4.8100852959600005  5.9840677499999995
  2.2764259999999998  4.8100852959599996  1.9946892500000000
  2.2764259999999998 -1.6851594379200001  7.5443535751350002
  2.2764259999999998  1.6851594379200001  0.4344034248650000
  2.2764259999999998  1.6851594379200001  3.5549750751349998
  2.2764259999999998 -1.6851594379200001  4.4237819248649997
  2.2764259999999998  3.0606814746480002  5.9840677499999995
  2.2764259999999998 -3.0606814746479998  1.9946892500000000
