Al Pd
 1.0000000000000000
     4.0814149999999998    0.0000000000000000    0.0000000000000000
     0.0000000000000000    5.4359580000000003    0.0000000000000000
     0.0000000000000000    0.0000000000000000   10.6145499999999995
 Al  Pd 
   6  10
Cartesian
  0.0000000000000000  0.0000000000000000  0.0000000000000000
  0.0000000000000000  2.7179790000000001  5.3072749999999997
  2.0407074999999999  0.8752490335380000  3.7902541285499995
  2.0407074999999999  4.5607089664620002  6.8242958714499995
  2.0407074999999999  3.5932280335380002  1.5170208714499998
  2.0407074999999999  1.8427299664620000  9.0975291285499988
  2.0407074999999999  1.0131429801239999  1.1194741303000000
  2.0407074999999999  4.4228150198760003  9.4950758697000008
  2.0407074999999999  3.7311219801240005  4.1878008696999993
  2.0407074999999999  1.7048360198760002  6.4267491302999993
  0.0000000000000000  0.0000000000000000  5.3072749999999997
  0.0000000000000000  2.7179790000000001  0.0000000000000000
  0.0000000000000000  4.9112249742600005  2.4679359477499996
  0.0000000000000000  0.5247330257400000  8.1466140522499995
  0.0000000000000000  2.1932459742599999  2.8393390522499997
  0.0000000000000000  3.2427120257400004  7.7752109477499989
