Ho Au
 1.0000000000000000
    -3.7082880000000000   -0.0061560000000000    0.0000000000000000
     0.0000000000000000    0.0000000000000000   -4.6173620000000000
    -1.8631709999999999   -5.4242530000000002    0.0000000000000000
 Ho  Au 
   2   2
Cartesian
 -1.8593189023769998 -3.9203897114190003 -3.4630215000000000
 -3.7121400976230001 -1.5100192885810002 -1.1543405000000000
 -1.8562974047550000 -0.9633695962970000 -3.4630215000000000
 -3.7151615952450001 -4.4670394037030006 -1.1543405000000000
