Cr Pt
 1.0000000000000000
     3.9202240000000002    0.0000000000000000    0.0000000000000000
     0.0000000000000000    3.9202240000000002    0.0000000000000000
     0.0000000000000000    0.0000000000000000    3.9202240000000002
 Cr  Pt 
   1   3
Cartesian
  0.0000000000000000  0.0000000000000000  0.0000000000000000
  0.0000000000000000  1.9601120000000001  1.9601120000000001
  1.9601120000000001  1.9601120000000001  0.0000000000000000
  1.9601120000000001  0.0000000000000000  1.9601120000000001
