Be H  S  O 
 1.0000000000000000
    -3.9674870000000002    3.9674870000000002    5.3307460000000004
     3.9674870000000002   -3.9674870000000002    5.3307460000000004
     3.9674870000000002    3.9674870000000002   -5.3307460000000004
 Be  H   S   O  
   2  16   2  16
Cartesian
 -0.0000039674870003  3.9674909674870005  2.6653783307460004
  3.9674909674870005 -0.0000039674870000  2.6653783307460004
  1.0083764959200001  2.2303624919200002  1.4540249404520005
 -1.0083804634069997  5.7046075405929999  1.4540302711980004
  1.7371245080800004  2.9591105040800003 -1.4540249404520003
  2.2303624919200002  1.0083764959200001  3.8767103980560003
 -1.0083804634069997  2.2303585244330000  6.7847762711980000
  4.9758555609460000  1.7371324430539998  1.4540249404520007
  1.7371165731059999  4.9758714308940002  3.8767103980559994
 -1.7371324430540001  2.9591105040800003  3.8767210595480006
  1.8424017756250000  3.6432520598990004  1.4149132570500005
  2.1250891918620001  0.3242389075879998  6.7456539263040014
  4.2917298750750001 -1.8424097105990001  3.9158327429500002
  3.6432441249250003  1.8424097105990001  3.9158434044420005
  2.1250852243750002 -0.3242428750750000  1.4149132570500000
  5.8098887756249997  0.3242428750750003  1.4149025955579997
  4.2917259075880008  1.8424136780860001 -1.4149079263040003
 -0.3242468425619998  2.1250891918620001  3.9158380736960003
  0.0000000000000000  0.0000000000000000  0.0000000000000000
  0.0000000000000000  0.0000000000000000  5.3307460000000004
  1.0994303225700006  3.1353700815419998  1.8361647982080000
 -1.0994223875960001  4.7995959834840001  1.8361541367159997
  4.7996039184580006 -1.0994303225700002  3.4945812017920002
  3.1353780165160003  1.0994223875960003  3.4945918632840005
  2.8680527099430004 -0.8321129509710004  1.8361594674620005
  5.0669212900570004  0.8321050159969997  1.8361594674620001
  0.8321129509709998  5.0669133550830008  3.4945865325380003
 -0.8321050159970005  2.8680447749690003  3.4945865325380012
  1.0090231963010001  0.6779522760990001  0.8328384398179999
  2.9584558687250002  3.2895267889270001  6.1635951013100012
  3.2895267889270001  2.9584558687250002 -0.8328384398180001
  0.6779483086120001  1.0090271637880002  4.4978915679439995
  2.9584598362120000  4.6454432435860005  0.8328437705640003
  1.0090192288139999 -0.6779483086119998  6.1635897705640001
  3.2895267889270006 -2.9584558687250002  4.4978968986900005
  0.6779522760989993  6.9259587386730006 -0.8328491013099996
