La Pd
 1.0000000000000000
     4.2026620000000001    0.0000000000000000    0.0000000000000000
     0.0000000000000000    4.2026620000000001    0.0000000000000000
     0.0000000000000000    0.0000000000000000    4.2026620000000001
 La  Pd 
   1   3
Cartesian
  0.0000000000000000  0.0000000000000000  0.0000000000000000
  2.1013310000000001  0.0000000000000000  2.1013310000000001
  0.0000000000000000  2.1013310000000001  2.1013310000000001
  2.1013310000000001  2.1013310000000001  0.0000000000000000
