Ti Mn V 
 1.0000000000000000
     0.0029560000000000    2.9753850000000002    2.9751029999999998
     2.9775870000000002    0.0008650000000000    2.9772010000000000
     2.9754060000000000    2.9752950000000000    0.0030760000000000
 Ti  Mn  V  
   1   2   1
Cartesian
  1.4889783164640000  1.4878802975900001  1.4888360674190000
  0.0031017687770000  2.9754683130550004  2.9750823181570003
  2.9778465836590002  2.9757070387150000  2.9777107002989998
  4.4669558145990003  4.4636528022749999  4.4665528415319997
