Tb Mn Ge
 1.0000000000000000
     3.8560940000000001    0.0000000000000000   -1.3328709999999999
    -0.4607100000000000    3.8284739999999999   -1.3328709999999999
    -0.0126730000000000   -0.0142890000000000    6.2077570000000000
 Tb  Mn  Ge 
   1   2   2
Cartesian
  0.0000000000000000  0.0000000000000000  0.0000000000000000
  0.6121545000000000  2.8642110000000001  1.7710075000000001
  2.7705564999999996  0.9499740000000000  1.7710075000000001
  2.0774784197370000  2.3424662654309998 -0.2341142367029998
  1.3052325802630000  1.4717187345689999  3.7761292367029999
