Li Pm Ru
 1.0000000000000000
     0.0000000000000000    3.5467529999999998    3.5467529999999998
     3.5467529999999998    0.0000000000000000    3.5467529999999998
     3.5467529999999998    3.5467529999999998    0.0000000000000000
 Li  Pm  Ru 
   1   2   1
Cartesian
  1.7733764999999999  1.7733764999999999  1.7733764999999999
  0.0000000000000000  0.0000000000000000  0.0000000000000000
  3.5467529999999998  3.5467529999999998  3.5467529999999998
  5.3201295000000002  5.3201295000000002  5.3201295000000002
