Sc Ga Co
 1.0000000000000000
     4.0990300000000000    0.0000000000000000    0.0000000000000000
     0.0000000000000000    4.0990300000000000    0.0000000000000000
     0.0000000000000000    0.0000000000000000    6.5593610000000000
 Sc  Ga  Co 
   1   5   1
Cartesian
  0.0000000000000000  0.0000000000000000  0.0000000000000000
  0.0000000000000000  2.0495150000000000  1.9918942735920000
  0.0000000000000000  2.0495150000000000  4.5674667264080000
  2.0495150000000000  0.0000000000000000  1.9918942735920000
  2.0495150000000000  0.0000000000000000  4.5674667264080000
  2.0495150000000000  2.0495150000000000  0.0000000000000000
  0.0000000000000000  0.0000000000000000  3.2796805000000000
