Dy Bi Rh
 1.0000000000000000
     7.6105539999999996    0.0000000000000000    0.0000000000000000
    -3.8052779999999999    6.5909329999999997    0.0000000000000000
     0.0000000000000000    0.0000000000000000    3.9741439999999999
 Dy  Bi  Rh 
   3   3   3
Cartesian
  4.5693005160599993  0.0000000000000000  0.0000000000000000
  1.5206263423599997  2.6338027361299998  0.0000000000000000
 -2.2846508584200000  3.9571302638699999  0.0000000000000000
  2.0265839824440000  0.0000000000000000  1.9870719999999999
  2.7919842750639994  4.8358598151619994  1.9870719999999999
 -1.0132922575080001  1.7550731848380001  1.9870719999999999
  3.8052804719440001  2.1969754696889998  1.9870719999999999
  0.0000000000000000  0.0000000000000000  0.0000000000000000
 -0.0000044719440001  4.3939575303109999  1.9870719999999999
