Ba Sn
 1.0000000000000000
     4.7138260000000001    0.0000000000000000    0.0000000000000000
    -2.3569130000000000    4.0822919999999998    0.0000000000000000
     0.0000000000000000    0.0000000000000000    5.6435329999999997
 Ba  Sn 
   1   2
Cartesian
  0.0000000000000000  0.0000000000000000  2.8217664999999998
  2.3569153569129999  1.3607626392359999  5.0696251986309999
 -0.0000023569130001  2.7215293607639999  0.5739078013690000
