Sn Pb O 
 1.0000000000000000
     8.8019739999999995    0.0000000000000000    0.0000000000000000
     0.0000000000000000    8.8019739999999995    0.0000000000000000
     0.0000000000000000    0.0000000000000000    6.3583730000000003
 Sn  Pb  O  
   4   8  16
Cartesian
  0.0000000000000000  4.4009869999999998  4.7687797500000002
  4.4009869999999998  0.0000000000000000  1.5895932500000001
  0.0000000000000000  4.4009869999999998  1.5895932500000001
  4.4009869999999998  0.0000000000000000  4.7687797500000002
  3.1469169523759999  5.8185801205959997  0.0000000000000000
  5.6550570476240001  2.9833938794040002  0.0000000000000000
  1.2540700476239999  1.4175931205960000  0.0000000000000000
  7.5479039523759992  7.3843808794039996  0.0000000000000000
  7.3843808794039996  1.2540700476239999  3.1791865000000001
  1.4175931205960000  7.5479039523759992  3.1791865000000001
  5.8185801205959997  5.6550570476240001  3.1791865000000001
  2.9833938794040002  3.1469169523759999  3.1791865000000001
  3.3102287779720001  0.8455176224400001  3.1791865000000001
  5.4917452220279994  7.9564563775599995  3.1791865000000001
  1.0907582220279999  5.2465046224399998  3.1791865000000001
  7.7112157779719999  3.5554693775600001  3.1791865000000001
  3.5554693775600001  1.0907582220279999  0.0000000000000000
  5.2465046224399998  7.7112157779719999  0.0000000000000000
  0.8455176224400001  5.4917452220279994  0.0000000000000000
  7.9564563775599995  3.3102287779720001  0.0000000000000000
  1.4548254706159998  2.9461615293839998  4.7687797500000002
  7.3471485293839995  5.8558124706159997  4.7687797500000002
  2.9461615293839998  7.3471485293839995  1.5895932500000001
  5.8558124706159997  1.4548254706159998  1.5895932500000001
  2.9461615293839998  7.3471485293839995  4.7687797500000002
  5.8558124706159997  1.4548254706159998  4.7687797500000002
  1.4548254706159998  2.9461615293839998  1.5895932500000001
  7.3471485293839995  5.8558124706159997  1.5895932500000001
