Sc Sb Ru
 1.0000000000000000
    -0.0005880000000000    3.1760340000000000    3.1763330000000001
     3.1757309999999999    0.0000510000000000    3.1756940000000000
     3.1766489999999998    3.1763129999999999   -0.0008680000000000
 Sc  Sb  Ru 
   1   1   2
Cartesian
  4.7638344694649994  4.7642921470949995  4.7633724289370010
  1.5879321162389999  1.5881026750950000  1.5877961065480000
  3.1758167982269998  0.0003559172850000  3.1756209103710002
  3.1758292619250001  3.1759036122629998  3.1756494083170002
