Pr Cd
 1.0000000000000000
     3.8749289999999998    0.0000000000000000    0.0000000000000000
     0.0000000000000000    3.8749289999999998    0.0000000000000000
     0.0000000000000000    0.0000000000000000    3.8749289999999998
 Pr  Cd 
   1   1
Cartesian
  1.9374644999999999  1.9374644999999999  1.9374644999999999
  0.0000000000000000  0.0000000000000000  0.0000000000000000
