Ti Pd
 1.0000000000000000
     4.7319490000000002    0.0000000000000000    0.0000000000000000
     0.0000000000000000   14.3935879999999994    0.0000000000000000
     0.0000000000000000    0.0000000000000000    4.6357480000000004
 Ti  Pd 
   8  12
Cartesian
  1.0846762775760002  1.5519886261000000  3.4768110000000005
  3.6472727224240002 12.8415993738999994  1.1589370000000001
  1.0846762775760002 12.8415993738999994  3.4768110000000005
  3.6472727224240002  1.5519886261000000  1.1589370000000001
  3.4506507775760000  8.7487826260999988  3.4768110000000005
  1.2812982224240002  5.6448053738999997  1.1589370000000001
  3.4506507775760000  5.6448053738999997  3.4768110000000005
  1.2812982224240002  8.7487826260999988  1.1589370000000001
  1.3372582512980002 11.5933730289519996  1.1589370000000001
  3.3946907487020002  2.8002149710479998  3.4768110000000005
  3.3946907487020002 11.5933730289519996  3.4768110000000005
  1.3372582512980002  2.8002149710479998  1.1589370000000001
  3.3393600690450000  0.0000000000000000  3.4768110000000005
  1.3925889309549999  0.0000000000000000  1.1589370000000001
  3.7032327512980001  4.3965790289519999  1.1589370000000001
  1.0287162487020001  9.9970089710480003  3.4768110000000005
  1.0287162487020001  4.3965790289519999  3.4768110000000005
  3.7032327512980001  9.9970089710480003  1.1589370000000001
  0.9733855690450001  7.1967939999999997  3.4768110000000005
  3.7585634309550002  7.1967939999999997  1.1589370000000001
