Al
 1.0000000000000000
     4.0383529999999999    0.0000000000000000    0.0000000000000000
     0.0000000000000000    4.0383529999999999    0.0000000000000000
     0.0000000000000000    0.0000000000000000    4.0383529999999999
 Al 
   4
Cartesian
  0.0000000000000000  0.0000000000000000  0.0000000000000000
  0.0000000000000000  2.0191764999999999  2.0191764999999999
  2.0191764999999999  0.0000000000000000  2.0191764999999999
  2.0191764999999999  2.0191764999999999  0.0000000000000000
