Ta Te Ir
 1.0000000000000000
     3.8080490000000000    0.0000000000000000    0.0000000000000000
     0.0000000000000000   12.6048770000000001    0.0000000000000000
     0.0000000000000000    0.0000000000000000   14.0999160000000003
 Ta  Te  Ir 
   4  16   4
Cartesian
  0.0000000000000000  0.6597518670570000  0.0665234036880000
  1.9040245000000000 11.9451251329429997  7.1164814036879998
  0.0000000000000000  3.3919850055769998  6.9142181086679999
  1.9040245000000000  9.2128919944229999 13.9641761086679992
  1.9040245000000000  1.3453563368410000  1.9538394600360001
  0.0000000000000000 11.2595206631589999  9.0037974600360009
  1.9040245000000000  1.9130673920440000  8.4831721616519999
  0.0000000000000000 10.6918096079559994  1.4332141616520000
  1.9040245000000000  4.0702786467010004  5.0208108886080005
  0.0000000000000000  8.5345983532989997 12.0707688886079989
  1.9040245000000000  5.4834240120480002 12.7138237576200002
  0.0000000000000000  7.1214529879520008  5.6638657576200009
  0.0000000000000000  0.8277874823439999  5.5651240458720004
  1.9040245000000000 11.7770895176560000 12.6150820458720005
  0.0000000000000000  2.4250901006609999 12.1908719730959998
  1.9040245000000000 10.1797868993389997  5.1409139730959996
  0.0000000000000000  4.3696948949590002  1.2706421301720001
  1.9040245000000000  8.2351821050409999  8.3206001301720001
  0.0000000000000000  5.1937387288340000  8.8577082303600001
  1.9040245000000000  7.4111382711660001  1.8077502303599999
  0.0000000000000000  6.7375714589170004 14.0842932930720011
  1.9040245000000000  5.8673055410829997  7.0343352930720000
  0.0000000000000000  9.4931236198869993  6.9576176501160001
  1.9040245000000000  3.1117533801130000 14.0075756501159994
