Cd Cu
 1.0000000000000000
     5.0371430000000004    0.0000000000000000    0.0000000000000000
    -2.5185710000000001    4.3622930000000002    0.0000000000000000
     0.0000000000000000    0.0000000000000000    8.1871060000000000
 Cd  Cu 
   4   8
Cartesian
 -0.0000021852380001  2.9081967874310002  3.5917407119420002
  2.5185741852380001  1.4540962125690000  7.6852937119419993
  2.5185741852380001  1.4540962125690000  4.5953652880580007
 -0.0000021852380001  2.9081967874310002  0.5018122880580000
  0.0000001683320000  1.4686270105520001  6.1403295000000000
  3.7652745509519998  0.7343135052760000  2.0467765000000000
  1.2718686173800000  0.7343135052760000  2.0467765000000000
  1.2467033826200005  3.6279794947239998  6.1403295000000000
  0.0000000000000000  0.0000000000000000  0.0000000000000000
  0.0000000000000000  0.0000000000000000  4.0935530000000000
  2.5185718316679995  2.8936659894480004  2.0467765000000000
 -1.2467025509520000  3.6279794947239998  6.1403295000000000
