Ta Nb Ir
 1.0000000000000000
     0.0000000000000000    3.2252510000000001    3.2252510000000001
     3.2252510000000001    0.0000000000000000    3.2252510000000001
     3.2252510000000001    3.2252510000000001    0.0000000000000000
 Ta  Nb  Ir 
   2   1   1
Cartesian
  0.0000000000000000  0.0000000000000000  0.0000000000000000
  3.2252574505020002  3.2252574505020002  3.2252574505020002
  4.8378765000000001  4.8378765000000001  4.8378765000000001
  1.6126190494979999  1.6126190494979999  1.6126190494979999
