In Ni S 
 1.0000000000000000
     4.6731959999999999   -0.0105730000000000    2.8279519999999998
     1.5889740000000001    4.3947729999999998    2.8279519999999998
    -0.0151020000000000   -0.0105730000000000    5.4622190000000002
 In  Ni  S  
   2   3   2
Cartesian
  3.1235340000000003  2.1868135000000000  5.5590615000000003
  0.0000000000000000  0.0000000000000000  0.0000000000000000
  2.3365980000000000 -0.0052865000000000  1.4139759999999999
  0.7944870000000001  2.1973864999999999  1.4139759999999999
 -0.0075510000000000 -0.0052865000000000  2.7311095000000001
  4.5171361765080000  3.1624865847869996  8.0393034969629991
  1.7299318234920003  1.2111404152130001  3.0788195030370002
