Ir Se
 1.0000000000000000
     6.0231659999999998    0.0031870000000000   -0.0303650000000000
    -0.0305010000000000    6.0231310000000002   -0.0303660000000000
     0.0034760000000000    0.0033310000000000    6.0232200000000002
 Ir  Se 
   3   8
Cartesian
  3.0133209999999999  0.0032590000000000  2.9964275000000002
 -0.0135125000000000  3.0132310000000002  2.9964270000000002
  2.9963324999999998  3.0131589999999999 -0.0303655000000000
  2.3136045869480002  0.7035366688730000  5.2835609708940003
  0.6738648950930000  5.3003366885260004  2.2838756912820002
  5.2875056432019996  2.3171931434590003  0.6610548788840001
  2.2416391012749997  2.2542143947370001  2.2290945215750000
  3.7545018987249996  3.7754346052629999  3.7333944784250002
  0.7086353567980000  3.7124558565410002  5.3014341211160003
  5.3222761049070000  0.7293123114740000  3.6786133087180004
  3.6825364130520000  5.3261123311270007  0.6789280291060000
