Zn Ga Ni
 1.0000000000000000
    -5.7308930000000000    5.7308930000000000    5.7308930000000000
     5.7308930000000000   -5.7308930000000000    5.7308930000000000
     5.7308930000000000    5.7308930000000000   -5.7308930000000000
 Zn  Ga  Ni 
   8  24  24
Cartesian
  5.7308930000000000  0.0000000000000000  0.0000000000000000
  2.8654465000000000  2.8654465000000000  2.8654465000000000
  2.8654465000000000  2.8654465000000000 -2.8654465000000000
  0.0000000000000000  0.0000000000000000  5.7308930000000000
  0.0000000000000000  5.7308930000000000  0.0000000000000000
  2.8654465000000000 -2.8654465000000000  2.8654465000000000
 -2.8654465000000000  2.8654465000000000  2.8654465000000000
  0.0000000000000000  0.0000000000000000  0.0000000000000000
  2.9953429207380009  5.7308929999999991  2.8654464999999991
 -0.1298964207379997  5.7308930000000000  2.8654464999999991
  2.8654465000000000  2.9953429207380005  5.7308930000000009
  2.8654465000000000  5.8607894207380005  0.0000000000000000
  2.8654465000000000  0.1298964207379999  0.0000000000000001
  5.7308930000000000  2.8654465000000000  5.6009965792620005
  5.7308930000000000  2.8654465000000000  2.9953429207380000
  2.8654465000000000  2.7355500792620000  0.0000000000000001
  5.7308930000000000  2.8654465000000000 -2.7355500792620004
  5.8607894207380005 -0.0000000000000000  2.8654464999999996
 -0.0000000000000004  2.8654465000000005  8.4664430792619996
  5.7308930000000000  2.8654465000000000 -0.1298964207380000
  0.1298964207379999  0.0000000000000001  2.8654465000000000
  2.8654465000000000 -2.7355500792620004  5.7308930000000000
  2.8654464999999996 -0.1298964207379998  5.7308930000000009
  0.0000000000000000  2.8654465000000000  5.8607894207379996
  5.6009965792620005  5.7308929999999991  2.8654464999999996
 -2.7355500792620000  5.7308930000000000  2.8654464999999996
  8.4664430792619996  0.0000000000000000  2.8654465000000000
  0.0000000000000000  2.8654465000000000  0.1298964207380000
  2.8654464999999996  5.6009965792620005  5.7308930000000000
  2.7355500792620000 -0.0000000000000001  2.8654465000000000
  2.8654465000000000  8.4664430792619996  0.0000000000000004
 -0.0000000000000002  2.8654465000000000  2.7355500792620000
  4.3897436892470001  4.2981754808930006 -4.2065958107529999
  7.0720365798599998  4.2981697500000005  1.5243029201400007
  4.2981754808930006 -4.2065958107530008  4.3897436892470001
  9.9374888107529991  1.3411493107530006  1.4327175191069996
  4.2981697500000005  1.5243029201400002  7.0720365798599998
  7.1636162499999996  1.5243029201400007  1.3411435798599998
 -4.2065958107530008  4.3897436892470001  4.2981754808930006
  1.5243029201400007  1.3411435798599993  7.1636162499999987
  1.4327175191069990  9.9374888107530008  1.3411493107530004
 -1.4327232499999996  4.2065900798599998  4.3897494201400002
  4.2065900798599998 -1.3411435798600002  1.4327232500000000
 -1.3411435798600002  1.4327232500000000  4.2065900798599998
  1.3411493107530001  1.4327175191069998  9.9374888107529991
  4.3897436892470001  1.4327289808930004  1.5242971892469996
  1.5242971892469994  4.3897436892470001  1.4327289808930004
  4.3897494201400002 -1.4327232500000000  4.2065900798599998
  1.4327289808930006  1.5242971892469994  4.3897436892469992
  4.2065958107529990  1.3411493107530004  4.2981640191070003
  1.5243029201400002  7.0720365798599998  4.2981697500000013
  1.3411435798599993  7.1636162500000005  1.5243029201400002
  4.2065900798599998  4.3897494201400002 -1.4327232500000000
  4.2981640191069994  4.2065958107529999  1.3411493107529999
  1.4327232500000000  4.2065900798599998 -1.3411435798600002
  1.3411493107530004  4.2981640191069994  4.2065958107529990
