Li Ga
 1.0000000000000000
     3.7733319999999999    0.0000000000000000    2.1785350000000001
     1.2577780000000001    3.5575329999999998    2.1785350000000001
     0.0000000000000000    0.0000000000000000    4.3570690000000001
 Li  Ga 
   2   2
Cartesian
  3.1444437499999998  2.2234581250000001  5.4463368750000001
  1.8866662500000000  1.3340748750000000  3.2678021250000002
  0.6288887500000000  0.4446916250000000  1.0892673749999999
  4.4022212500000002  3.1128413749999999  7.6248716249999999
