Hf Fe Os
 1.0000000000000000
    -0.0000060000000000    3.1903340000000000    3.1903329999999999
     3.1903340000000000   -0.0000060000000000    3.1903329999999999
     3.1903340000000000    3.1903340000000000   -0.0000050000000000
 Hf  Fe  Os 
   2   1   1
Cartesian
  0.0000000000000000  0.0000000000000000  0.0000000000000000
  3.1903373806620001  3.1903373806620001  3.1903368806610000
  1.5951655000120000  1.5951591193320001  1.5951588693340000
  4.7854964999999998  4.7854964999999998  4.7854957499999999
