Lu Hf Ru
 1.0000000000000000
     0.0000000000000000    3.2579310000000001    3.2579310000000001
     3.2579310000000001    0.0000000000000000    3.2579310000000001
     3.2579310000000001    3.2579310000000001    0.0000000000000000
 Lu  Hf  Ru 
   1   1   2
Cartesian
  4.8869030158620008  4.8869030158620008  4.8869030158620008
  1.6289720158619998  1.6289720158619998  1.6289720158619998
  0.0000000000000000  0.0000000000000000  0.0000000000000000
  3.2579310000000001  3.2579310000000001  3.2579310000000001
