Be Se
 1.0000000000000000
     3.1647029999999998    0.0000000000000000    1.8271420000000000
     1.0549010000000001    2.9837099999999999    1.8271420000000000
     0.0000000000000000    0.0000000000000000    3.6542829999999999
 Be  Se 
   1   1
Cartesian
  0.0000000000000000  0.0000000000000000  0.0000000000000000
  1.0549010000000001  0.7459275000000000  1.8271417500000000
