Li Pm Pt
 1.0000000000000000
     0.0000000000000000    3.6065809999999998    3.6065809999999998
     3.6065809999999998    0.0000000000000000    3.6065809999999998
     3.6065809999999998    3.6065809999999998    0.0000000000000000
 Li  Pm  Pt 
   1   2   1
Cartesian
  1.8032904999999999  1.8032904999999999  1.8032904999999999
  0.0000000000000000  0.0000000000000000  0.0000000000000000
  3.6065809999999998  3.6065809999999998  3.6065809999999998
  5.4098714999999995  5.4098714999999995  5.4098714999999995
