Hf Si Pd
 1.0000000000000000
     3.8916759999999999    0.0000000000000000    0.0000000000000000
     0.0000000000000000    6.6059369999999999    0.0000000000000000
     0.0000000000000000    0.0000000000000000    7.6144429999999996
 Hf  Si  Pd 
   4   4   4
Cartesian
  0.9729190000000000  3.4863427051830000  2.4436194331170000
  2.9187569999999998  3.1195942948169999  5.1708235668830005
  0.9729190000000000  0.1833742051830000  1.3636020668829998
  2.9187569999999998  6.4225627948169999  6.2508409331169990
  0.9729190000000000  1.7058048699509998  6.6684931316669998
  2.9187569999999998  4.9001321300490002  0.9459498683329999
  0.9729190000000000  5.0087733699510002  4.7531713683329997
  2.9187569999999998  1.5971636300490000  2.8612716316669999
  2.9187569999999998  5.6600923344030001  3.3345701796610001
  0.9729190000000000  0.9458446655970000  4.2798728203390004
  2.9187569999999998  2.3571238344030001  0.4726513203390000
  0.9729190000000000  4.2488131655970003  7.1417916796609990
