As Ru
 1.0000000000000000
     3.0011459999999999    0.0000000000000000    0.0000000000000000
     0.0000000000000000    5.4355630000000001    0.0000000000000000
     0.0000000000000000    0.0000000000000000    6.2059480000000002
 As  Ru 
   4   2
Cartesian
  1.5005729999999999  1.7895232286750000  5.3765044319560005
  1.5005729999999999  3.6460397713250003  0.8294435680440000
  0.0000000000000000  0.9282582713250001  2.2735304319559999
  0.0000000000000000  4.5073047286749999  3.9324175680440003
  1.5005729999999999  2.7177815000000001  3.1029740000000001
  0.0000000000000000  0.0000000000000000  0.0000000000000000
