Sr N 
 1.0000000000000000
     3.3829810000000000    0.0000000000000000   -1.7548410000000001
    -0.9102800000000000    3.2582130000000000   -1.7548410000000001
     0.0017490000000000    0.0023040000000000    4.1416480000000000
 Sr  N  
   1   2
Cartesian
  0.0000000000000000  0.0000000000000000  0.0000000000000000
  1.4822197238090000  1.9530817809450001 -1.2808628283939998
  0.9922302761910000  1.3074352190550000  1.9128288283940000
