Lu S 
 1.0000000000000000
     5.9234629999999999   -0.0009300000000000    4.0441500000000001
     2.1352370000000001    5.5252319999999999    4.0441500000000001
    -0.0013570000000000   -0.0009300000000000    7.1723480000000004
 Lu  S  
   4   6
Cartesian
  6.8404827734250002  4.6892047437000004 12.9559086358000020
  5.2455317265749999  3.5958532562999999  9.9350633641999995
  1.2168602265749999  0.8341672563000000  2.3047393642000000
  2.8118112734250000  1.9275187436999999  5.3255846358000003
  1.9215367792600000  4.1434590000000000  6.4499164756859999
  5.3945341410580010  2.4627155108340002  5.2245575243140001
  2.7556078296819999  0.2980404891660000  7.4013360000000006
  6.1358062207400001  1.3799129999999999  8.8107315243140008
  5.3017351703180005  5.2253315108339997  7.8593120000000001
  2.6628088589420003  3.0606564891660000 10.0360904756860005
