Ag S  O 
 1.0000000000000000
     5.0329199999999998    0.0000000000000000    2.3140329999999998
     2.5164610000000001    5.5170610000000000    1.1570160000000000
    -0.0914910000000000    0.0000000000000000    6.8292000000000002
 Ag  S   O  
   4   2   8
Cartesian
  2.4935828666780000  3.5838717914779998  2.8643138611680001
  5.0100531333219998  4.6917197085220002  4.0213348888319995
  4.9643071333219995  1.9331892085219999  7.4359351388319999
  2.4478368666780002  0.8253412914780001  6.2789141111679996
  5.0100474999999998  1.3792652500000000  4.0213328750000006
  2.4478425000000001  4.1377957500000004  6.2789161250000003
  1.1023777630170000  0.5110839798569999  1.2813795784040001
  5.4192741499429999  2.2474465201429998  5.1527740649000000
  3.8847868564170001  0.5110839798569999  4.4472487008930006
  4.6008211647829986  2.2474465201429998  2.8898915277369999
  6.3555122369829995  5.0059770201429998  9.0188694215959995
  2.0386158500569995  3.2696144798569997  5.1474749351000000
  2.8570688352169999  3.2696144798569997  7.4103574722629997
  3.5731031435829999  5.0059770201429998  5.8530002991070003
