Mg In Ni
 1.0000000000000000
     3.7471269999999999    0.0000000000000000    2.1634050000000000
     1.2490420000000000    3.5328249999999999    2.1634050000000000
     0.0000000000000000    0.0000000000000000    4.3268100000000000
 Mg  In  Ni 
   1   1   2
Cartesian
  2.4980845000000000  1.7664124999999999  4.3268100000000000
  0.0000000000000000  0.0000000000000000  0.0000000000000000
  3.7471267500000001  2.6496187500000001  6.4902150000000001
  1.2490422500000000  0.8832062500000000  2.1634050000000000
