Sc Cu Si
 1.0000000000000000
     3.9791690000000002    0.0000000000000000    0.0000000000000000
     0.0000000000000000    6.5720890000000001    0.0000000000000000
     0.0000000000000000    0.0000000000000000    7.2508470000000003
 Sc  Cu  Si 
   4   4   4
Cartesian
  2.9843767500000000  6.5107056887399999  5.8440666684480007
  0.9947922500000000  3.3474278112600002  2.2186431684480001
  2.9843767500000000  3.2246611887399999  5.0322038315519997
  0.9947922500000000  0.0613833112600000  1.4067803315520000
  0.9947922500000000  4.3195449277839995  6.7690064643090002
  0.9947922500000000  1.0335004277840001  4.1072640356910002
  2.9843767500000000  5.5385885722160006  3.1435829643090001
  2.9843767500000000  2.2525440722160002  0.4818405356910000
  0.9947922500000000  1.7865303854040002  6.4568792535000004
  0.9947922500000000  5.0725748854040003  4.4193912465000000
  2.9843767500000000  4.7855586145959998  0.7939677465000000
  2.9843767500000000  1.4995141145960000  2.8314557535000002
