Ho C 
 1.0000000000000000
     3.4620839999999999    0.0245640000000000    5.3901209999999997
     1.6003149999999999    3.0701170000000002    5.3901209999999997
     0.0401820000000000    0.0245640000000000    6.4060759999999997
 Ho  C  
   2   1
Cartesian
  3.7746189870070004  2.3074521310150002 12.7135271815460005
  1.3279620129930001  0.8117928689850001  4.4727908184540004
  0.0000000000000000  0.0000000000000000  0.0000000000000000
