Tc N 
 1.0000000000000000
     2.7978060000000000   -0.0000000000000000    0.0000000000000000
    -1.3989050000000001    2.4229409999999998    0.0000000000000000
     0.0000000000000000    0.0000000000000000    7.0393400000000002
 Tc  N  
   3   1
Cartesian
  1.3989037321369999  0.8077673394029999  3.5196700000000001
 -0.0000013333160000  1.6152730011779999  5.6548848448399998
 -0.0000013333160000  1.6152730011779999  1.3844551551600000
  1.3989023333999999  0.8075662352999999  0.0000000000000000
