Cu Pd
 1.0000000000000000
     2.9804170000000001    0.0000000000000000    0.0000000000000000
     0.0000000000000000    2.9804170000000001    0.0000000000000000
     0.0000000000000000    0.0000000000000000    2.9804170000000001
 Cu  Pd 
   1   1
Cartesian
  0.0000000000000000  0.0000000000000000  0.0000000000000000
  1.4902085000000000  1.4902085000000000  1.4902085000000000
