Al Cu O 
 1.0000000000000000
     2.8427730000000002    0.0000000000000000    0.0000000000000000
    -1.4213860000000000    2.4619130000000000    0.0000000000000000
     0.0000000000000000    0.0000000000000000   11.2978459999999998
 Al  Cu  O  
   2   2   4
Cartesian
  0.0000000000000000  0.0000000000000000  0.0000000000000000
  0.0000000000000000  0.0000000000000000  5.6489229999999999
  1.4213880880530003  0.8206368460290000  8.4733844999999999
 -0.0000010880530000  1.6412761539710001  2.8244615000000000
 -0.0000010880530000  1.6412761539710001  4.6871938592499998
  1.4213880880530003  0.8206368460290000 10.3361168592499997
 -0.0000010880530000  1.6412761539710001  0.9617291407500000
  1.4213880880530003  0.8206368460290000  6.6106521407500001
