Ta Tc Mo
 1.0000000000000000
     0.0000000000000000    3.1969599999999998    3.1969599999999998
     3.1969599999999998    0.0000000000000000    3.1969599999999998
     3.1969599999999998    3.1969599999999998    0.0000000000000000
 Ta  Tc  Mo 
   2   1   1
Cartesian
  0.0000000000000000  0.0000000000000000  0.0000000000000000
  3.1969599999999998  3.1969599999999998  3.1969599999999998
  4.7954336060799996  4.7954336060799996  4.7954336060799996
  1.5984736060800000  1.5984736060800000  1.5984736060800000
