Lu Tl Ag
 1.0000000000000000
     0.0000000000000000    3.6118229999999998    3.6118229999999998
     3.6118229999999998    0.0000000000000000    3.6118229999999998
     3.6118229999999998    3.6118229999999998    0.0000000000000000
 Lu  Tl  Ag 
   2   1   1
Cartesian
  0.0000000000000000  0.0000000000000000  0.0000000000000000
  3.6118302236459998  3.6118302236459998  3.6118302236459998
  5.4177344999999999  5.4177344999999999  5.4177344999999999
  1.8059042763539999  1.8059042763539999  1.8059042763539999
