In Ag Se
 1.0000000000000000
     5.5663939999999998    0.0000000000000000   -2.5811359999999999
    -1.1968719999999999    5.4361980000000001   -2.5811359999999999
     0.0375850000000000    0.0467610000000000    7.3737760000000003
 In  Ag  Se 
   2   2   4
Cartesian
  2.1847610000000000  2.7180990000000000 -2.5811359999999999
  3.8943700000000003  1.3824300000000000  1.1057520000000003
  0.5127370000000000  4.1005289999999999  1.1057520000000003
  0.0000000000000000  0.0000000000000000  0.0000000000000000
  3.7985058096879998  4.7683635000000004 -2.6576751758719999
  3.3502176309439999  0.7480172453039999  3.5786111758720001
  1.6821891903119996  2.0502644999999999 -0.1082768241279999
 -0.0166986309439999  3.3992727546959998  3.6103488241280006
