Ag Hg I 
 1.0000000000000000
    -3.2129490000000001    3.2129500000000002    6.4597480000000003
     3.2129490000000001   -3.2129500000000002    6.4597480000000003
     3.2129500000000002    3.2129490000000001   -6.4597480000000003
 Ag  Hg  I  
   2   1   4
Cartesian
  3.2129495000000001 -0.0000005000000001  3.2298740000000001
  0.0000000000000000  0.0000000000000000  6.4597480000000003
  0.0000000000000000  0.0000000000000000  0.0000000000000000
 -1.5125310557589999  1.6952198635200002  4.7498979226360003
  1.6952198635200000  1.5125310557590002  8.1695980773640002
  4.7254810557590003  1.5177291364800003 -1.7098500773640006
  1.5177301364800000  1.7004179442409999  1.7098500773639995
