Mg Ag Pt
 1.0000000000000000
     0.0000000000000000    3.2080709999999999    3.2080709999999999
     3.2080709999999999    0.0000000000000000    3.2080709999999999
     3.2080709999999999    3.2080709999999999    0.0000000000000000
 Mg  Ag  Pt 
   2   1   1
Cartesian
  0.0000000000000000  0.0000000000000000  0.0000000000000000
  3.2080645838580000  3.2080645838580000  3.2080645838580000
  1.6040354999999999  1.6040354999999999  1.6040354999999999
  4.8121064999999996  4.8121064999999996  4.8121064999999996
