Li V  Ir
 1.0000000000000000
     0.0000010000000000    2.9458009999999999    2.9458009999999999
     2.9458000000000002    0.0000010000000000    2.9458009999999999
     2.9458000000000002    2.9458009999999999    0.0000010000000000
 Li  V   Ir 
   1   1   2
Cartesian
  1.4729002500000001  1.4729007500000000  1.4729007500000000
  4.4186948583990002  4.4186963583969998  4.4186963583969998
  0.0000000000000000  0.0000000000000000  0.0000000000000000
  2.9457946083990003  2.9457956083969998  2.9457956083969998
