Ti Hg
 1.0000000000000000
     4.1414090000000003    0.0000000000000000    0.0000000000000000
     0.0000000000000000    4.1414090000000003    0.0000000000000000
     0.0000000000000000    0.0000000000000000    4.1414090000000003
 Ti  Hg 
   3   1
Cartesian
  2.0707045000000002  0.0000000000000000  2.0707045000000002
  0.0000000000000000  2.0707045000000002  2.0707045000000002
  2.0707045000000002  2.0707045000000002  0.0000000000000000
  0.0000000000000000  0.0000000000000000  0.0000000000000000
