Ta O 
 1.0000000000000000
    12.6046019999999999    0.0000000000000000   -2.9490189999999998
     0.0000000000000000    4.9276920000000004    0.0000000000000000
    -0.0003750000000000    0.0000000000000000    5.5953970000000002
 Ta  O  
   8  20
Cartesian
  1.7770486165890000  1.2138531534360000  3.8888576656859999
 10.8269908834109998  1.2138531534360000  1.5552188343140001
 10.8271783834110007  3.7138388465640002 -1.2424796656860000
  1.7772361165890000  3.7138388465640002  1.0911591656860000
  8.0793496165889991  3.6776991534360004  2.4143481656860000
  4.5246898834109999  3.6776991534360004  3.0297283343140005
  4.5248773834109999  1.2499928465640000  0.2320298343140001
  8.0795371165890000  1.2499928465640000 -0.3833503343140000
 10.0243019173799990  4.5891299934480001  2.5356112374370006
  2.5797375826200000  4.5891299934480001  2.9084652625629999
  2.5799250826200000  0.3385620065520000  0.1107667625630001
 10.0244894173799999  0.3385620065520000 -0.2620872625629998
 -0.0000937500000000  4.3928748041640002  1.3988492500000000
 -0.0002812500000000  0.5348171958360001  4.1965477500000006
 11.1956658217919998  2.2146526155600004 -2.5243148101689998
  1.4087486782080001  2.2146526155600004  2.3729943101690001
  1.4085611782080001  2.7130393844400000  5.1706928101690002
 11.1954783217920006  2.7130393844400000  0.2733836898310000
  3.7220009173799999  2.1252839934480003  4.0101207374370009
  8.8820385826199999  2.1252839934480003  1.4339557625629999
  8.8822260826200008  2.8024080065520005 -1.3637427374369999
  3.7221884173799999  2.8024080065520005  1.2124222374370002
  6.3022072500000004  1.9290288041640002 -0.0756602499999999
  6.3020197500000004  2.9986631958360004  2.7220382500000002
  4.8933648217919998  4.6784986155600006 -1.0498053101689999
  7.7110496782079991  4.6784986155600006  0.8984848101690004
  7.7108621782079991  0.2491933844400000  3.6961833101690007
  4.8931773217919998  0.2491933844400000  1.7478931898309999
