Cs Mn S 
 1.0000000000000000
     5.7843850000000003    0.0000000000000000    1.8834940000000000
     2.3205089999999999    8.9728949999999994    2.6974390000000001
     0.0558610000000000   -0.0468750000000000    9.6523810000000001
 Cs  Mn  S  
   4   6   8
Cartesian
  1.6890433687590001  1.0293008180100001  9.2663755798680008
  5.1731559751110003  3.3868341819899999  8.3902815695600008
  2.9875990248890005  5.5391858180099991  5.8430324304400001
  6.4717116312409999  7.8967191819900000  4.9669384201320002
  2.0401887500000000  2.2315049999999998  3.5583285000000000
  6.1205662500000004  6.6945149999999991 10.6749855000000000
  5.4410347786880005  4.2573994606199994  2.9379537971480003
  4.4237277213119999  0.2056105393800000  6.0621972028519995
  3.7370272786879997  8.7204094606199991  8.1711167971480005
  2.7197202213120000  4.6686205393800000 11.2953602028520006
  6.5490547749660006  4.2984891790199997  5.0904206801320004
  0.8023172455290001  0.1645208209800000  3.0913276914459997
  3.9269452788260000  2.5989928230599997  2.0325636543000001
  2.6668227006790004  1.8640171769399998  5.9024959741220000
  4.2338097211739996  6.3270271769399997 12.2007503456999995
  5.4939322993210009  7.0620028230599994  8.3308180258780009
  7.3584377544709998  8.7614991790199994 11.1419863085539994
  1.6117002250340000  4.6275308209799997  9.1428933198679996
