Sc Si
 1.0000000000000000
     3.9969600000000001    0.0000000000000000    0.0000000000000000
     0.0000000000000000    9.9126019999999997    0.0000000000000000
     0.0000000000000000    0.0000000000000000    3.6696390000000001
 Sc  Si 
   4   4
Cartesian
  0.0000000000000000  8.5341753910840001  0.9174097500000000
  0.0000000000000000  1.3784266089159998  2.7522292500000001
  1.9984800000000000  3.5778743910839998  0.9174097500000000
  1.9984800000000000  6.3347276089160003  2.7522292500000001
  1.9984800000000000  0.8047347681660000  0.9174097500000000
  1.9984800000000000  9.1078672318339997  2.7522292500000001
  0.0000000000000000  5.7610357681659998  0.9174097500000000
  0.0000000000000000  4.1515662318339999  2.7522292500000001
