Nb N 
 1.0000000000000000
     2.9720469999999999    0.0000000000000000    0.0000000000000000
    -1.4860249999999999    2.5738690000000002    0.0000000000000000
     0.0000000000000000    0.0000000000000000    2.8996749999999998
 Nb  N  
   1   1
Cartesian
 -0.0000024860240000  1.7159135246230002  1.4498374999999999
  2.9720469999999999  0.0000000000000000  0.0000000000000000
