Na Tl In F 
 1.0000000000000000
     0.0000000000000000    4.4168690000000002    4.4168690000000002
     4.4168690000000002    0.0000000000000000    4.4168690000000002
     4.4168690000000002    4.4168690000000002    0.0000000000000000
 Na  Tl  In  F  
   1   2   1   6
Cartesian
  4.4168690000000002  4.4168690000000002  4.4168690000000002
  2.2084345000000001  2.2084345000000001  2.2084345000000001
  6.6253035000000002  6.6253035000000002  6.6253035000000002
  0.0000000000000000  0.0000000000000000  0.0000000000000000
  6.7212290609420000  4.4168690000000002  4.4168690000000002
  4.4168690000000002  2.1125089390579999  4.4168690000000002
  4.4168690000000002  6.7212290609420000  4.4168690000000002
  4.4168690000000002  4.4168690000000002  6.7212290609420000
  4.4168690000000002  4.4168690000000002  2.1125089390579999
  2.1125089390579999  4.4168690000000002  4.4168690000000002
