Nd Ni Ge
 1.0000000000000000
     4.1887949999999998    0.0000000000000000    0.0000000000000000
     0.0000000000000000    4.1188560000000001   -1.0326130000000000
     0.0000000000000000   -0.0329820000000000    8.5993460000000006
 Nd  Ni  Ge 
   2   2   4
Cartesian
  1.0471987500000000  3.6468524809380005  5.8156006225210000
  3.1415962500000001  0.4390215190620000  1.7511323774790002
  1.0471987500000000  2.7987931006319999  2.4328379271990004
  3.1415962500000001  1.2870808993680001  5.1338950728010007
  1.0471987500000000  1.0143902328960002  4.0461755807520001
  1.0471987500000000  2.2341360154439998  0.1805646674530000
  3.1415962500000001  3.0714837671040005  3.5205574192480000
  3.1415962500000001  1.8517379845560000  7.3861683325470002
