Sc O  F 
 1.0000000000000000
     5.1559510000000000    0.0000000000000000    0.0000000000000000
     0.0000000000000000    5.1091569999999997   -0.8793370000000000
     0.0000000000000000   -0.0086890000000000    5.2495599999999998
 Sc  O   F  
   4   4   4
Cartesian
  2.7198054001079996  3.5339815348500001  0.9019232564549998
  0.1418299001080000  1.5708309651499999  0.8435197435449999
  2.4361455998920003  1.5664864651499999  3.4682997435449998
  5.0141210998919998  3.5296370348500004  3.5267032564549998
  1.3081008603570001  2.7797917919949997 -0.4146239905569999
  3.8860763603569999  2.3250207080050003  2.1600669905570000
  3.8478501396430000  2.3206762080050001  4.7848469905569999
  1.2698746396430001  2.7754472919949995  2.2101560094430002
  3.4786479563860002  4.8127811560220000  2.6240170358499997
  0.9006724563860000  0.2833423439780000  4.3709859641500000
  1.6773030436140000  0.2876868439780000  1.7462059641500001
  4.2552785436139997  4.8171256560220002 -0.0007629641500001
