Ba Si N 
 1.0000000000000000
     4.5046080000000002    0.0000000000000000    1.7773070000000000
     1.8854409999999999    6.0573649999999999    1.8184730000000000
    -0.0009270000000000    0.0026760000000000    6.5994979999999996
 Ba  Si  N  
   1   6   8
Cartesian
  0.7510262641920000  0.0000000000000000  0.2963197322680000
  4.6789958341380000  3.2718555224279999  3.3380283757909996
  3.0775990256379999  2.7881854775720001  7.3967902648130002
  3.8358548251259998  5.2219645961459999  5.4749807696629995
  3.9207400346500001  0.8380764038540000  5.2598378709409994
  1.2679004868680002  3.8089660500580003  5.3239250501170003
  1.9414547627959999  2.2510749499420002  3.6167661570389997
  5.0327975840099999  1.9254750070529998  4.4241255563599999
  2.4864123793399999  0.7203051046390000  4.2598062882759997
  2.1051097613960001  5.3397358953609997  5.2262231349179995
  4.6642968083840000  4.7493765900189997  4.1085035973239998
  3.1631770812280000  2.8925216584130000  2.5445370731260000
  1.4283450595080001  3.1675193415869995  6.9414923500679997
  3.5929491937280003  1.3106644099810001  6.8238484978739997
  4.0776797332059997  4.1345659929469996  6.8448715896289993
