Mn In Rh
 1.0000000000000000
    -0.0001860000000000    3.1285520000000000    3.1301399999999999
     3.1293899999999999   -0.0001660000000000    3.1301220000000001
     3.1295069999999998    3.1286510000000001   -0.0002800000000000
 Mn  In  Rh 
   1   1   2
Cartesian
  4.6940019627659995  4.6927777574900000  4.6948174668560005
  1.5646871370059998  1.5642686346279999  1.5650268018700000
  6.2584950654900000  6.2568524115160002  6.2599444547580001
  3.1296027227700001  3.1287062106060000  3.1301756663580003
