Li Si
 1.0000000000000000
     4.4673509999999998    0.0000000000000000    0.0000000000000000
     0.0000000000000000    8.0576200000000000    0.0000000000000000
     0.0000000000000000    0.0000000000000000   14.9179399999999998
 Li  Si 
  28   8
Cartesian
  0.0000000000000000  0.0000000000000000  0.0000000000000000
  0.0000000000000000  4.0288100000000000  7.4589699999999999
  2.2336754999999999  4.0288100000000000  0.0000000000000000
  2.2336754999999999  0.0000000000000000  7.4589699999999999
  2.2336754999999999  0.9762128934800000  5.3112341782000003
  2.2336754999999999  7.0814071065200004  9.6067058218000003
  2.2336754999999999  5.0050228934799996  2.1477358217999996
  2.2336754999999999  3.0525971065199999 12.7702041781999984
  2.2336754999999999  1.8837184612200000  1.5260903440600000
  2.2336754999999999  6.1739015387800000 13.3918496559399998
  2.2336754999999999  5.9125284612200000  5.9328796559399999
  2.2336754999999999  2.1450915387800000  8.9850603440600008
  2.2336754999999999  3.3364509438800001  3.8380279314400001
  2.2336754999999999  4.7211690561199999 11.0799120685600005
  2.2336754999999999  7.3652609438800001  3.6209420685599998
  2.2336754999999999  0.6923590561200000 11.2969979314399982
  0.0000000000000000  2.6281378001600002 14.7259759480800003
  0.0000000000000000  5.4294821998399998  0.1919640519200000
  0.0000000000000000  6.6569478001600002  7.6509340519199993
  0.0000000000000000  1.4006721998399998  7.2670059480800004
  0.0000000000000000  0.9297687718000001  2.8175513277999999
  0.0000000000000000  7.1278512281999999 12.1003886721999994
  0.0000000000000000  4.9585787718000001  4.6414186722000004
  0.0000000000000000  3.0990412281999999 10.2765213277999994
  0.0000000000000000  2.3881093579799999  4.9679127070400000
  0.0000000000000000  5.6695106420200005  9.9500272929599998
  0.0000000000000000  6.4169193579799995  2.4910572929599999
  0.0000000000000000  1.6407006420199999 12.4268827070399990
  2.2336754999999999  3.2198974705799999  6.5012531699400000
  2.2336754999999999  4.8377225294199997  8.4166868300599997
  2.2336754999999999  7.2487074705800003  0.9577168300600001
  2.2336754999999999  0.8089125294199999 13.9602231699399990
  0.0000000000000000  3.5636033093000004  2.2893369082799997
  0.0000000000000000  4.4940166906999996 12.6286030917200005
  0.0000000000000000  7.5924133093000004  5.1696330917199997
  0.0000000000000000  0.4652066907000000  9.7483069082800000
