Hf Ge Te
 1.0000000000000000
     4.0132479999999999    0.0006570000000000    0.0000580000000000
    -2.0053519999999998    8.3414319999999993    0.0000030000000000
     0.0001640000000000    0.0000430000000000   11.0940150000000006
 Hf  Ge  Te 
   2   2   8
Cartesian
  0.0011582181000001  5.7493032605909997  3.0272792134929998
  2.0069534258680002  2.5927973469299999  8.5743701612970007
  0.0030821703680001  3.8189616547049998  5.1299315970119999
  2.0050755927679997  4.5232052999869996 10.6769263515180004
 -0.0018076199879998  4.5827591708739996  7.7272541518750009
 -0.0003885447639997  6.2680987462299997  0.0066027766490000
  2.0099222693359997  3.7590846206539998  2.1799064652760003
  2.0028727952479999  7.9071925411070003  2.6792638819380001
 -0.0054743245160000  1.7443774366719997 10.6311016423520019
  2.0132374462799998  6.5978725157579996  5.0840420788090004
  0.0053830938200000  0.4350472045480000  8.2265355927839998
  2.0083888232520000  2.0740868841399998  5.5536010377180007
