Ti Al Ru
 1.0000000000000000
     0.0000030000000000    3.0290210000000002    3.0290210000000002
     3.0290210000000002    0.0000030000000000    3.0290210000000002
     3.0290210000000002    3.0290210000000002    0.0000030000000000
 Ti  Al  Ru 
   1   1   2
Cartesian
  4.5435276919550001  4.5435276919550001  4.5435276919550001
  1.5145112500000000  1.5145112500000000  1.5145112500000002
  0.0000000000000000  0.0000000000000000  0.0000000000000000
  3.0290285580450003  3.0290285580450003  3.0290285580450003
