Li Cd
 1.0000000000000000
     6.7467490000000003    0.0000000000000000    0.0000000000000000
     0.0000000000000000    6.7467490000000003    0.0000000000000000
     0.0000000000000000    0.0000000000000000    6.7467490000000003
 Li  Cd 
   8   8
Cartesian
  4.2167181249999999  0.8433436250000000  0.8433436250000000
  5.9034053750000002  5.9034053750000002  2.5300308750000000
  4.2167181249999999  4.2167181249999999  4.2167181249999999
  5.9034053750000002  2.5300308750000000  5.9034053750000002
  0.8433436250000000  0.8433436250000000  4.2167181249999999
  2.5300308750000000  5.9034053750000002  5.9034053750000002
  0.8433436250000000  4.2167181249999999  0.8433436250000000
  2.5300308750000000  2.5300308750000000  2.5300308750000000
  4.2167181249999999  0.8433436250000000  4.2167181249999999
  5.9034053750000002  5.9034053750000002  5.9034053750000002
  4.2167181249999999  4.2167181249999999  0.8433436250000000
  5.9034053750000002  2.5300308750000000  2.5300308750000000
  0.8433436250000000  0.8433436250000000  0.8433436250000000
  2.5300308750000000  5.9034053750000002  2.5300308750000000
  0.8433436250000000  4.2167181249999999  4.2167181249999999
  2.5300308750000000  2.5300308750000000  5.9034053750000002
