Cr Rh
 1.0000000000000000
     3.8079079999999998    0.0000000000000000    0.0000000000000000
     0.0000000000000000    3.8079079999999998    0.0000000000000000
     0.0000000000000000    0.0000000000000000    3.8079079999999998
 Cr  Rh 
   1   3
Cartesian
  0.0000000000000000  0.0000000000000000  0.0000000000000000
  0.0000000000000000  1.9039539999999999  1.9039539999999999
  1.9039539999999999  1.9039539999999999  0.0000000000000000
  1.9039539999999999  0.0000000000000000  1.9039539999999999
