Li C 
 1.0000000000000000
    -2.1395680000000001   -3.7058399999999998    0.0000000000000000
    -2.1395680000000001    3.7058399999999998    0.0000000000000000
     0.0000000000000000    0.0000000000000000   -7.0269649999999997
 Li  C  
   1  12
Cartesian
  0.0000000000000000  0.0000000000000000  0.0000000000000000
 -0.7128634058080000 -1.2347154770400000 -1.8584214335499998
 -2.8534091883840005  0.0000000000000002 -1.8584214335499998
 -0.7128634058080000  1.2347154770400000 -1.8584214335499998
 -1.4267045941920002 -2.4711245229599998 -1.8584214335499998
 -1.4257268116160000 -0.0000000000000000 -1.8584214335499998
 -1.4267045941920002  2.4711245229599998 -1.8584214335499998
 -1.4267045941920002 -2.4711245229599998 -5.1685435664499995
 -1.4257268116160000 -0.0000000000000000 -5.1685435664499995
 -1.4267045941920002  2.4711245229599998 -5.1685435664499995
 -0.7128634058080000 -1.2347154770400000 -5.1685435664499995
 -2.8534091883840005  0.0000000000000002 -5.1685435664499995
 -0.7128634058080000  1.2347154770400000 -5.1685435664499995
