Na Li Al P 
 1.0000000000000000
     5.8018960000000002   -6.8271639999999998    0.0000000000000000
     5.8018960000000002    6.8271639999999998    0.0000000000000000
     0.0000000000000000    0.0000000000000000    5.8013919999999999
 Na  Li  Al  P  
   8   4   4   8
Cartesian
  8.7028440000000007  2.4784107296080000  1.4503480000000000
  5.8018960000000002 -2.4336108794399998  1.2414746824320000
  5.8018960000000002  2.4336108794399998  4.5599173175679999
  2.9009480000000001  2.4784107296080000  1.4503480000000000
  8.7028440000000007 -2.4784107296079996  4.3510439999999999
  2.9009480000000001 -2.4784107296080000  4.3510439999999999
  5.8018960000000002 -4.3935531205600000  4.1421706824319999
  5.8018960000000002  4.3935531205600000  1.6592213175680000
 10.2265379275200008  0.0000000000000004  2.9006959999999999
  1.3772540724800000 -0.0000000000000000  2.9006959999999999
  7.1791500724799997 -0.0000000000000004  0.0000000000000000
  4.4246419275199997  0.0000000000000000  0.0000000000000000
 10.0991863103200004  0.0000000000000004  0.0000000000000000
  1.5046056896800000 -0.0000000000000000  0.0000000000000000
  4.2972903103200002 -0.0000000000000001  2.9006959999999999
  7.3065016896800001 -0.0000000000000004  2.9006959999999999
  5.8018960000000002  5.4046697632880001  4.5620174214720004
  5.8018960000000002 -1.4224942367119999  4.1400705785279994
  5.8018960000000002 -5.4046697632880001  1.2393745785279999
  5.8018960000000002  1.4224942367120004  1.6613214214720000
  2.9009480000000001 -1.3843440442799999  1.4503480000000000
  2.9009480000000001  1.3843440442800001  4.3510439999999999
  8.7028440000000007  1.3843440442799990  4.3510439999999999
  8.7028440000000007 -1.3843440442799990  1.4503480000000000
