Sc Zn Rh
 1.0000000000000000
     0.0000000000000000    3.0985299999999998    3.0985299999999998
     3.0985299999999998    0.0000000000000000    3.0985299999999998
     3.0985299999999998    3.0985299999999998    0.0000000000000000
 Sc  Zn  Rh 
   1   1   2
Cartesian
  1.5492649999999999  1.5492649999999999  1.5492649999999999
  4.6477949999999995  4.6477949999999995  4.6477949999999995
  0.0000000000000000  0.0000000000000000  0.0000000000000000
  3.0985238029400000  3.0985238029400000  3.0985238029400000
