Te Pd I 
 1.0000000000000000
     4.0901740000000002   -0.2059270000000000   -0.0376160000000000
     0.5035809999999999    7.0939519999999998    0.3271750000000000
     1.1121170000000000    3.5856200000000000    9.8849450000000001
 Te  Pd  I  
   2   2   4
Cartesian
  1.2695012821890002  4.0472680291079994  1.4578569849269998
  4.4363707178110001  6.4263769708920000  8.7166470150730007
  1.1606011375949998  1.7149633456309998  0.2284704031770000
  4.5452708624050002  8.7586816543689991  9.9460335968229998
  2.1488607045909998  3.2098020246140000  8.2384337159049998
  2.1967806783749997  7.1719274027299997  6.4023820476689997
  3.5570112954090001  7.2638429753860008  1.9360702840950001
  3.5090913216250001  3.3017175972699997  3.7721219523310001
