Al Hg Te
 1.0000000000000000
     5.6902600000000003    0.0000860000000000   -2.5276179999999999
    -1.1228199999999999    5.5784170000000000   -2.5275409999999998
    -0.1183850000000000   -0.1446930000000000    7.4023459999999996
 Al  Hg  Te 
   2   1   4
Cartesian
  0.5212575000000002  4.1114877500000002  1.1736127500000002
  2.2837200000000002  2.7892514999999998 -2.5275794999999999
  0.0000000000000000  0.0000000000000000  0.0000000000000000
  3.8975648867800001  4.8661247743080001 -2.3767199331279998
  1.8577304936200005  2.1631251278910000 -0.0042642145270003
 -0.0620992407599999  3.1857131122799998  3.5761795403040000
  3.2049138603600005  0.6526569855209999  3.4991786073509998
