Gd S 
 1.0000000000000000
     3.4238949999999999   -0.0000000000000000    1.9767850000000000
     1.1412979999999999    3.2280780000000000    1.9767850000000000
    -0.0000000000000000   -0.0000000000000000    3.9535740000000001
 Gd  S  
   1   1
Cartesian
  0.0000000000000000  0.0000000000000000  0.0000000000000000
  2.2825964999999999  1.6140390000000000  3.9535720000000003
