Bi Rh
 1.0000000000000000
     6.8603269999999998    0.0000000000000000    0.0000000000000000
     0.0000000000000000    6.1693949999999997   -3.1977829999999998
     0.0000000000000000    0.0509490000000000    7.0062069999999999
 Bi  Rh 
   8   4
Cartesian
  2.4625623989390002  5.2964235952469991  1.6681487183650001
  5.8927258989389992  0.9493949047530000  5.6433787816349996
  4.3977646010610005  0.9239204047530001  2.1402752816349997
  0.9676011010609999  5.2709490952469995 -1.8349547816350000
  5.8881980831189997  4.0458885580140000  0.2156823584900000
  2.4580345831189998  2.1489809419860002  0.0896381415100001
  0.9721289168809999  2.1744554419860003  3.5927416415100000
  4.4022924168810000  4.0713630580140006  3.7187858584900000
  3.4255876618909999  4.5082286634240001 -0.8287749313280001
  6.8557511618909999  1.6866408365759997  1.1340954313280001
  3.4347393381089999  1.7121153365759998  4.6371989313280002
  0.0045758381090000  4.5337031634239997  2.6743285686719998
