Fe C 
 1.0000000000000000
    11.4960179999999994    0.0000000000000000   -1.5306249999999999
     0.0000000000000000    4.5065030000000004    0.0000000000000000
    -0.0002930000000000    0.0000000000000000    4.9912020000000004
 Fe  C  
  20   8
Cartesian
  1.1306721394119998  4.1305389742190002  1.9306730124600002
 10.3651993605879991  4.1305389742190002 -0.9656970124599999
  9.0321043914429993  2.6227532004790000  2.2382829993280002
  2.4634741085570000  2.6227532004790000  3.7178950006720002
  2.4636206085570000  1.8837497995210002  1.2222940006720002
  9.0322508914430006  1.8837497995210002 -0.2573180006719999
  1.1305256394119998  0.3759640257810000  4.4262740124600004
 10.3650528605879995  0.3759640257810000  1.5299039875400002
 -0.0000732500000000  1.9449030452310001  1.2478005000000001
 -0.0002197500000000  2.5615999547690000  3.7434015000000000
  6.8786811394120004  1.8772874742190002  1.1653605124600004
  4.6171903605879994  1.8772874742190002 -0.2003845124599999
  3.2840953914429996  0.3695017004790000  3.0035954993280005
  8.2114831085569993  0.3695017004790000  2.9525825006720003
  8.2116296085569989  4.1370012995210006  0.4569815006720002
  3.2842418914429996  4.1370012995210006  0.5079944993280001
  6.8785346394119999  2.6292155257810004  3.6609615124600006
  4.6170438605879998  2.6292155257810004  2.2952164875400003
  5.7479357499999999  4.1981545452310005  0.4824880000000001
  5.7477892499999994  0.3083484547690000  2.9780890000000002
 10.1958559695159998  3.0906183419390003  0.7435237230540004
  1.3000155304840000  3.0906183419390003  0.2214522769460000
  1.2998690304839999  1.4158846580610001  2.7170532769460003
 10.1957094695160002  1.4158846580610001  3.2391247230540006
  4.4478469695160001  0.8373668419390001  1.5088362230540002
  7.0480245304839997  0.8373668419390001 -0.5438602230539999
  7.0478780304840001  3.6691361580610002  1.9517407769460002
  4.4477004695159996  3.6691361580610002  4.0044372230540004
