Ho Cu Pb
 1.0000000000000000
     2.2793040000000002   -3.9478710000000001    0.0000000000000000
     2.2793040000000002    3.9478710000000001    0.0000000000000000
     0.0000000000000000    0.0000000000000000    7.3390810000000002
 Ho  Cu  Pb 
   2   2   2
Cartesian
  0.0000000000000000  0.0000000000000000  7.2218905545920000
  0.0000000000000000  0.0000000000000000  3.5523500545920004
  2.2793040000000002 -1.3159596319140003  2.3189587798939999
  2.2793040000000002  1.3159596319140001  5.9884992798939995
  2.2793040000000002  1.3159596319140001  1.5741961790949999
  2.2793040000000002 -1.3159596319140003  5.2437366790950000
