Mo Se
 1.0000000000000000
     3.3222600000000000   -0.0000000000000000    0.0000000000000000
    -1.6611309999999999    2.8771610000000001    0.0000000000000000
     0.0000000000000000    0.0000000000000000   13.5429569999999995
 Mo  Se 
   2   4
Cartesian
  1.6611313277969999  0.9590527076130000 10.1572177499999992
 -0.0000023277970000  1.9181082923870001  3.3857392499999999
 -0.0000023277970000  1.9181082923870001 11.8124650404540006
  1.6611313277969999  0.9590527076130000  5.0409865404540000
 -0.0000023277970000  1.9181082923870001  8.5019704595459995
  1.6611313277969999  0.9590527076130000  1.7304919595460000
