Ce Cu Si
 1.0000000000000000
     3.8045010000000001   -0.0000000000000000   -1.4501299999999999
    -0.5527350000000000    3.7641350000000000   -1.4501299999999999
    -0.0083390000000000   -0.0096520000000000    5.6938519999999997
 Ce  Cu  Si 
   1   2   2
Cartesian
  0.0000000000000000  0.0000000000000000  0.0000000000000000
  2.7110224999999999  0.9362077500000000  1.3967959999999999
  0.5324045000000001  2.8182752500000001  1.3967959999999999
  2.0189752994529999  2.3370981603269998 -0.4188234731519999
  1.2244517005469999  1.4173848396730002  3.2124154731519998
