Eu Zn Ge
 1.0000000000000000
     4.2801080000000002    0.0000000000000000    0.0000000000000000
    -2.1400540000000001    3.7066830000000000    0.0000000000000000
     0.0000000000000000    0.0000000000000000    8.6623210000000004
 Eu  Zn  Ge 
   2   2   2
Cartesian
  0.0000000000000000  0.0000000000000000  4.3311605000000002
  0.0000000000000000  0.0000000000000000  0.0000000000000000
  2.1400561400539999  1.2355597644390000  6.4958225439739996
 -0.0000021400540001  2.4711232355610000  2.1664984560259999
  2.1400561400539999  1.2355597644390000  2.1664464821000000
 -0.0000021400540001  2.4711232355610000  6.4958745179000008
