Mg Au
 1.0000000000000000
     4.5091180000000000    0.0000000000000000    0.0000000000000000
     0.0000000000000000    6.1292790000000004    0.0000000000000000
     0.0000000000000000    0.0000000000000000    8.4857499999999995
 Mg  Au 
   8   4
Cartesian
  1.1272795000000000  5.8869886011300006  5.9529403114999990
  3.3818384999999997  0.2422903988700000  2.5328096885000000
  1.1272795000000000  2.8223491011299999  6.7756846885000002
  3.3818384999999997  3.3069298988700000  1.7100653115000000
  3.3818384999999997  1.0618791989130001  7.9578175494999996
  1.1272795000000000  5.0673998010870003  0.5279324504999999
  3.3818384999999997  4.1265186989130003  4.7708074504999995
  1.1272795000000000  2.0027603010870001  3.7149425494999999
  1.1272795000000000  4.7458578247470005  3.2662076037499999
  3.3818384999999997  1.3834211752530001  5.2195423962499996
  1.1272795000000000  1.6812183247470001  0.9766673962500000
  3.3818384999999997  4.4480606752530001  7.5090826037499996
