Pr Sc Ge
 1.0000000000000000
    -2.1689010000000000    2.1689010000000000    8.0597209999999997
     2.1689010000000000   -2.1689010000000000    8.0597209999999997
     2.1689010000000000    2.1689010000000000   -8.0597209999999997
 Pr  Sc  Ge 
   2   2   2
Cartesian
 -0.0000000000000000  0.0000000000000000 10.9143613421059982
  0.0000000000000000 -0.0000000000000000  5.2050806578939994
  0.0000000000000000  2.1689010000000000  0.0000000000000000
  2.1689010000000000  0.0000000000000000  0.0000000000000000
  0.0000000000000000 -0.0000000000000000  1.9488244183580001
 -0.0000000000000000  0.0000000000000000 14.1706175816420004
