Yb Tl Cd
 1.0000000000000000
     0.0000000000000000    3.6807180000000002    3.6807180000000002
     3.6807180000000002    0.0000000000000000    3.6807180000000002
     3.6807180000000002    3.6807180000000002    0.0000000000000000
 Yb  Tl  Cd 
   2   1   1
Cartesian
  1.8403590000000001  1.8403590000000001  1.8403590000000001
  5.5210770000000000  5.5210770000000000  5.5210770000000000
  0.0000000000000000  0.0000000000000000  0.0000000000000000
  3.6807180000000002  3.6807180000000002  3.6807180000000002
