Cu B  S 
 1.0000000000000000
     4.4743250000000003    0.0000000000000000   -2.1973300000000000
    -1.0791029999999999    4.3422470000000004   -2.1973300000000000
     0.0371640000000000    0.0475310000000000    5.7297729999999998
 Cu  B   S  
   2   2   4
Cartesian
  0.3278360000000001  3.2804507500000004  0.6675564999999999
  0.0000000000000000  0.0000000000000000  0.0000000000000000
  1.6976110000000002  2.1711235000000002 -2.1973300000000000
  3.1045500000000001  1.1093272500000002  0.6675564999999999
  2.7433602912750006  3.8113488750000002 -2.2966169277100001
  2.6323396729610002  0.8081904405110001  2.5330649277099999
  1.5192492087250000  1.6402253750000002 -0.3318215722900000
 -0.0301771729609999  2.5197913094890003  2.7655995722899998
