Cd Ga Se
 1.0000000000000000
     5.2491019999999997    0.0000120000000000   -2.4724729999999999
    -1.1646099999999999    5.1182819999999998   -2.4724620000000002
    -0.0038430000000000   -0.0048320000000000    6.8000420000000004
 Cd  Ga  Se 
   1   2   4
Cartesian
  0.0000000000000000  0.0000000000000000  0.0000000000000000
  0.4368965000000000  3.8362984999999998  0.9275562499999999
  2.0422460000000000  2.5591469999999998 -2.4724675000000000
  3.5204856854050002  4.4794977841519996 -2.4275262750629998
  1.6887073925770000  2.0481548333239998 -0.1296299290310002
 -0.0352664295409999  3.0124143824059999  3.1592356645580004
  2.9873713515589997  0.6868570001180000  3.1081345395360005
