Ba As Au
 1.0000000000000000
     0.0000000000000000    4.0116240000000003    4.0116240000000003
     4.0116240000000003    0.0000000000000000    4.0116240000000003
     4.0116240000000003    4.0116240000000003    0.0000000000000000
 Ba  As  Au 
   2   1   1
Cartesian
  4.0116240000000003  4.0116240000000003  4.0116240000000003
  0.0000000000000000  0.0000000000000000  0.0000000000000000
  2.0058039767520000  2.0058039767520000  2.0058039767520000
  6.0174360000000000  6.0174360000000000  6.0174360000000000
