Cr Se
 1.0000000000000000
     5.6458199999999996    0.0143190000000000    4.0166310000000003
     2.0794940000000000    5.2490280000000000    4.0166589999999998
     0.0210540000000000    0.0144060000000000    6.9287590000000003
 Cr  Se 
   4   6
Cartesian
  0.0000000000000000  0.0000000000000000  0.0000000000000000
  3.8731839999999997  2.6388765000000003  7.4810245000000002
  2.5119691197120000  1.7115114907710001  4.8518279789849998
  5.2343988802879995  3.5662415092290001 10.1102210210150005
  5.2485389441919992  4.7588597794860004  7.8386102418619998
  2.7359516256459995  3.1431338901390000  9.7094452110000002
  5.6624362305919993  1.3960181618459999  8.8107732455060006
  2.4978290558079999  0.5188932205140000  7.1234387581380005
  5.0104163743539996  2.1346191098610001  5.2526037890000001
  2.0839317694080002  3.8817348381540002  6.1512757544940007
