Pr Rh
 1.0000000000000000
     4.6784480000000004    0.0000000000000000    2.7011029999999998
     1.5594830000000000    4.4108820000000000    2.7011029999999998
     0.0000000000000000    0.0000000000000000    5.4022040000000002
 Pr  Rh 
   2   4
Cartesian
  0.7797413750000001  0.5513602500000000  1.3505512500000001
  5.4581896250000002  3.8595217499999999  9.4538587500000002
  2.3392240000000002  0.0000000000000000  4.0516535000000005
  0.7797415000000000  2.2054410000000000  4.0516535000000005
  3.1189655000000003  2.2054410000000000  5.4022050000000004
  3.1189655000000003  2.2054410000000000  2.7011029999999998
