Na N 
 1.0000000000000000
     1.8179609999999999    3.0741139999999998   -0.0702640000000000
    -1.8179609999999999    3.0741139999999998   -0.0702640000000000
     0.0000000000000000    1.6134940000000000    4.9890340000000002
 Na  N  
   1   3
Cartesian
  0.0000000000000000  0.0000000000000000  0.0000000000000000
  0.0000000000000000  3.6107153514800001  3.5715410937079999
  0.0000000000000000  4.1510066485200001  1.2769649062919999
  0.0000000000000000  3.8808609999999999  2.4242530000000002
