Zr Ir
 1.0000000000000000
     3.4086580000000000    0.0000000000000000   -0.5855970000000000
     0.0000000000000000    4.3105450000000003    0.0000000000000000
    -0.0392730000000000    0.0000000000000000    9.9847900000000003
 Zr  Ir 
   4   4
Cartesian
  2.3536242866969999  3.2329087500000000  3.4866223686010001
  1.4614563609780000  3.2329087500000000  8.5068541937829991
  1.0157607133030000  1.0776362500000001  5.9125706313990003
  1.9079286390220003  1.0776362500000001  0.8923388062170000
  0.1876982756760000  3.2329087500000000  1.0925987569719999
  2.8114912973670001  3.2329087500000000  6.1518043128000004
  3.1816867243239999  1.0776362500000001  8.3065942430280000
  0.5578937026330000  1.0776362500000001  3.2473886872000000
