Li In Te
 1.0000000000000000
     5.9069039999999999    0.0000000000000000   -2.6808440000000000
    -1.2166990000000000    5.7802389999999999   -2.6808440000000000
    -0.0162160000000000   -0.0199870000000000    7.8122520000000000
 Li  In  Te 
   2   2   4
Cartesian
  4.1178952500000001  1.4350662500000000  1.2252820000000000
  2.3451024999999999  2.8901195000000000 -2.6808440000000000
  0.5560937500000001  4.3251857499999993  1.2252820000000000
  0.0000000000000000  0.0000000000000000  0.0000000000000000
  4.0615572887519997  5.0527123749999996 -2.7210233649719999
  3.5196728985870003  0.7450360353930000  3.8311653649719997
 -0.0263431485870000  3.5601627146069998  3.8659466350280001
  1.7930909612479999  2.1625928749999996 -0.0749606350280001
