Ba Cu As
 1.0000000000000000
     4.3387440000000002   -0.0000000000000000    0.0000000000000000
    -2.1693720000000001    3.7574619999999999    0.0000000000000000
     0.0000000000000000    0.0000000000000000    9.3244710000000008
 Ba  Cu  As 
   2   2   2
Cartesian
  0.0000000000000000  0.0000000000000000  4.6622355000000004
  0.0000000000000000  0.0000000000000000  0.0000000000000000
  2.1693741693719999  1.2524860808459999  2.3311177500000002
 -0.0000021693720001  2.5049759191540000  6.9933532500000002
 -0.0000021693720001  2.5049759191540000  2.3311177500000002
  2.1693741693719999  1.2524860808459999  6.9933532500000002
