Pr S  O 
 1.0000000000000000
     4.0078909999999999    0.0000000000000000    0.0000000000000000
    -2.0039440000000002    3.4709349999999999    0.0000000000000000
     0.0000000000000000    0.0000000000000000    6.8797530000000000
 Pr  S   O  
   2   1   2
Cartesian
  2.0039480039449997  1.1569771763549999  4.9520324498940003
 -0.0000010039450002  2.3139578236450000  1.9277205501060000
  0.0000000000000000  0.0000000000000000  0.0000000000000000
 -0.0000010039450002  2.3139578236450000  4.3296487149959999
  2.0039480039449997  1.1569771763549999  2.5501042850040001
