Nd Ag Ge
 1.0000000000000000
     4.0268050000000004    0.0007930000000000   -1.4540690000000001
    -0.5239450000000000    3.9925730000000001   -1.4540690000000001
     0.0013070000000000    0.0014900000000000    6.3099309999999997
 Nd  Ag  Ge 
   1   2   2
Cartesian
  0.0013070000000000  0.0014900000000000  6.3099309999999997
  0.6146690450000002  2.9951334932000004  1.7008964999999998
  2.8894979550000004  0.9997225068000001  1.7008964999999996
  2.1349153107590007  2.4338678108660003 -0.3893421164810004
  1.3692516892410003  1.5609881891340001  3.7911351164809997
