Mg Cu
 1.0000000000000000
     7.0491789999999996    0.0000000000000000    0.0000000000000000
     0.0000000000000000    7.0491789999999996    0.0000000000000000
     0.0000000000000000    0.0000000000000000    7.0491789999999996
 Mg  Cu 
   8  16
Cartesian
  0.8811473750000000  0.8811473750000000  4.4057368749999997
  2.6434421250000000  2.6434421250000000  2.6434421250000000
  0.8811473750000000  4.4057368749999997  0.8811473750000000
  2.6434421250000000  6.1680316249999994  6.1680316249999994
  4.4057368749999997  0.8811473750000000  0.8811473750000000
  6.1680316249999994  2.6434421250000000  6.1680316249999994
  4.4057368749999997  4.4057368749999997  4.4057368749999997
  6.1680316249999994  6.1680316249999994  2.6434421250000000
  3.5245894999999998  0.0000000000000000  3.5245894999999998
  3.5245894999999998  5.2868842500000000  1.7622947499999999
  1.7622947499999999  0.0000000000000000  1.7622947499999999
  1.7622947499999999  5.2868842500000000  3.5245894999999998
  3.5245894999999998  3.5245894999999998  0.0000000000000000
  3.5245894999999998  1.7622947499999999  5.2868842500000000
  1.7622947499999999  3.5245894999999998  5.2868842500000000
  1.7622947499999999  1.7622947499999999  0.0000000000000000
  0.0000000000000000  0.0000000000000000  0.0000000000000000
  0.0000000000000000  5.2868842500000000  5.2868842500000000
  5.2868842500000000  0.0000000000000000  5.2868842500000000
  5.2868842500000000  5.2868842500000000  0.0000000000000000
  0.0000000000000000  3.5245894999999998  3.5245894999999998
  0.0000000000000000  1.7622947499999999  1.7622947499999999
  5.2868842500000000  3.5245894999999998  1.7622947499999999
  5.2868842500000000  1.7622947499999999  3.5245894999999998
