Cs Li Y  Cl
 1.0000000000000000
     0.0000000000000000    5.3138300000000003    5.3138300000000003
     5.3138300000000003    0.0000000000000000    5.3138300000000003
     5.3138300000000003    5.3138300000000003    0.0000000000000000
 Cs  Li  Y   Cl 
   2   1   1   6
Cartesian
  7.9707450000000009  7.9707450000000009  7.9707450000000009
  2.6569150000000001  2.6569150000000001  2.6569150000000001
  5.3138300000000003  5.3138300000000003  5.3138300000000003
  0.0000000000000000  0.0000000000000000  0.0000000000000000
  2.6535247764599998  5.3138300000000003  5.3138300000000003
  5.3138300000000003  5.3138300000000003  2.6535247764599998
  7.9741352235400003  5.3138300000000003  5.3138300000000003
  5.3138300000000003  2.6535247764599998  5.3138300000000003
  5.3138300000000003  7.9741352235400003  5.3138300000000003
  5.3138300000000003  5.3138300000000003  7.9741352235400003
