Sm Ga Co
 1.0000000000000000
     2.0520610000000001    8.7650260000000006    0.0000000000000000
    -2.0520610000000001    8.7650260000000006    0.0000000000000000
     0.0000000000000000    0.0000000000000000    4.0897680000000003
 Sm  Ga  Co 
   2   4   2
Cartesian
  0.0000000000000001 15.0298458635520014  0.0000000000000000
  0.0000000000000000  2.5002061364480004  0.0000000000000000
  0.0000000000000000  0.0000000000000000  2.0448840000000001
  0.0000000000000000  8.7650260000000006  0.0000000000000000
  0.0000000000000001 12.4056847294120018  2.0448840000000001
  0.0000000000000000  5.1243672705880003  2.0448840000000001
 -0.0000000000000001 10.0357268793240006  2.0448840000000001
 -0.0000000000000000  7.4943075906240004  2.0448840000000001
