Ti Cu Si
 1.0000000000000000
     3.7453900000000000    0.0000000000000000    0.0000000000000000
     0.0000000000000000    6.2122659999999996    0.0000000000000000
     0.0000000000000000    0.0000000000000000    7.1635960000000001
 Ti  Cu  Si 
   4   4   4
Cartesian
  2.8090424999999999  2.9813037269959999  4.8823631809920007
  0.9363475000000000  0.1248292730040000  1.3005651809920000
  2.8090424999999999  6.0874367269959997  5.8630308190079994
  0.9363475000000000  3.2309622730039993  2.2812328190080002
  0.9363475000000000  4.0594114299659996  6.6850892779880002
  0.9363475000000000  0.9532784299660000  4.0603047220119999
  2.8090424999999999  5.2589875700339999  3.1032912779880002
  2.8090424999999999  2.1528545700340000  0.4785067220120000
  0.9363475000000000  1.6562832995899999  6.3142872218360004
  0.9363475000000000  4.7624162995899999  4.4311067781639997
  2.8090424999999999  4.5559827004099995  0.8493087781640000
  2.8090424999999999  1.4498497004099999  2.7324892218360000
