Na Mg Sb
 1.0000000000000000
     4.6491559999999996    0.0000000000000000    0.0000000000000000
     0.0000000000000000    4.6491559999999996    0.0000000000000000
     0.0000000000000000    0.0000000000000000    7.6151809999999998
 Na  Mg  Sb 
   2   2   2
Cartesian
  1.1622889999999999  1.1622889999999999  2.7218789144680002
  3.4868669999999997  3.4868669999999997  4.8933020855320004
  1.1622889999999999  3.4868669999999997  0.0000000000000000
  3.4868669999999997  1.1622889999999999  0.0000000000000000
  1.1622889999999999  1.1622889999999999  5.8948202299279995
  3.4868669999999997  3.4868669999999997  1.7203607700720001
