Ho Ni
 1.0000000000000000
     4.8168629999999997    0.0001840000000000    0.0000000000000000
    -2.4082729999999999    4.1715980000000004    0.0000000000000000
     0.0000000000000000    0.0000000000000000    3.9083420000000002
 Ho  Ni 
   1   5
Cartesian
  0.0000000000000000  0.0000000000000000  0.0000000000000000
 -1.2041364999999999  2.0857990000000002  1.9541710000000001
  0.0002718488100002  2.7811364069580002  0.0000000000000000
  2.4083181511899996  1.3906455930420001  0.0000000000000000
  2.4084314999999998  0.0000920000000000  1.9541710000000001
  1.2042949999999999  2.0858910000000002  1.9541710000000001
