Al Pt
 1.0000000000000000
     5.5186780000000004    0.0000000000000000    0.0000000000000000
     0.0000000000000000    5.5186780000000004    0.0000000000000000
     0.0000000000000000    0.0000000000000000    7.9560849999999999
 Al  Pt 
   4  12
Cartesian
  2.7593390000000002  0.0000000000000000  1.8835951676649998
  0.0000000000000000  2.7593390000000002  6.0724898323350001
  0.0000000000000000  2.7593390000000002  1.8835951676649998
  2.7593390000000002  0.0000000000000000  6.0724898323350001
  1.2954599923980001  4.0547989923980001  0.0000000000000000
  0.0000000000000000  0.0000000000000000  2.0183155549700000
  3.8056913861560004  1.0463523861560000  3.9780424999999999
  1.0463523861560000  1.7129866138440002  3.9780424999999999
  4.2232180076020001  1.4638790076020003  0.0000000000000000
  4.4723256138440002  3.8056913861560004  3.9780424999999999
  1.7129866138440002  4.4723256138440002  3.9780424999999999
  4.0547989923980001  4.2232180076020001  0.0000000000000000
  2.7593390000000002  2.7593390000000002  2.0183155549700000
  0.0000000000000000  0.0000000000000000  5.9377694450299998
  1.4638790076020003  1.2954599923980001  0.0000000000000000
  2.7593390000000002  2.7593390000000002  5.9377694450299998
