Ta Pt
 1.0000000000000000
     4.8493329999999997    0.0000000000000000    0.0000000000000000
     0.0000000000000000    8.4993110000000005    0.0000000000000000
     0.0000000000000000    0.0000000000000000    4.7972340000000004
 Ta  Pt 
   4   8
Cartesian
  1.1142845860730000  0.0000000000000000  3.5979255000000006
  3.7350484139269997  0.0000000000000000  1.1993085000000001
  3.5389510860729998  4.2496555000000003  3.5979255000000006
  1.3103819139269999  4.2496555000000003  1.1993085000000001
  1.3667214647210000  7.1227370925070010  1.1993085000000001
  3.4826115352789997  1.3765739074930001  3.5979255000000006
  3.4826115352789997  7.1227370925070010  3.5979255000000006
  1.3667214647210000  1.3765739074930001  1.1993085000000001
  3.7913879647209998  2.8730815925069999  1.1993085000000001
  1.0579450352789999  5.6262294074929997  3.5979255000000006
  1.0579450352789999  2.8730815925069999  3.5979255000000006
  3.7913879647209998  5.6262294074929997  1.1993085000000001
