Be Si Ni
 1.0000000000000000
     0.0000000000000000    2.6958890000000002    2.6958890000000002
     2.6958890000000002    0.0000000000000000    2.6958890000000002
     2.6958890000000002    2.6958890000000002    0.0000000000000000
 Be  Si  Ni 
   1   1   2
Cartesian
  1.3479445000000001  1.3479445000000001  1.3479445000000001
  4.0438334999999999  4.0438334999999999  4.0438334999999999
  0.0000000000000000  0.0000000000000000  0.0000000000000000
  2.6958890000000002  2.6958890000000002  2.6958890000000002
