Al As
 1.0000000000000000
     4.0455379999999996    0.0000000000000000    0.0000000000000000
    -2.0227700000000000    3.5035390000000000    0.0000000000000000
     0.0000000000000000    0.0000000000000000    6.6500550000000000
 Al  As 
   2   2
Cartesian
 -0.0000026894360002  2.3356938345130001  0.0050673419100000
  2.0227706894359998  1.1678451654869999  3.3300948419100003
 -0.0000026894360002  2.3356938345130001  2.4953533380900002
  2.0227706894359998  1.1678451654869999  5.8203808380900002
