Zr Ge Ru
 1.0000000000000000
     0.0000000000000000    3.1245039999999999    3.1245039999999999
     3.1245039999999999    0.0000000000000000    3.1245039999999999
     3.1245039999999999    3.1245039999999999    0.0000000000000000
 Zr  Ge  Ru 
   1   1   2
Cartesian
  4.6867497509920000  4.6867497509920000  4.6867497509920000
  1.5622457509920000  1.5622457509920000  1.5622457509920000
  0.0000000000000000  0.0000000000000000  0.0000000000000000
  3.1245039999999999  3.1245039999999999  3.1245039999999999
