Ca Sn
 1.0000000000000000
     4.7782060000000000    0.0000000000000000    0.0000000000000000
     0.0000000000000000    4.7782060000000000    0.0000000000000000
     0.0000000000000000    0.0000000000000000    4.7782060000000000
 Ca  Sn 
   1   3
Cartesian
  0.0000000000000000  0.0000000000000000  0.0000000000000000
  0.0000000000000000  2.3891030000000000  2.3891030000000000
  2.3891030000000000  2.3891030000000000  0.0000000000000000
  2.3891030000000000  0.0000000000000000  2.3891030000000000
