Dy Ir
 1.0000000000000000
     4.6145360000000002    0.0000000000000000    2.6642039999999998
     1.5381780000000000    4.3506270000000002    2.6642039999999998
     0.0000000000000000    0.0000000000000000    5.3284070000000003
 Dy  Ir 
   2   4
Cartesian
  5.3836247500000001  3.8067986250000003  9.3247131250000006
  0.7690892500000001  0.5438283750000000  1.3321018750000000
  3.0763570000000002  2.1753135000000001  5.3284075000000000
  3.0763570000000002  2.1753135000000001  2.6642039999999998
  0.7690890000000000  2.1753135000000001  3.9963055000000001
  2.3072680000000001  0.0000000000000000  3.9963055000000001
