In Ni
 1.0000000000000000
     5.2211889999999999    0.0000180000000000    0.0000000000000000
    -2.6105790000000000    4.5216329999999996    0.0000000000000000
     0.0000000000000000    0.0000000000000000    4.3299130000000003
 In  Ni 
   3   3
Cartesian
  2.6106022772249999  1.5072124495109998  2.1649565000000002
  0.0000077227750001  3.0144385504889994  2.1649565000000002
  0.0000000000000000  0.0000000000000000  0.0000000000000000
 -1.3052895000000000  2.2608164999999998  0.0000000000000000
  1.3053049999999999  2.2608254999999997  0.0000000000000000
  2.6105944999999999  0.0000090000000000  0.0000000000000000
