Mn Ir
 1.0000000000000000
     5.4706400000000004   -0.0002430000000000    0.0000000000000000
    -2.7355330000000002    4.7379270000000000    0.0000000000000000
     0.0000000000000000    0.0000000000000000    4.3290829999999998
 Mn  Ir 
   2   6
Cartesian
 -0.0023110777330001  3.1578469560150002  3.2468122499999996
  2.7374536396620002  1.5797754509339998  1.0822707499999999
  0.0004205467800001  1.5973037243999999  1.0822707499999999
  1.3511476046160000  3.9384208340820002  1.0822707499999999
 -1.3522266516790002  3.9398438115960004  1.0822707499999999
  2.7346837172610003  3.1403944891380000  3.2468122499999996
  1.3839210996260003  0.7992915944520000  3.2468122499999996
  4.0873281810390001  0.7978401886470000  3.2468122499999996
