Ni Sn S 
 1.0000000000000000
     4.7148630000000002   -0.0248200000000000    2.6138949999999999
     1.5282000000000000    4.4603979999999996    2.6138949999999999
    -0.0349370000000000   -0.0248200000000000    5.3908410000000000
 Ni  Sn  S  
   3   2   2
Cartesian
  3.1215315000000001  2.2177889999999998  2.6138949999999999
  0.7466315000000000  2.2177889999999998  4.0023679999999997
  2.3399630000000000 -0.0248200000000000  4.0023679999999997
  0.0000000000000000  0.0000000000000000  0.0000000000000000
  3.1040630000000000  2.2053789999999998  5.3093155000000003
  1.3701706569560002  0.9734807551479999  2.3435955734860001
  4.8379553430440003  3.4372772448519999  8.2750354265140000
