Sm Si Ir
 1.0000000000000000
     3.8285960000000001    0.0000000000000000   -1.4391710000000000
    -0.5409850000000000    3.7901829999999999   -1.4391710000000000
    -0.0069600000000000   -0.0080260000000000    5.7936319999999997
 Sm  Si  Ir 
   1   2   2
Cartesian
  0.0000000000000000  0.0000000000000000  0.0000000000000000
  2.0482012824989999  2.3613061363250001 -0.3633723678940000
  1.2324497175010001  1.4208508636749999  3.2786623678939999
  2.7327207499999999  0.9435327499999999  1.4576449999999999
  0.5479302500000000  2.8386242500000001  1.4576449999999999
