Hf I  N 
 1.0000000000000000
    10.8307040000000008   -1.8463810000000000   -0.1072060000000000
    10.8307040000000008    1.8463810000000000   -0.1072060000000000
    10.5474700000000006    0.0000000000000000    3.0782509999999998
 Hf  I   N  
   2   2   2
Cartesian
 25.5867971009560016 -0.0000000000000001  2.2750394292779998
  6.6220808990440005  0.0000000000000000  0.5887995707220000
 12.6596028712659994  0.0000000000000000  1.1256233274329999
 19.5492751287339992  0.0000000000000001  1.7382156725669997
  4.5074392228320006  0.0000000000000000  0.4007770850160000
 27.7014387771680042  0.0000000000000000  2.4630619149839998
