Li Ti O 
 1.0000000000000000
     5.3859139999999996   -0.0186340000000000    0.0000000000000000
    -0.3543910000000000    5.3742739999999998    0.0000000000000000
     0.0000000000000000    0.0000000000000000    6.1053050000000004
 Li  Ti  O  
   8   2   8
Cartesian
  0.5567905738699999  4.5182361415279999  0.0000000000000000
  4.4747324261299992  0.8374038584719999  3.0526525000000002
  4.4747324261299992  0.8374038584719999  0.0000000000000000
  0.5567905738699999  4.5182361415279999  3.0526525000000002
  2.8407300355879994  4.7089328424560000  1.5263262500000001
  2.1907929644119997  0.6467071575440000  4.5789787500000001
  4.5226623618080000  3.1287892268239998  1.5263262500000001
  0.5088606381920000  2.2268507731759999  4.5789787500000001
  1.7179128978899998  1.8285761651999999  1.5263262500000001
  3.3136101021099997  3.5270638347999999  4.5789787500000001
  1.2209960630990000  3.5899631919679997  1.5263262500000001
  3.8105269369009998  1.7656768080320000  4.5789787500000001
  1.0202972654629998  1.0860220348399998  0.0025581227950000
  4.0112257345369997  4.2696179651600001  3.0552106227949998
  1.0202972654629998  1.0860220348399998  3.0500943772050002
  4.0112257345369997  4.2696179651600001  6.1027468772050009
  3.5068543977589997  1.4424425114719999  1.5263262500000001
  1.5246686022409999  3.9131974885280001  4.5789787500000001
