Ac O  F 
 1.0000000000000000
     4.2054850000000004    0.0000000000000000    0.0000000000000000
     2.1027420000000001    3.6420560000000002    0.0000000000000000
     2.1027420000000001    1.2140190000000000    3.4337640000000000
 Ac  O   F  
   1   1   1
Cartesian
  0.0000000000000000  0.0000000000000000  0.0000000000000000
  2.1027422500000004  1.2140187500000001  0.8584410000000000
  6.3082267500000011  3.6420562500000000  2.5753230000000000
