Pm Zn Hg
 1.0000000000000000
     0.0000000000000000    3.7255020000000001    3.7255020000000001
     3.7255020000000001    0.0000000000000000    3.7255020000000001
     3.7255020000000001    3.7255020000000001    0.0000000000000000
 Pm  Zn  Hg 
   2   1   1
Cartesian
  0.0000000000000000  0.0000000000000000  0.0000000000000000
  3.7255020000000001  3.7255020000000001  3.7255020000000001
  5.5882604510040004  5.5882604510040004  5.5882604510040004
  1.8627510000000000  1.8627510000000000  1.8627510000000000
