Tc Os
 1.0000000000000000
     5.4876959999999997    0.0000000000000000    0.0000000000000000
    -2.7438479999999998    4.7524829999999998    0.0000000000000000
     0.0000000000000000    0.0000000000000000    4.3511439999999997
 Tc  Os 
   6   2
Cartesian
  4.1239953124559996  0.7873296011610000  3.2633536488559995
  1.3636897121520000  0.7873296011610000  3.2633536488559995
  2.7438452561520004  3.1778190451949997  3.2633536488559995
 -1.3801500563039999  3.9651486463559995  1.0877772977119999
  1.3801665193920003  3.9651486463559995  1.0877772977119999
  0.0000082315440001  1.5746449448729998  1.0877772977119999
  2.7438452561519995  1.5841499108729999  1.0877772977119999
  0.0000000000000000  3.1683188316779995  3.2633536488559995
