Er Bi Br O 
 1.0000000000000000
     3.8987059999999998    0.0000000000000000    0.0000000000000000
     0.0000000000000000    3.8987059999999998    0.0000000000000000
     0.0000000000000000    0.0000000000000000    9.2869589999999995
 Er  Bi  Br  O  
   1   2   1   4
Cartesian
  0.0000000000000000  0.0000000000000000  0.0000000000000000
  1.9493529999999999  1.9493529999999999  6.7932897780329995
  1.9493529999999999  1.9493529999999999  2.4936692219670000
  0.0000000000000000  0.0000000000000000  4.6434794999999998
  1.9493529999999999  0.0000000000000000  7.9215345660659997
  1.9493529999999999  0.0000000000000000  1.3654244339339998
  0.0000000000000000  1.9493529999999999  1.3654244339339998
  0.0000000000000000  1.9493529999999999  7.9215345660659997
