Ce Si Os
 1.0000000000000000
     3.9219789999999999   -0.0000000000000000   -1.5266649999999999
    -0.5942690000000000    3.8766949999999998   -1.5266649999999999
    -0.0368450000000000   -0.0429230000000000    5.7064290000000000
 Ce  Si  Os 
   1   2   2
Cartesian
  0.0000000000000000  0.0000000000000000  0.0000000000000000
  2.0961353237450000  2.4419428783279997 -0.4161492092690000
  1.1947296762549999  1.3918291216720000  3.0692482092690003
  0.5163705000000000  2.8860597499999998  1.3265495000000000
  2.7744944999999999  0.9477122499999999  1.3265495000000000
