Th Se
 1.0000000000000000
     4.4531380000000000    0.0000000000000000    0.0000000000000000
     0.0000000000000000    7.6390010000000004    0.0000000000000000
     0.0000000000000000    0.0000000000000000    9.1022370000000006
 Th  Se 
   4   8
Cartesian
  1.1132845000000000  1.9180614830879998  3.4577577915600002
  3.3398535000000003  5.7209318779110001  5.6444792084400008
  1.1132845000000000  5.7375696220890005  1.0933607084400001
  3.3398535000000003  1.9014390169120001  8.0088762915600000
  1.1132845000000000  0.2121808917760000  6.0356296390410007
  3.3398535000000003  7.4268201082240006  3.0666073609590003
  1.1132845000000000  4.0316813917759999  7.6177258609590002
  3.3398535000000003  3.6073196082240000  1.4845111390410000
  3.3398535000000003  2.7510639861340001  5.1952929147270002
  1.1132845000000000  4.8879370138660008  3.9069440852730004
  3.3398535000000003  6.5705644861339998  8.4580625852729998
  1.1132845000000000  1.0684365138659999  0.6441744147270001
