Ba Cu Br O 
 1.0000000000000000
     0.4744160000000000    2.1722869999999999   -3.7324830000000002
     0.4744160000000000   -2.1722869999999999   -3.7324830000000002
    -9.4721910000000005    0.0000000000000000   -3.7324830000000002
 Ba  Cu  Br  O  
   2   1   1   2
Cartesian
 -6.4379768969400004  0.0000000000000000 -8.4038646336839999
 -2.0853821030600002 -0.0000000000000000 -2.7935843663160003
 -4.2616795000000005  0.0000000000000000 -5.5987245000000003
  0.0000000000000000  0.0000000000000000  0.0000000000000000
 -6.0582256124949998  0.0000000000000000 -5.8270740774570005
 -2.4651333875050003  0.0000000000000001 -5.3703749225430002
