Al Cu Cl
 1.0000000000000000
     5.4351130000000003    0.0000000000000000    0.0000000000000000
     0.0000000000000000    5.4351130000000003    0.0000000000000000
     0.0000000000000000    0.0000000000000000    9.9769389999999998
 Al  Cu  Cl 
   2   2   8
Cartesian
  0.0000000000000000  2.7175565000000002  2.4942347499999999
  2.7175565000000002  0.0000000000000000  7.4827042499999994
  0.0000000000000000  0.0000000000000000  0.0000000000000000
  0.0000000000000000  0.0000000000000000  4.9884694999999999
  1.4767310723260001  1.2657454207790002  8.7047595542320000
  3.9583819276740004  4.1693675792210003  8.7047595542320000
  1.2657454207790002  1.4767310723260001  3.7162900542319997
  1.4767310723260001  4.1693675792210003  6.2606489457679997
  3.9583819276740004  1.2657454207790002  6.2606489457679997
  1.2657454207790002  3.9583819276740004  1.2721794457679998
  4.1693675792210003  1.4767310723260001  1.2721794457679998
  4.1693675792210003  3.9583819276740004  3.7162900542319997
