Mg Al O 
 1.0000000000000000
     8.1671800000000001    0.0000000000000000    0.0000000000000000
     0.0000000000000000    8.1671800000000001    0.0000000000000000
     0.0000000000000000    0.0000000000000000    8.1671800000000001
 Mg  Al  O  
   8  16  32
Cartesian
  7.1462824999999999  3.0626924999999998  7.1462824999999999
  5.1044875000000003  1.0208975000000000  1.0208975000000000
  7.1462824999999999  7.1462824999999999  3.0626924999999998
  5.1044875000000003  5.1044875000000003  5.1044875000000003
  3.0626924999999998  3.0626924999999998  3.0626924999999998
  1.0208975000000000  1.0208975000000000  5.1044875000000003
  3.0626924999999998  7.1462824999999999  7.1462824999999999
  1.0208975000000000  5.1044875000000003  1.0208975000000000
  6.1253849999999996  0.0000000000000000  6.1253849999999996
  6.1253849999999996  6.1253849999999996  0.0000000000000000
  0.0000000000000000  0.0000000000000000  0.0000000000000000
  0.0000000000000000  6.1253849999999996  6.1253849999999996
  6.1253849999999996  4.0835900000000001  2.0417950000000000
  6.1253849999999996  2.0417950000000000  4.0835900000000001
  0.0000000000000000  4.0835900000000001  4.0835900000000001
  0.0000000000000000  2.0417950000000000  2.0417950000000000
  2.0417950000000000  0.0000000000000000  2.0417950000000000
  2.0417950000000000  6.1253849999999996  4.0835900000000001
  4.0835900000000001  0.0000000000000000  4.0835900000000001
  4.0835900000000001  6.1253849999999996  2.0417950000000000
  2.0417950000000000  4.0835900000000001  6.1253849999999996
  2.0417950000000000  2.0417950000000000  0.0000000000000000
  4.0835900000000001  4.0835900000000001  0.0000000000000000
  4.0835900000000001  2.0417950000000000  6.1253849999999996
  8.0558776709600011  8.0558776709600011  6.2366873290399996
  0.1113023290400000  1.9304926709600001  0.1113023290400000
  6.0140826709600006  4.1948923290400000  0.1113023290400000
  6.0140826709600006  1.9304926709600001  6.0140826709600006
  6.2366873290399996  8.0558776709600011  8.0558776709600011
  6.2366873290399996  2.1530973290400000  2.1530973290400000
  4.1948923290400000  4.1948923290400000  1.9304926709600001
  3.9722876709600001  2.1530973290400000  8.0558776709600011
  8.0558776709600011  3.9722876709600001  2.1530973290400000
  0.1113023290400000  6.0140826709600006  4.1948923290400000
  6.0140826709600006  0.1113023290400000  4.1948923290400000
  6.0140826709600006  6.0140826709600006  1.9304926709600001
  6.2366873290399996  3.9722876709600001  3.9722876709600001
  6.2366873290399996  6.2366873290399996  6.2366873290399996
  4.1948923290400000  0.1113023290400000  6.0140826709600006
  3.9722876709600001  6.2366873290399996  3.9722876709600001
  3.9722876709600001  8.0558776709600011  2.1530973290400000
  4.1948923290400000  1.9304926709600001  4.1948923290400000
  1.9304926709600001  4.1948923290400000  4.1948923290400000
  1.9304926709600001  1.9304926709600001  1.9304926709600001
  2.1530973290400000  8.0558776709600011  3.9722876709600001
  2.1530973290400000  2.1530973290400000  6.2366873290399996
  0.1113023290400000  4.1948923290400000  6.0140826709600006
  8.0558776709600011  2.1530973290400000  3.9722876709600001
  3.9722876709600001  3.9722876709600001  6.2366873290399996
  4.1948923290400000  6.0140826709600006  0.1113023290400000
  1.9304926709600001  0.1113023290400000  0.1113023290400000
  1.9304926709600001  6.0140826709600006  6.0140826709600006
  2.1530973290400000  3.9722876709600001  8.0558776709600011
  2.1530973290400000  6.2366873290399996  2.1530973290400000
  0.1113023290400000  0.1113023290400000  1.9304926709600001
  8.0558776709600011  6.2366873290399996  8.0558776709600011
