Pm Ag Ir
 1.0000000000000000
     0.0000030000000000    3.5877119999999998    3.5877119999999998
     3.5877159999999999    0.0000000000000000    3.5877150000000002
     3.5877150000000002    3.5877140000000001    0.0000010000000000
 Pm  Ag  Ir 
   2   1   1
Cartesian
  3.5877170000000000  3.5877129999999999  3.5877140000000001
  0.0000000000000000  0.0000000000000000  0.0000000000000000
  1.7938656754339999  1.7938636754259998  1.7938641754279998
  5.3815755000000003  5.3815694999999995  5.3815710000000001
