Sc Hg
 1.0000000000000000
     3.5314350000000001    0.0000000000000000    0.0000000000000000
     0.0000000000000000    3.5314350000000001    0.0000000000000000
     0.0000000000000000    0.0000000000000000    3.5314350000000001
 Sc  Hg 
   1   1
Cartesian
  1.7657175000000001  1.7657175000000001  1.7657175000000001
  0.0000000000000000  0.0000000000000000  0.0000000000000000
