Lu In Rh
 1.0000000000000000
     0.0000010000000000    3.2549250000000001    3.2549239999999999
     3.2549269999999999   -0.0000010000000000    3.2549260000000002
     3.2549260000000002    3.2549260000000002    0.0000010000000000
 Lu  In  Rh 
   1   1   2
Cartesian
  4.8823839901469999  4.8823842450750004  4.8823849950730001
  1.6274635000000002  1.6274625000000000  1.6274627500000001
  0.0000032549270000 -0.0000000000010000  0.0000032549260000
  3.2549302549270003  3.2549315098510005  3.2549287549250003
