Ag Pb O 
 1.0000000000000000
     5.9555049999999996    0.0000000000000000    0.0000000000000000
    -2.9777510000000000    5.1576180000000003    0.0000000000000000
     0.0000000000000000    0.0000000000000000    6.4675539999999998
 Ag  Pb  O  
   5   2   6
Cartesian
  0.0000000000000000  0.0000000000000000  1.4500062041380000
 -1.4888755000000000  2.5788090000000001  0.0000000000000000
  2.9777524999999998  0.0000000000000000  0.0000000000000000
  0.0000000000000000  0.0000000000000000  5.0175477958619998
  1.4888769999999998  2.5788090000000001  0.0000000000000000
  2.9777559777519995  1.7192042807940000  3.2337769999999999
 -0.0000019777520003  3.4384137192060003  3.2337769999999999
  1.8528419159119998  3.2092143329040002  1.9903380030680000
  1.1249120840879998  1.9484036670960001  4.4772159969320002
 -1.8528400492279999  3.2092143329040002  4.4772159969320002
  3.7056819651399997  0.0000000000000000  4.4772159969320002
 -1.1249109507720001  1.9484036670960001  1.9903380030680000
  2.2498230348599999  0.0000000000000000  1.9903380030680000
