Ce Zn Cu
 1.0000000000000000
     5.1738109999999997   -0.0000030000000000    0.0000000000000000
    -2.5869080000000002    4.4806509999999999    0.0000000000000000
     0.0000000000000000    0.0000000000000000    4.1947159999999997
 Ce  Zn  Cu 
   1   3   2
Cartesian
  0.0000000000000000  0.0000000000000000  0.0000000000000000
 -1.2934540000000001  2.2403255000000000  2.0973579999999998
  2.5869054999999999 -0.0000015000000000  2.0973579999999998
  1.2934514999999998  2.2403239999999998  2.0973579999999998
  2.5869072535730000  1.4935468397820000  0.0000000000000000
 -0.0000042535730003  2.9871011602180002  0.0000000000000000
