Zr O 
 1.0000000000000000
     5.1419259999999998    0.0000000000000000   -0.8940120000000000
     0.0000000000000000    5.2784890000000004    0.0000000000000000
     0.0184750000000000    0.0000000000000000    5.4056170000000003
 Zr  O  
   4   8
Cartesian
  3.7357875504969997  5.0489222349010010  3.6222381750450001
  3.7265500504969999  2.8688112650990001  0.9194296750450001
  1.4338509495029998  2.4096777349010003  3.5921753249550004
  1.4246134495029998  0.2295667650990000  0.8893668249550000
  0.3581700474600000  0.9014392374640001  4.5242833418719997
  0.3489325474600000  1.7378052625360003  1.8214748418720001
  2.8259038036469999  1.3565822299780002 -0.3651817066730000
  2.3252596963529997  3.9958267299779999  2.1739782066730005
  2.8351413036470001  1.2826622700220001  2.3376267933269999
  2.3344971963529999  3.9219067700220007  4.8767867066730002
  4.8114684525399998  3.5406837374640006  2.6901301581280004
  4.8022309525399995  4.3770497625360001 -0.0126783418720000
