Nd Sb
 1.0000000000000000
     3.9251760000000000   -0.0050660000000000   -2.2618870000000002
    -2.6130960000000001    3.7006570000000001   -0.0064730000000000
    -0.0035780000000000    0.0050660000000000    4.5302449999999999
 Nd  Sb 
   1   1
Cartesian
  0.0000000000000000  0.0000000000000000  0.0000000000000000
 -1.3083370000000001  1.8528614999999999  2.2618860000000001
