Zr Mn P 
 1.0000000000000000
     3.6314310000000001    0.0000000000000000    0.0000000000000000
     0.0000000000000000    6.4484389999999996    0.0000520000000000
     0.0000000000000000    0.0000640000000000    7.5877319999999999
 Zr  Mn  P  
   4   4   4
Cartesian
  0.9078577500000000  3.4371289983299995  2.4581190245200002
  0.9078577500000000  0.2126678971820000  1.3368462772760001
  2.7235732500000003  6.2358351028179992  6.2509377227239993
  2.7235732500000003  3.0113740016700001  5.1296649754799999
  2.7235732500000003  2.3551607657389999  0.4550704554120000
  0.9078577500000000  0.8682730046610000  4.2482339813279992
  2.7235732500000003  5.5802299953389998  3.3395500186720000
  0.9078577500000000  4.0933422342609997  7.1327135445879994
  0.9078577500000000  1.7099497076679999  6.6189669299639995
  0.9078577500000000  4.9343341025839997  4.7622066214320000
  2.7235732500000003  4.7385532923320000  0.9688170700360000
  2.7235732500000003  1.5141688974159999  2.8255773785680001
