Pr In
 1.0000000000000000
     3.8987300000000000    0.0000000000000000    0.0000000000000000
     0.0000000000000000    3.8987300000000000    0.0000000000000000
     0.0000000000000000    0.0000000000000000    3.8987300000000000
 Pr  In 
   1   1
Cartesian
  1.9493650000000000  1.9493650000000000  1.9493650000000000
  0.0000000000000000  0.0000000000000000  0.0000000000000000
