Sc U  S 
 1.0000000000000000
     3.7535040000000000    0.0000000000000000    0.0000000000000000
    -1.8767510000000001    6.1190610000000003   -0.0000050000000000
     0.0000000000000000   -0.0000090000000000    9.2220350000000000
 Sc  U   S  
   2   2   6
Cartesian
  1.8767520000000000 -0.0000045000000000  4.6110175000000000
  1.8767520000000000  0.0000000000000000  0.0000000000000000
  1.8767525042800002  3.0857178310709998  2.3055154506349997
  0.0000004957200000  3.0333341689290001  6.9165145493650000
  1.8767489652699998  4.3982134987380004  8.6609996848699993
  0.0000040347300000  1.7208385012620000  0.5610303151300000
  0.0000021579789999  1.7208412153620001  4.0499935946400001
  1.8767508420210000  4.3982107846380005  5.1720364053600001
  1.8767559164739998  0.9972166211700000  6.9165254351499996
 -0.0000029164740003  5.1218353788300011  2.3055045648500001
