Ti Re Pd
 1.0000000000000000
     0.0000000000000000    3.1214719999999998    3.1214719999999998
     3.1214719999999998    0.0000000000000000    3.1214719999999998
     3.1214719999999998    3.1214719999999998    0.0000000000000000
 Ti  Re  Pd 
   2   1   1
Cartesian
  0.0000000000000000  0.0000000000000000  0.0000000000000000
  3.1214719999999998  3.1214719999999998  3.1214719999999998
  4.6822079999999993  4.6822079999999993  4.6822079999999993
  1.5607359999999999  1.5607359999999999  1.5607359999999999
