Hf Mn Sn
 1.0000000000000000
     5.3984199999999998    0.0000000000000000    0.0000000000000000
    -2.6992090000000002    4.6751680000000002    0.0000000000000000
     0.0000000000000000    0.0000000000000000    8.9644849999999998
 Hf  Mn  Sn 
   1   6   6
Cartesian
  0.0000000000000000  0.0000000000000000  0.0000000000000000
 -1.3496045000000001  2.3375840000000001  2.2147298061599998
 -1.3496045000000001  2.3375840000000001  6.7497551938399996
  1.3496054999999998  2.3375840000000001  2.2147298061599998
  1.3496054999999998  2.3375840000000001  6.7497551938399996
  2.6992099999999999  0.0000000000000000  2.2147298061599998
  2.6992099999999999  0.0000000000000000  6.7497551938399996
 -0.0000020325430003  3.1167802250560004  0.0000000000000000
 -0.0000020325430003  3.1167802250560004  4.4822424999999999
  0.0000000000000000  0.0000000000000000  2.9355819739799998
  0.0000000000000000  0.0000000000000000  6.0289030260200001
  2.6992130325429997  1.5583877749440000  0.0000000000000000
  2.6992130325429997  1.5583877749440000  4.4822424999999999
