Be Rh
 1.0000000000000000
     2.7887189999999999    0.0000000000000000    0.0000000000000000
     0.0000000000000000    2.7887189999999999    0.0000000000000000
     0.0000000000000000    0.0000000000000000    2.7887189999999999
 Be  Rh 
   1   1
Cartesian
  0.0000000000000000  0.0000000000000000  0.0000000000000000
  1.3943595000000000  1.3943595000000000  1.3943595000000000
