Li Y  Hg
 1.0000000000000000
     0.0000440000000000    3.5302709999999999    3.5302709999999999
     3.5302709999999999    0.0000440000000000    3.5302709999999999
     3.5302709999999999    3.5302709999999999    0.0000440000000000
 Li  Y   Hg 
   1   1   2
Cartesian
  1.7651394394139999  1.7651394394139999  1.7651394394140001
  5.2954394999999996  5.2954395000000005  5.2954395000000005
  7.0605859999999998  7.0605859999999998  7.0605859999999998
  3.5303000605860002  3.5303000605860002  3.5303000605860002
