Ti Ga
 1.0000000000000000
     4.5052979999999998    0.0000000000000000    0.0000000000000000
    -2.2526489999999999    3.9017029999999999    0.0000000000000000
     0.0000000000000000    0.0000000000000000    5.4507940000000001
 Ti  Ga 
   4   2
Cartesian
  2.2526512526490001  1.3005663660989999  1.3626712460300001
 -0.0000022526490000  2.6011366339010000  4.0881227539700005
  0.0000000000000000  0.0000000000000000  5.4507558444419999
  0.0000000000000000  0.0000000000000000  2.7254351555579999
  2.2526512526490001  1.3005663660989999  4.0880627952360005
 -0.0000022526490000  2.6011366339010000  1.3627312047640001
