Dy S  O 
 1.0000000000000000
     3.7848639999999998   -0.0000000000000000    0.0000000000000000
    -1.8924330000000000    3.2777889999999998    0.0000000000000000
     0.0000000000000000    0.0000000000000000    6.5833469999999998
 Dy  S   O  
   2   1   2
Cartesian
  1.8924335590989998  1.0925952407369999  4.7198516314859997
 -0.0000025590990002  2.1851937592630000  1.8634953685139999
  0.0000000000000000  0.0000000000000000  0.0000000000000000
  1.8924335590989998  1.0925952407369999  2.4419016525870001
 -0.0000025590990002  2.1851937592630000  4.1414453474130006
