Ba Pt
 1.0000000000000000
     4.9172240000000000   -0.0000000000000000    2.8389590000000000
     1.6390739999999999    4.6360010000000003    2.8389590000000000
    -0.0000000000000000   -0.0000000000000000    5.6779190000000002
 Ba  Pt 
   2   4
Cartesian
  5.7367607500000002  4.0565008750000002  9.9363573750000000
  0.8195372500000000  0.5795001250000000  1.4194796250000001
  3.2781490000000000  2.3180005000000001  5.6779185000000005
  3.2781490000000000  2.3180005000000001  2.8389590000000000
  0.8195370000000000  2.3180005000000001  4.2584390000000001
  2.4586120000000000  0.0000000000000000  4.2584390000000001
