Th In
 1.0000000000000000
     4.7275130000000001    0.0000000000000000    0.0000000000000000
     0.0000000000000000    4.7275130000000001    0.0000000000000000
     0.0000000000000000    0.0000000000000000    4.7275130000000001
 Th  In 
   1   3
Cartesian
  0.0000000000000000  0.0000000000000000  0.0000000000000000
  2.3637565000000000  0.0000000000000000  2.3637565000000000
  0.0000000000000000  2.3637565000000000  2.3637565000000000
  2.3637565000000000  2.3637565000000000  0.0000000000000000
