Be Si Os
 1.0000000000000000
     0.0000000000000000    2.8691689999999999    2.8691689999999999
     2.8691689999999999    0.0000000000000000    2.8691689999999999
     2.8691689999999999    2.8691689999999999    0.0000000000000000
 Be  Si  Os 
   1   1   2
Cartesian
  1.4345844999999999  1.4345844999999999  1.4345844999999999
  4.3037535000000000  4.3037535000000000  4.3037535000000000
  2.8691689999999999  2.8691689999999999  2.8691689999999999
  0.0000000000000000  0.0000000000000000  0.0000000000000000
