Ce Fe Si
 1.0000000000000000
     4.0339729999999996    0.0000000000000000    0.0000000000000000
     0.0000000000000000    4.0339729999999996    0.0000000000000000
     0.0000000000000000    0.0000000000000000    6.7382860000000004
 Ce  Fe  Si 
   2   2   2
Cartesian
  3.0254797499999997  3.0254797499999997  2.0896637777480001
  1.0084932499999999  1.0084932499999999  4.6500170474539999
  3.0254797499999997  1.0084932499999999  6.7377671519780007
  1.0084932499999999  3.0254797499999997  6.7377671519780007
  3.0254797499999997  3.0254797499999997  5.5957759172700001
  1.0084932499999999  1.0084932499999999  1.1421529535720001
