Hf Os Rh
 1.0000000000000000
     0.0000000000000000    3.2447270000000001    3.2447270000000001
     3.2447270000000001    0.0000000000000000    3.2447270000000001
     3.2447270000000001    3.2447270000000001    0.0000000000000000
 Hf  Os  Rh 
   2   1   1
Cartesian
  0.0000000000000000  0.0000000000000000  0.0000000000000000
  3.2447334894540005  3.2447334894540005  3.2447334894540005
  1.6223699894539998  1.6223699894539998  1.6223699894539998
  4.8670904999999998  4.8670904999999998  4.8670904999999998
