Zn In Se
 1.0000000000000000
     5.2427630000000001    0.0000080000000000   -2.3449670000000000
    -1.0488550000000001    5.1367789999999998   -2.3449599999999999
     0.0264520000000000    0.0323890000000000    7.0923790000000002
 Zn  In  Se 
   1   2   4
Cartesian
  0.0000000000000000  0.0000000000000000  0.0000000000000000
  2.0969540000000002  2.5683935000000000 -2.3449635000000000
  0.5372754999999999  3.8687807500000000  1.2012277500000001
  1.6913281949479999  1.7987891434370000  0.1125265108829999
  3.6083869965269995  4.6924022223090001 -2.3301395959879998
 -0.1570115733640000  3.1521723179869996  3.6108732424610004
  3.2980226735070004  0.6949831794960000  3.4116438426369999
