Tc
 1.0000000000000000
     2.7617240000000001    0.0000000000000000    0.0000000000000000
    -1.3808620000000000    2.3917229999999998    0.0000000000000000
     0.0000000000000000    0.0000000000000000    4.4210440000000002
 Tc 
   2
Cartesian
 -0.0000013808620000  1.5944827972409998  3.3157830000000001
  1.3808633808620001  0.7972402027589999  1.1052610000000000
