Sr O 
 1.0000000000000000
     3.1993680000000002    0.0000000000000000   -1.5250200000000000
    -0.7269200000000000    3.1156920000000001   -1.5250200000000000
     0.0279990000000000    0.0352840000000000    4.1772559999999999
 Sr  O  
   1   2
Cartesian
  0.0000000000000000  0.0000000000000000  0.0000000000000000
  0.9807285495890000  1.2358801209960000  2.0574838131599997
  1.5197184504110004  1.9150958790040002 -0.9302678131600003
