Mg C  O 
 1.0000000000000000
     5.1394529999999996   -2.3204030000000002   -0.0790080000000000
     5.1394529999999996    2.3204030000000002   -0.0790080000000000
     4.1517080000000002    0.0000000000000000    3.8167810000000002
 Mg  C   O  
   2   2   6
Cartesian
  7.2153069999999992  0.0000000000000000  1.8293825000000001
  0.0000000000000000  0.0000000000000000  0.0000000000000000
 10.8229604999999989  0.0000000000000001  2.7440737500000001
  3.6076534999999996  0.0000000000000000  0.9146912500000001
  5.9577865070899998  1.6760688541540001  1.7412912689020001
  5.6835075000000002 -1.0317347083080002  2.8230817500000001
  8.0336405070900003  0.6443341458460000  3.6496817689020005
  8.4728274929099996 -1.6760688541539999  1.9174737310980001
  8.7471064999999992  1.0317347083080002  0.8356832500000001
  6.3969734929099999 -0.6443341458459999  0.0090832310980000
