Tl S  O 
 1.0000000000000000
     5.8663889999999999    0.0000000000000000    0.0000000000000000
     0.0000000000000000    7.7868320000000004    0.0000000000000000
     0.0000000000000000    0.0000000000000000   10.6241090000000007
 Tl  S   O  
   8   4  16
Cartesian
  1.4665972500000000  7.7274496191680004  3.1465848589659999
  4.3997917500000003  0.0593823808320000  7.4775241410340003
  1.4665972500000000  3.8340336191680002  2.1654696410340004
  4.3997917500000003  3.9527983808320002  8.4586393589660016
  1.4665972500000000  5.2062836620319999  6.2326654171770004
  4.3997917500000003  2.5805483379680001  4.3914435828230003
  1.4665972500000000  1.3128676620320001  9.7034980828230015
  4.3997917500000003  6.4739643379680007  0.9206109171769999
  1.4665972500000000  1.7316668474880001  6.1332875015910009
  4.3997917500000003  6.0551651525120000  4.4908214984089998
  1.4665972500000000  5.6250828474880006  9.8028759984090001
  4.3997917500000003  2.1617491525119998  0.8212330015910001
  3.1865638409099994  5.5273347453920003  3.8182410299460003
  0.2533693409100000  2.2594972546080001  6.8058679700540008
  5.6130196590899999  1.6339187453920001  1.4938134700540002
  2.6798251590900000  6.1529132546080003  9.1302849058369997
  2.6798251590900000  2.2594972546080001  6.8058679700540008
  5.6130196590899999  5.5273347453920003  3.8182410299460003
  0.2533693409100000  6.1529132546080003  9.1302849058369997
  3.1865638409099994  1.6339187453920001  1.4938134700540002
  1.4665972500000000  2.2116004509759999  4.7213327913820002
  4.3997917500000003  5.5752315490240001  5.9027762086180005
  1.4665972500000000  6.1050164509760005  0.5907217086180000
  4.3997917500000003  1.6818155490240001 10.0333872913820006
  4.3997917500000003  3.6369722617440003  0.8614133818290001
  1.4665972500000000  4.1498597382560005  9.7626956181710014
  4.3997917500000003  7.5303882617440001  4.4506411181710002
  1.4665972500000000  0.2564437382560000  6.1734678818289996
