Tl Sb Se
 1.0000000000000000
     9.5890439999999995    0.0000000000000000    0.0000000000000000
     0.0000000000000000    9.5890439999999995    0.0000000000000000
     0.0000000000000000    0.0000000000000000    9.5890439999999995
 Tl  Sb  Se 
  12   4  12
Cartesian
  6.6155102227320004  7.7680557772679988  1.8209882227319998
  7.7680557772679988  1.8209882227319998  6.6155102227320004
  1.8209882227319998  6.6155102227320004  7.7680557772679988
  2.9735337772679999  2.9735337772679999  2.9735337772679999
  4.3157410330800001  0.4787809669200000  9.1102630330799990
  0.4787809669200000  9.1102630330799990  4.3157410330800001
  9.1102630330799990  4.3157410330800001  0.4787809669200000
  5.2733029669200002  5.2733029669200002  5.2733029669200002
  8.7469916901840001  5.6365743098159991  3.9524696901840000
  5.6365743098159991  3.9524696901840000  8.7469916901840001
  3.9524696901840000  8.7469916901840001  5.6365743098159991
  0.8420523098160000  0.8420523098160000  0.8420523098160000
  7.6736324609999995  7.6736324609999995  7.6736324609999995
  6.7099335389999997  1.9154115389999999  2.8791104609999998
  2.8791104609999998  6.7099335389999997  1.9154115389999999
  1.9154115389999999  2.8791104609999998  6.7099335389999997
  8.5592094415319995  5.3056659904200005  7.0928048878319991
  3.7646874415319997  9.0779000095799987  2.4962391121679999
  1.0298345584680000  0.5111439904199999  7.2907611121680000
  9.0779000095799987  2.4962391121679999  3.7646874415319997
  7.2907611121680000  1.0298345584680000  0.5111439904199999
  2.4962391121679999  3.7646874415319997  9.0779000095799987
  5.3056659904200005  7.0928048878319991  8.5592094415319995
  7.0928048878319991  8.5592094415319995  5.3056659904200005
  0.5111439904199999  7.2907611121680000  1.0298345584680000
  4.2833780095799998  2.2982828878319999  5.8243565584679997
  2.2982828878319999  5.8243565584679997  4.2833780095799998
  5.8243565584679997  4.2833780095799998  2.2982828878319999
