Au Se
 1.0000000000000000
     3.6937660000000001    0.0000000000000000    0.0000000000000000
    -1.8468830000000001    4.2444230000000003   -1.1394000000000000
     0.0000000000000000    0.0491860000000000    6.3591639999999998
 Au  Se 
   2   2
Cartesian
  1.8468830000000001  0.0245930000000000  3.1795819999999999
  0.0000000000000000  0.0000000000000000  0.0000000000000000
  1.8468830000000003  2.9913305264299996  0.9375621728160001
  0.0000000000000000  1.3022784735699999  4.2822018271839992
