Hf Se N 
 1.0000000000000000
     3.6017790000000001   -0.0000040000000000    0.0000060000000000
    -1.8008940000000000    3.1192389999999999    0.0000000000000000
     0.0000070000000000    0.0000040000000000    6.6146419999999999
 Hf  Se  N  
   2   1   2
Cartesian
  1.8008856601810002  1.0397422869680000  4.5959829397820000
  0.0000063398190001  2.0794967130320003  2.0186650602179999
  0.0000000000000000  0.0000000000000000  0.0000000000000000
  1.8008923854380001  1.0397441038030000  2.4422687338840001
 -0.0000003854380001  2.0794948961970001  4.1723792661159997
