Cu
 1.0000000000000000
     3.6333639999999998    0.0000000000000000    0.0000000000000000
     0.0000000000000000    3.6333639999999998    0.0000000000000000
     0.0000000000000000    0.0000000000000000    3.6333639999999998
 Cu 
   4
Cartesian
  0.0000000000000000  0.0000000000000000  0.0000000000000000
  0.0000000000000000  1.8166819999999999  1.8166819999999999
  1.8166819999999999  0.0000000000000000  1.8166819999999999
  1.8166819999999999  1.8166819999999999  0.0000000000000000
