Li Ti F 
 1.0000000000000000
     4.6007579999999999    0.0000000000000000    0.0000000000000000
     0.0000000000000000    4.6007579999999999    0.0000000000000000
     0.0000000000000000    0.0000000000000000    8.8407560000000007
 Li  Ti  F  
   4   2  12
Cartesian
  0.0000000000000000  0.0000000000000000  2.9952834958240002
  2.3003790000000000  2.3003790000000000  7.4156614958240006
  2.3003790000000000  2.3003790000000000  1.4250945041760001
  0.0000000000000000  0.0000000000000000  5.8454725041760005
  0.0000000000000000  0.0000000000000000  0.0000000000000000
  2.3003790000000000  2.3003790000000000  4.4203780000000004
  0.9694947295499999  3.6312632704499999  4.4203780000000004
  3.2004252875399999  3.2004252875399999  5.7997923179240001
  1.3308842704499999  1.3308842704499999  0.0000000000000000
  3.2698737295500000  3.2698737295500000  0.0000000000000000
  3.6312632704499999  0.9694947295499999  4.4203780000000004
  0.9000462875399999  3.7007117124600000  7.4613416820760010
  1.4003327124599998  1.4003327124599998  3.0409636820760007
  3.2004252875399999  3.2004252875399999  3.0409636820760007
  3.7007117124600000  0.9000462875399999  7.4613416820760010
  3.7007117124600000  0.9000462875399999  1.3794143179240002
  0.9000462875399999  3.7007117124600000  1.3794143179240002
  1.4003327124599998  1.4003327124599998  5.7997923179240001
