Pr Co Ge
 1.0000000000000000
     4.3091200000000001    0.0000000000000000    0.0000000000000000
     0.0000000000000000    4.3091200000000001    0.0000000000000000
     0.0000000000000000    0.0000000000000000    6.6240309999999996
 Pr  Co  Ge 
   2   2   2
Cartesian
  1.0772800000000000  1.0772800000000000  2.0238070712749998
  3.2318400000000000  3.2318400000000000  4.6002239287249997
  1.0772800000000000  3.2318400000000000  0.0000000000000000
  3.2318400000000000  1.0772800000000000  0.0000000000000000
  3.2318400000000000  3.2318400000000000  1.2340238551449998
  1.0772800000000000  1.0772800000000000  5.3900071448549998
