Ce Al
 1.0000000000000000
     6.5371300000000003    0.0000080000000000    0.0001580000000000
    -3.2686720000000000    5.6247749999999996   -0.0000590000000000
    -0.0001190000000000    0.0000060000000000    4.6068720000000001
 Ce  Al 
   2   6
Cartesian
  3.2685285268210005  1.8648983527129999  3.4551889575210000
 -0.0000359009220004  3.7598962720799998  1.1516484469240000
  1.8969789323080004  4.8326706939859996  3.4550143347660001
 -1.8974687779860000  4.8330204121109999  3.4553925265809999
  5.1657652765680009  0.7921229490820000  1.1517074660680000
  3.2684058431000005  4.0534687376599994  1.1518482665920000
 -0.0001256785789999  1.5713202623339999  3.4551734075780001
  1.3712947044300003  0.7917583200180000  1.1519105936539999
