Nd Zn Sb O 
 1.0000000000000000
     4.1938050000000002    0.0000000000000000    0.0000000000000000
     0.0000000000000000    4.1938050000000002    0.0000000000000000
     0.0000000000000000    0.0000000000000000    9.6543259999999993
 Nd  Zn  Sb  O  
   2   2   2   2
Cartesian
  0.0000000000000000  2.0969025000000001  8.5333911711179997
  2.0969025000000001  0.0000000000000000  1.1209348288820000
  0.0000000000000000  0.0000000000000000  4.8271629999999996
  2.0969025000000001  2.0969025000000001  4.8271629999999996
  2.0969025000000001  0.0000000000000000  6.5948314732959998
  0.0000000000000000  2.0969025000000001  3.0594945267039999
  2.0969025000000001  2.0969025000000001  0.0000000000000000
  0.0000000000000000  0.0000000000000000  0.0000000000000000
