Ca Zn
 1.0000000000000000
     5.3070160000000000    0.0000000000000000    0.0000000000000000
    -2.6535080000000000    4.5960120000000000    0.0000000000000000
     0.0000000000000000    0.0000000000000000    4.1944530000000002
 Ca  Zn 
   1   5
Cartesian
  0.0000000000000000  0.0000000000000000  0.0000000000000000
  2.6535080000000000  0.0000000000000000  2.0972265000000001
  1.3267540000000000  2.2980060000000000  2.0972265000000001
 -1.3267540000000000  2.2980060000000000  2.0972265000000001
 -0.0000026535080000  3.0640095320039999  0.0000000000000000
  2.6535106535080000  1.5320024679960000  0.0000000000000000
