Cs Ag Se
 1.0000000000000000
     5.8520170000000000    0.0000000000000000    0.0000000000000000
     0.0000000000000000    9.2536749999999994    0.0000000000000000
     0.0000000000000000    0.0000000000000000   14.1084230000000002
 Cs  Ag  Se 
   4   4  16
Cartesian
  1.9713104466200000  5.1765983317499993  9.4147058605529992
  4.8973189466200004  8.7039141682499999  4.6937171394470001
  3.8807065533799996  0.5497608317499999 11.7479286394470002
  0.9546980533800000  4.0770766682499993  2.3604943605530000
  3.1978756537689996  1.1757071697749999  7.8566844918170000
  0.2718671537690000  3.4511303302249994  6.2517385081830001
  2.6541413462310000  5.8025446697749992 13.3059500081830002
  5.5801498462310004  8.0779678302249991  0.8024729918170000
  5.1151310193599997  2.8134688396499996  8.5919590648849997
  2.1891225193600001  1.8133686603499999  5.5164639351149996
  0.7368859806400000  7.4403063396500002 12.5706754351150014
  3.6628944806400003  6.4402061603499989  1.5377475648849999
  0.8261994640940000  1.2382620127749997  9.4422455022490013
  3.7522079640940000  3.3885754872249998  4.6661774977509998
  5.0258175359059996  5.8650995127749992 11.7203889977509998
  2.0998090359060000  8.0154129872250000  2.3880340022489999
  4.6751471212149998  1.2247701546249998  1.3521371518970000
  1.7491386212150002  3.4020673453749999 12.7562858481029995
  1.1768698787850000  5.8516076546250000  5.7020743481030003
  4.1028783787850003  8.0289048453749992  8.4063486518969999
  2.3998126874110000  0.7076655419500000  1.0309589023020000
  5.3258211874110000  3.9191719580499997 13.0774640976979999
  3.4522043125890001  5.3345030419499997  6.0232525976980007
  0.5261958125889999  8.5460094580499995  8.0851704023019995
