Sc Mn Rh
 1.0000000000000000
     0.0051550000000000    3.1296439999999999    3.1296439999999999
     3.1296439999999999    0.0051550000000000    3.1296439999999999
     3.1296439999999999    3.1296439999999999    0.0051550000000000
 Sc  Mn  Rh 
   1   1   2
Cartesian
  4.6983071922279995  4.6983071922279995  4.6983071922279995
  1.5661358077720000  1.5661358077720000  1.5661358077720000
  6.2642926533679999  6.2642926533679999  6.2642926533679990
  3.1323718466320001  3.1323718466320001  3.1323718466320001
