Si Pt
 1.0000000000000000
    15.5636620000000008    0.0000000000000000   -0.9551880000000000
     0.0000000000000000    3.5464680000000000    0.0000000000000000
     0.0037470000000000    0.0000000000000000    6.2408400000000004
 Si  Pt 
  10  12
Cartesian
  6.6392764979469998  2.6598509999999997  0.9748687788600000
  8.9281325020529998  0.8866170000000000  4.3107832211400003
  4.3493188696980001  0.8866170000000000  1.6886837375760002
 11.2180901303020004  2.6598509999999997  3.5969682624240003
  5.2161302779210006  0.8866170000000000  4.4757896557560004
 10.3512787220789999  2.6598509999999997  0.8098623442440001
  1.0051900222520000  0.8866170000000000  2.6524874301720001
 14.5622189777480013  2.6598509999999997  2.6331645698280002
  1.8599756537009999  2.6598509999999997  5.7855499498800000
 13.7074333462990001  0.8866170000000000 -0.4998979498800000
  8.9857162040559988  2.6598509999999997  2.7487853170200003
  6.5816927959440008  0.8866170000000000  2.5368666829800004
  6.9748219906389997  2.6598509999999997  4.8828291872760001
  8.5925870093609991  0.8866170000000000  0.4028228127240001
  4.3791601569950007  2.6598509999999997 -0.2218853431320000
 11.1882488430050007  0.8866170000000000  5.5075373431320003
  2.7074749268240001  2.6598509999999997  1.9673939464680001
 12.8599340731760012  0.8866170000000000  3.3182580535320003
  2.7765925068469999  0.8866170000000000  4.3210843982279998
 12.7908164931530006  2.6598509999999997  0.9645676017720001
  0.0245468134180000  0.8866170000000000  5.0065152610080004
 15.5428621865820009  2.6598509999999997  0.2791367389920000
