Ba Ni P 
 1.0000000000000000
     3.7270140000000000    0.0000000000000000   -1.1804699999999999
    -0.3738940000000000    3.7082120000000001   -1.1804699999999999
     0.0536410000000000    0.0593210000000000    6.6431120000000004
 Ba  Ni  P  
   1   2   2
Cartesian
  0.0000000000000000  0.0000000000000000  0.0000000000000000
  0.6781535000000001  2.8108195000000000  2.1410860000000005
  2.7286074999999999  0.9567135000000000  2.1410860000000005
  2.2328888295400002  2.4693493175800003  0.5759879086800003
  1.1738721704600001  1.2981836824199999  3.7061840913199999
