Cs Hg O 
 1.0000000000000000
     4.2667140000000003    0.0000000000000000   -1.2252559999999999
    -0.3518520000000000    4.2521810000000002   -1.2252559999999999
    -0.0369830000000000   -0.0401690000000000    7.9128390000000000
 Cs  Hg  O  
   2   1   2
Cartesian
  2.5859667811110003  2.8087834442179997  0.9634883768990001
  1.2919122188890002  1.4032285557820001  4.4988386231009994
  0.0000000000000000  0.0000000000000000  0.0000000000000000
  3.3530167207040007  3.6419254822070002  3.6345971909340000
  0.5248622792960000  0.5700865177930000  1.8277298090659999
