Tl Pt Cl
 1.0000000000000000
     6.0180270000000000    0.0000000000000000    3.4745089999999998
     2.0060099999999998    5.6738499999999998    3.4745089999999998
    -0.0000000000000000   -0.0000000000000000    6.9490200000000000
 Tl  Pt  Cl 
   2   1   6
Cartesian
  2.0060092500000000  1.4184625000000000  3.4745094999999999
  6.0180277499999999  4.2553874999999994 10.4235284999999998
  0.0000000000000000  0.0000000000000000  0.0000000000000000
  5.0665169881950005  1.3456386352499998  5.1225733283000006
  6.1210162648950002  4.3282113647500005  6.9490184743300007
  1.9030207351049997  1.3456386352499998  6.9490195256699998
  5.0665169881950005  1.3456386352499998  8.7754646717000000
  2.9575200118049998  4.3282113647500005  5.1225733282999997
  2.9575200118049998  4.3282113647500005  8.7754646717000000
