Li Ga Ir
 1.0000000000000000
     3.6901950000000001    0.0000000000000000    2.1305350000000001
     1.2300650000000000    3.4791490000000000    2.1305350000000001
     0.0000000000000000    0.0000000000000000    4.2610700000000001
 Li  Ga  Ir 
   1   2   1
Cartesian
  2.4601299999999999  1.7395745000000000  4.2610700000000001
  1.2300650000000000  0.8697872500000000  2.1305350000000001
  3.6901950000000001  2.6093617500000001  6.3916050000000002
  0.0000000000000000  0.0000000000000000  0.0000000000000000
