Ti N 
 1.0000000000000000
     3.0297090000000000    0.0000000000000000    0.0000000000000000
     0.0000000000000000    4.9423260000000004    0.0000000000000000
     0.0000000000000000    0.0000000000000000    4.9423260000000004
 Ti  N  
   4   2
Cartesian
  1.5148545000000000  3.9390980722380000  1.0032279277620000
  0.0000000000000000  3.4743909277620006  3.4743909277620006
  1.5148545000000000  1.0032279277620000  3.9390980722380000
  0.0000000000000000  1.4679350722380002  1.4679350722380002
  1.5148545000000000  2.4711630000000002  2.4711630000000002
  0.0000000000000000  0.0000000000000000  0.0000000000000000
