Cd Sn F 
 1.0000000000000000
     4.7457599999999998    0.0703890000000000    3.3437730000000001
     1.7721030000000000    4.4030529999999999    3.3437679999999999
     0.1025610000000000    0.0703970000000000    5.8045270000000002
 Cd  Sn  F  
   1   1   6
Cartesian
  3.3102119999999999  2.2719194999999996  6.2460339999999999
  0.0000000000000000  0.0000000000000000  0.0000000000000000
  2.7855670960859999  4.0867618342330001  7.4334929334619995
  5.4629143330499996  2.8111444601850000  6.4785692868039995
  3.1724368377359999  3.4140313371429998  4.3340813829659997
  1.1575096669500000  1.7326945398150002  6.0134987131960003
  3.8348569039140004  0.4570771657670000  5.0585750665380012
  3.4479871622639999  1.1298076628569997  8.1579866170340001
