Gd O  F 
 1.0000000000000000
     3.8607420000000001    0.0000000000000000    0.0000000000000000
    -1.9303710000000001    1.1145010000000000    6.4197340000000001
     1.9303710000000001   -3.3434990000000000    0.0000000000000000
 Gd  O   F  
   2   2   2
Cartesian
  0.0000038607419999 -0.0000012628660000  4.6517392564000000
  3.8607381392579998 -2.2289967371340000  1.7679947435999999
  0.0000019303710000 -0.0000006271730000  2.3463806783300001
  3.8607400696289997 -2.2289973728270001  4.0733533216700000
  1.9303710000000001 -1.1144995202000001  0.7052077799000001
  1.9303710000000001 -1.1144984798000002  5.7145262200999998
