Be W 
 1.0000000000000000
     4.4593840000000000    0.0000000000000000    0.0000000000000000
    -2.2296920000000000    3.8619400000000002    0.0000000000000000
     0.0000000000000000    0.0000000000000000    7.3369970000000002
 Be  W  
   8   4
Cartesian
  0.0000000000000000  0.0000000000000000  0.0000000000000000
  0.0000000000000000  0.0000000000000000  3.6684985000000001
  2.2296920000000000  2.5492125268399999  1.8342492500000001
 -1.0928367102679999  3.2055762634200002  5.5027477500000002
  1.0928367102679999  3.2055762634200002  5.5027477500000002
  1.1368552897319999  0.6563637365800000  1.8342492500000001
  3.3225287102680001  0.6563637365800000  1.8342492500000001
 -0.0000000000000000  1.3127274731600000  5.5027477500000002
 -0.0000022296920000  2.5746279539800003  0.4609981955040000
  2.2296942296919999  1.2873120460200000  4.1294966955039998
  2.2296942296919999  1.2873120460200000  6.8759988044960005
 -0.0000022296920000  2.5746279539800003  3.2075003044960000
