Sr Cu S  F 
 1.0000000000000000
     3.9394309999999999    0.0000000000000000    0.0000000000000000
     0.0000000000000000    3.9394309999999999    0.0000000000000000
     0.0000000000000000    0.0000000000000000    8.6470149999999997
 Sr  Cu  S   F  
   2   2   2   2
Cartesian
  0.0000000000000000  1.9697155000000000  7.1781206209049992
  1.9697155000000000  0.0000000000000000  1.4688943790950000
  1.9697155000000000  1.9697155000000000  4.3235074999999998
  0.0000000000000000  0.0000000000000000  4.3235074999999998
  1.9697155000000000  0.0000000000000000  5.7086036567300003
  0.0000000000000000  1.9697155000000000  2.9384113432699999
  1.9697155000000000  1.9697155000000000  0.0000000000000000
  0.0000000000000000  0.0000000000000000  0.0000000000000000
