Hg Pt
 1.0000000000000000
     4.8486649999999996    0.0000000000000000    0.0000000000000000
     0.0000000000000000    4.8486649999999996    0.0000000000000000
     0.0000000000000000    0.0000000000000000    2.9825370000000002
 Hg  Pt 
   2   1
Cartesian
  2.4243324999999998  0.0000000000000000  1.4912685000000001
  0.0000000000000000  2.4243324999999998  1.4912685000000001
  0.0000000000000000  0.0000000000000000  0.0000000000000000
