Na Pa F 
 1.0000000000000000
     4.9250170000000004    0.0004390000000000   -2.2056710000000002
    -0.9868710000000001    4.8251390000000001   -2.2056700000000000
    -0.0018620000000000   -0.0022790000000000    6.5999639999999999
 Na  Pa  F  
   3   1   8
Cartesian
  1.9690730000000003  2.4127890000000001 -2.2056705000000001
  0.4899276125920000  3.6180223127000000  1.0943117500410002
  3.4463613124250005  1.2052766877390000  1.0943090442879999
  0.0000000000000000  0.0000000000000000  0.0000000000000000
  1.3961724059950000  1.7107840834960000 -0.0017556562310000
  3.9941595348040009  1.7105042812730000 -1.1652618324760002
  0.8750828973320002  4.2559870530730004 -1.1652613048820002
 -0.0578755348040000  3.1127947187270002  3.3538848324760000
  3.0612011026679999  0.5673119469269999  3.3538843048819995
  0.4628822758520000  0.5671672021580000  4.5174750637420003
  2.5401115940050003  3.1125149165040003  2.1903786562309997
  3.4734017241480006  4.2561317978419995 -2.3288520637420000
