Nd B 
 1.0000000000000000
     4.1295830000000002    0.0000000000000000    0.0000000000000000
     0.0000000000000000    4.1295830000000002    0.0000000000000000
     0.0000000000000000    0.0000000000000000    4.1295830000000002
 Nd  B  
   1   6
Cartesian
  0.0000000000000000  0.0000000000000000  0.0000000000000000
  3.3042197641220001  2.0647915000000001  2.0647915000000001
  0.8253632358780000  2.0647915000000001  2.0647915000000001
  2.0647915000000001  2.0647915000000001  3.3042197641220001
  2.0647915000000001  2.0647915000000001  0.8253632358780000
  2.0647915000000001  0.8253632358780000  2.0647915000000001
  2.0647915000000001  3.3042197641220001  2.0647915000000001
