Hf Mn Rh
 1.0000000000000000
    -0.0000030000000000    3.1925119999999998    3.1925159999999999
     3.1925100000000000   -0.0000000000000000    3.1925119999999998
     3.1925150000000002    3.1925150000000002   -0.0000040000000000
 Hf  Mn  Rh 
   2   1   1
Cartesian
  3.1925150000000002  3.1925150000000002 -0.0000040000000000
  3.1925109999970003  3.1925166925120001  3.1925151925160002
  1.5962555000030001  1.5962535574880001  1.5962528074840001
  4.7887601149730008  4.7887606724580003  4.7887648074920000
