Ba Mn Se
 1.0000000000000000
     4.5094849999999997    0.0000000000000000    0.0000000000000000
     0.0000000000000000    9.2315380000000005    0.0000000000000000
     0.0000000000000000    0.0000000000000000   17.9098609999999994
 Ba  Mn  Se 
   8   4  12
Cartesian
  1.1273712499999999  2.3552330584020003  9.7202725901129998
  3.3821137499999998  6.8763049415979998  8.1895884098869995
  1.1273712499999999  6.9710020584020009 17.1445189098869974
  3.3821137499999998  2.2605359415980000  0.7653420901130000
  1.1273712499999999  3.8544809872920003  5.1307274299749999
  3.3821137499999998  5.3770570127080006 12.7791335700249995
  1.1273712499999999  8.4702499872920001  3.8242030700249998
  3.3821137499999998  0.7612880127080001 14.0856579299749995
  3.3821137499999998  1.1921331227060001  6.5526271144869996
  1.1273712499999999  3.4236358772940001 15.5075576144870002
  3.3821137499999998  5.8079021227059995  2.4023033855130000
  1.1273712499999999  8.0394048772940003 11.3572338855129988
  1.1273712499999999  1.1620844665159999 16.6163391991360001
  3.3821137499999998  8.0694535334839994  1.2935218008639999
  1.1273712499999999  5.7778534665160004 10.2484523008639989
  3.3821137499999998  3.4536845334840001  7.6614086991359995
  1.1273712499999999  0.0148350815660000  7.1475031476019995
  3.3821137499999998  4.6009339184340003 16.1024336476020018
  1.1273712499999999  4.6306040815660001  1.8074273523979998
  3.3821137499999998  9.2167029184340006 10.7623578523979990
  3.3821137499999998  1.6692190065460002  4.0658787343589999
  1.1273712499999999  7.5623189934540003 13.8439822656409994
  3.3821137499999998  6.2849880065460004  4.8890517656409997
  1.1273712499999999  2.9465499934540000 13.0208092343589996
