Ba Bi Pd
 1.0000000000000000
     4.9134539999999998    0.0000000000000000    0.0000000000000000
     0.0000000000000000    4.9678180000000003   -0.1065630000000000
     0.0000000000000000    0.0148630000000000   10.9170739999999995
 Ba  Bi  Pd 
   2   4   4
Cartesian
  3.6850904999999998  3.6950597033780004  2.5529000863380000
  1.2283634999999999  1.2876212966220000  8.2576109136619991
  3.6850904999999998  3.8982638025580001  9.5294933845209986
  1.2283634999999999  3.7438523522650002  5.3679840124140004
  3.6850904999999998  1.2388286477350001  5.4425269875859996
  1.2283634999999999  1.0844171974420003  1.2810176154790001
  1.2283634999999999  1.2431741690080000  4.0730761090900005
  1.2283634999999999  3.4837256128339997 10.8275112487150000
  3.6850904999999998  3.7395068309920005  6.7374348909100004
  3.6850904999999998  1.4989553871660002 -0.0170002487150000
