Ca Ge
 1.0000000000000000
    -1.9876860000000001   -3.4427740000000000    0.0000000000000000
    -3.9753720000000001    0.0000000000000000    0.0000000000000000
    -1.9876860000000001   -1.1475919999999999   -5.2476110000000000
 Ca  Ge 
   1   2
Cartesian
  0.0000000000000000  0.0000000000000000  0.0000000000000000
 -5.9630580000000002 -3.4427744029520002 -3.1718030215080000
 -1.9876860000000001 -1.1475915970480000 -2.0758079784920000
