Er Ni
 1.0000000000000000
     4.3138209999999999   -0.0000010000000000    2.4905840000000001
     1.4379390000000001    4.0671049999999997    2.4905830000000000
     0.0000010000000000    0.0000000000000000    4.9811670000000001
 Er  Ni 
   2   4
Cartesian
  0.7189744388210000  0.5083879999990000  1.2452942405840002
  5.0327865611789999  3.5587160000009996  8.7170397594160001
  2.1569110000000000 -0.0000005000000000  3.7358755000000001
  0.7189700000000000  2.0335524999999999  3.7358750000000001
  2.8758805000000001  2.0335519999999998  4.9811670000000001
  2.8758800000000000  2.0335519999999998  2.4905835000000001
