Yb Tl
 1.0000000000000000
     3.7049010000000000    0.0000000000000000    0.0000000000000000
     0.0000000000000000    3.7049010000000000    0.0000000000000000
     0.0000000000000000    0.0000000000000000    3.7049010000000000
 Yb  Tl 
   1   1
Cartesian
  1.8524505000000000  1.8524505000000000  1.8524505000000000
  0.0000000000000000  0.0000000000000000  0.0000000000000000
