Nb Ir
 1.0000000000000000
     5.1840489999999999    0.0000000000000000    0.0000000000000000
     0.0000000000000000    5.1840489999999999    0.0000000000000000
     0.0000000000000000    0.0000000000000000    5.1840489999999999
 Nb  Ir 
   6   2
Cartesian
  2.5920245000000000  1.2960122500000000  0.0000000000000000
  2.5920245000000000  3.8880367499999999  0.0000000000000000
  1.2960122500000000  0.0000000000000000  2.5920245000000000
  3.8880367499999999  0.0000000000000000  2.5920245000000000
  0.0000000000000000  2.5920245000000000  1.2960122500000000
  0.0000000000000000  2.5920245000000000  3.8880367499999999
  2.5920245000000000  2.5920245000000000  2.5920245000000000
  0.0000000000000000  0.0000000000000000  0.0000000000000000
