Zn Cu Au
 1.0000000000000000
     4.4834920000000000    0.0000000000000000    0.0000000000000000
     0.0000000000000000    4.7003259999999996    0.0000000000000000
     0.0000000000000000    0.0000000000000000    5.6035860000000000
 Zn  Cu  Au 
   4   2   2
Cartesian
  2.2417460000000000  3.2018103676139997  4.1985428463600005
  2.2417460000000000  3.2018103676139997  1.4050431536400001
  0.0000000000000000  1.4985156323859998  1.3967498463600001
  0.0000000000000000  1.4985156323859998  4.2068361536399994
  0.0000000000000000  3.8262909796479998  2.8017930000000000
  2.2417460000000000  0.8740350203520000  0.0000000000000000
  2.2417460000000000  0.8348202005339999  2.8017930000000000
  0.0000000000000000  3.8655057994659994  0.0000000000000000
