Li Sc Rh
 1.0000000000000000
     0.0000000000000000    3.2765830000000000    3.2765830000000000
     3.2765830000000000    0.0000000000000000    3.2765830000000000
     3.2765830000000000    3.2765830000000000    0.0000000000000000
 Li  Sc  Rh 
   1   2   1
Cartesian
  1.6382915000000000  1.6382915000000000  1.6382915000000000
  0.0000000000000000  0.0000000000000000  0.0000000000000000
  3.2765830000000000  3.2765830000000000  3.2765830000000000
  4.9148744999999998  4.9148744999999998  4.9148744999999998
