Hf Ta Tc
 1.0000000000000000
     0.0000020000000000    3.2066880000000002    3.2066859999999999
     3.2066819999999998    0.0000040000000000    3.2066840000000001
     3.2066830000000000    3.2066870000000001    0.0000030000000000
 Hf  Ta  Tc 
   1   1   2
Cartesian
  1.6033481633669999  1.6033511633789999  1.6033496633729998
  4.8100316633669999  4.8100406633790005  4.8100361633729998
  3.2066834999999996  3.2066895000000004  3.2066865000000004
  0.0000000000020000  0.0000032066880000  0.0000032066860000
