Na Tb S 
 1.0000000000000000
    -1.9946480000000000   -3.4548310000000000    0.0000000000000000
    -3.9892970000000001    0.0000000000000000    0.0000000000000000
    -1.9946480000000000   -1.1516109999999999   -6.5935870000000003
 Na  Tb  S  
   1   1   2
Cartesian
 -3.9892965000000000 -2.3032209999999997 -3.2967935000000002
  0.0000000000000000  0.0000000000000000  0.0000000000000000
 -5.9839467378970008 -3.4548326651130004 -5.0787367610979999
 -1.9946462621029999 -1.1516093348870000 -1.5148502389020002
