Cu Ge S 
 1.0000000000000000
     6.3584300000000002    0.0283800000000000    1.0198270000000000
     1.5905689999999999    5.3446109999999996    3.1769680000000000
     0.0265650000000000    0.0080440000000000    6.4554340000000003
 Cu  Ge  S  
   4   2   6
Cartesian
  0.9431702008790001  0.1688634421840000  1.3372875574760001
  1.4948419564900000  2.0006417616520000  4.5296211620309998
  4.4102932536030002  1.0968717367740000  6.6479954212080008
  5.4633561533330006  4.6663933055250002  6.6658998238630005
  1.9409870220309999  3.8773676056389998  7.7485946147880007
  4.8247835000970003  2.9517094520620000  3.5052444862540004
  3.6717254802420003  1.3562207034759999  4.5088471893730002
  1.2789901202189999  3.9838197683429999  5.6431766455409997
  4.7371827754110001  4.9105966491479993  4.5249954883290000
  0.2535756718210000  0.4596140268400000  5.6498687234610001
  0.7030080996040000  2.2111879238670000  2.3821758711050003
  4.1617414008350009  3.1101184845340000  7.7460145380050003
