Yb Mg In
 1.0000000000000000
     0.0000000000000000    3.6784159999999999    3.6784159999999999
     3.6784159999999999    0.0000000000000000    3.6784159999999999
     3.6784159999999999    3.6784159999999999    0.0000000000000000
 Yb  Mg  In 
   2   1   1
Cartesian
  1.8392080000000000  1.8392080000000000  1.8392080000000000
  5.5176239999999996  5.5176239999999996  5.5176239999999996
  0.0000000000000000  0.0000000000000000  0.0000000000000000
  3.6784159999999999  3.6784159999999999  3.6784159999999999
