Gd Al Pd
 1.0000000000000000
     7.0885199999999999   -0.0000020000000000    0.0000000000000000
    -3.5442610000000001    6.1388420000000004    0.0000000000000000
     0.0000000000000000    0.0000000000000000    4.1758139999999999
 Gd  Al  Pd 
   3   3   3
Cartesian
 -2.0624054758999999  3.5721921598000002  2.0879070000000000
  1.4818546878999999  2.5666490040000003  2.0879070000000000
  4.1248097879999994 -0.0000011638000000  2.0879070000000000
  2.7248404962340000  4.7195770250420006  0.0000000000000000
  1.6388268371390000  0.0000056764520000  0.0000000000000000
 -0.8194118776340000  1.4192634373480002  0.0000000000000000
  0.0000028775929999  4.0925627129460000  0.0000000000000000
  3.5442596666679993  2.0462711482120004  0.0000000000000000
  0.0000000000000000  0.0000000000000000  2.0879070000000000
