Al Mo
 1.0000000000000000
    16.1157159999999990    0.0000000000000000   -3.4059170000000001
     0.0000000000000000    3.6063090000000000    0.0000000000000000
     0.0063750000000000    0.0000000000000000    8.4079139999999999
 Al  Mo 
  24   8
Cartesian
  3.0463536964399998  0.0000000000000000  3.3951140962639998
  3.0319769837389998  0.0000000000000000  7.5202798778720004
  3.0228647626349998  1.8031545000000000  1.2207425294729999
  5.0178793035599991  1.8031545000000000  3.3098414037360007
  1.0621995877040000  1.8031545000000000  3.3211942517119999
  5.0322560162609999  1.8031545000000000 -0.8153243778720001
 15.0598914122959986  1.8031545000000000  1.6808027482879999
  1.0624929635599998  0.0000000000000000  5.4938162730919995
  0.9751729919679999  1.8031545000000000  7.5039200393560002
  5.0413682373649999  0.0000000000000000  5.4842129705269995
 15.1469180080319994  1.8031545000000000 -2.5019230393560004
 15.0595980364399988  0.0000000000000000 -0.4918192730919999
 11.1042116964399984  1.8031545000000000  1.6921555962640000
 11.0898349837389993  1.8031545000000000  5.8173213778720001
 11.0807227626350002  0.0000000000000000 -0.4822159705270000
 13.0757373035600004  0.0000000000000000  1.6068829037360004
  9.1200575877040002  0.0000000000000000  1.6182357517119998
 13.0901140162609995  0.0000000000000000 -2.5182828778720001
  7.0020334122960000  0.0000000000000000  3.3837612482879997
  9.1203509635600000  1.8031545000000000  3.7908577730919992
  9.0330309919679994  0.0000000000000000  5.8009615393559999
 13.0992262373649986  1.8031545000000000  3.7812544705269997
  7.0890600080319999  0.0000000000000000 -0.7989645393560001
  7.0017400364400002  1.8031545000000000  1.2111392269079999
  1.1797350982279999  0.0000000000000000  1.2603037933190000
  3.1508668264070003  1.8031545000000000  5.4599104821950002
  4.9133661735929994  0.0000000000000000  1.2450450178049997
 14.9423559017719985  0.0000000000000000  3.7416932066809996
  9.2375930982279986  1.8031545000000000 -0.4426547066810001
 11.2087248264069999  0.0000000000000000  3.7569519821949999
 12.9712241735929990  1.8031545000000000 -0.4579134821950003
  6.8844979017719998  1.8031545000000000  5.4446517066810003
