Mn Cl
 1.0000000000000000
     3.5943779999999999    0.0439210000000000    5.3394930000000000
     1.6622100000000000    3.1872470000000002    5.3394930000000000
     0.0714510000000000    0.0439210000000000    6.4361969999999999
 Mn  Cl 
   1   2
Cartesian
  0.0000000000000000  0.0000000000000000  0.0000000000000000
  3.9576567131219997  2.4327295590219999 12.7131237020339984
  1.3703822868780000  0.8423594409780001  4.4020592979659998
