Zn C  N 
 1.0000000000000000
     4.9744619999999999   -0.0000000000000000    2.1704430000000001
     2.4872299999999998    6.2068610000000000    1.0852210000000000
     0.0050540000000000   -0.0000000000000000    6.7741499999999997
 Zn  C   N  
   4   4   8
Cartesian
  2.6031753379559999  4.3683763580780006  2.5159187735440001
  3.6174282544479999  1.2649458580780000  3.5842095226580004
  2.6057022455519996  4.9419151419219993  5.9029937273420003
  1.1327241620440001  1.8384846419220000  5.8860629764559995
  3.9042042578919998  1.1276997476460000  6.3198111976079998
  4.8086843787359994  4.2311302476460000  7.6396886207060000
  4.8061572421080001  5.0791612523540000  4.2526135523919999
  1.4144461212640000  1.9757307523540000  1.8475146292939999
  2.2990911434199996  2.3630388787539998  2.6023546977200001
  3.6314301248459997  4.7410859474059999  4.1626293463810002
  5.9637279593640002  3.8438221212460002  7.7747996364559997
  3.0392477468319998  1.4657750525940001  5.5198464898859996
  5.5239517191400003  1.6376554474060001  3.2179929760400001
  4.7888444303859998  0.7403916212460000  7.0746491579909998
  5.9612006979359995  5.4664693787539997  4.3877245057419998
  3.6339521780759996  4.5692055525940001  7.5497021897840000
