Zn P  Pd
 1.0000000000000000
     3.8912610000000001    0.0000000000000000    0.0000000000000000
     0.0000000000000000    3.8912610000000001    0.0000000000000000
     0.0000000000000000    0.0000000000000000    6.8287019999999998
 Zn  P   Pd 
   1   1   5
Cartesian
  1.9456305000000000  1.9456305000000000  0.0000000000000000
  0.0000000000000000  0.0000000000000000  3.4143509999999999
  0.0000000000000000  1.9456305000000000  1.9970265850919999
  0.0000000000000000  1.9456305000000000  4.8316754149080001
  1.9456305000000000  0.0000000000000000  1.9970265850919999
  1.9456305000000000  0.0000000000000000  4.8316754149080001
  0.0000000000000000  0.0000000000000000  0.0000000000000000
