Hf Te
 1.0000000000000000
     3.6112790000000001    0.0019700000000000   -0.7266049999999999
    -0.1447430000000000    3.6083769999999999   -0.7266060000000000
     0.0813890000000000    0.0847620000000000    9.7107849999999996
 Hf  Te 
   3   2
Cartesian
  1.4793908327279999  1.5407575271689999  7.3237621593069999
  2.0685377785510002  2.1543514748010000  0.9338111140880000
  3.5479250000000002  3.6951090000000000  8.2575740000000000
  2.9591765340920002  3.0819333725929998  5.3376125073990002
  0.5887483845190000  0.6131755426450000  2.9199517818159997
