Fe Si Ru
 1.0000000000000000
     3.5984189999999998    0.0000000000000000    2.0775480000000002
     1.1994730000000000    3.3926219999999998    2.0775480000000002
     0.0000000000000000    0.0000000000000000    4.1550960000000003
 Fe  Si  Ru 
   1   1   2
Cartesian
  0.0000000000000000  0.0000000000000000  0.0000000000000000
  2.3989460000000000  1.6963109999999999  4.1550960000000003
  1.1994730000000000  0.8481555000000000  2.0775480000000002
  3.5984189999999998  2.5444665000000000  6.2326440000000005
