Lu Pt
 1.0000000000000000
     4.0457869999999998    0.0000000000000000    0.0000000000000000
     0.0000000000000000    4.0457840000000003    0.0000000000000000
     0.0000000000000000    0.0000000000000000    4.0457859999999997
 Lu  Pt 
   1   3
Cartesian
  0.0000000000000000  0.0000000000000000  0.0000000000000000
  0.0000000000000000  2.0228920000000001  2.0228929999999998
  2.0228934999999999  2.0228920000000001  0.0000000000000000
  2.0228934999999999  0.0000000000000000  2.0228929999999998
