Co Sb
 1.0000000000000000
     5.8136900000000002    0.0000000000000000   -2.9885320000000002
     0.0000000000000000    6.4122820000000003    0.0000000000000000
    -0.0011700000000000    0.0000000000000000    6.5788630000000001
 Co  Sb 
   4   8
Cartesian
  1.5724526805900001  6.4074920253459995  1.0509592878279999
  4.2406523194100005  3.2013510253460002 -0.7500597878280003
  4.2400673194100005  0.0047899746540000  2.5393717121719996
  1.5718676805900003  3.2109309746540005  4.3403907878280004
  2.0263762601900002  2.2806242775300003  0.0529294931329998
  3.7867287398100005  5.4867652775300000  0.2479700068669997
  3.7861437398100004  4.1316577224700000  3.5374015068669999
  2.0257912601900001  0.9255167224699999  3.3423609931329996
  0.8541211672900001  4.1058418751380001  1.9961647118790000
  4.9589838327100004  0.8997008751380000 -1.6952652118790001
  4.9583988327100004  2.3064401248620001  1.5941662881209999
  0.8535361672900000  5.5125811248619998  5.2855962118789996
