Y  Si Au
 1.0000000000000000
     4.2747219999999997    0.0000000000000000    0.0000000000000000
     0.0000000000000000    4.2747219999999997    0.0000000000000000
     0.0000000000000000    0.0000000000000000   10.2821440000000006
 Y   Si  Au 
   2   4   4
Cartesian
  0.0000000000000000  0.0000000000000000  0.0000000000000000
  2.1373609999999998  2.1373609999999998  5.1410720000000003
  2.1373609999999998  2.1373609999999998  9.1312019292160009
  2.1373609999999998  2.1373609999999998  1.1509420707839999
  0.0000000000000000  0.0000000000000000  3.9901299292160006
  0.0000000000000000  0.0000000000000000  6.2920140707840009
  0.0000000000000000  2.1373609999999998  7.7116080000000000
  2.1373609999999998  0.0000000000000000  7.7116080000000000
  2.1373609999999998  0.0000000000000000  2.5705360000000002
  0.0000000000000000  2.1373609999999998  2.5705360000000002
