Mo Os
 1.0000000000000000
     5.0040760000000004    0.0000000000000000    0.0000000000000000
     0.0000000000000000    5.0040760000000004    0.0000000000000000
     0.0000000000000000    0.0000000000000000    5.0040760000000004
 Mo  Os 
   6   2
Cartesian
  1.2510190000000001  0.0000000000000000  2.5020380000000002
  3.7530570000000001  0.0000000000000000  2.5020380000000002
  0.0000000000000000  2.5020380000000002  1.2510190000000001
  0.0000000000000000  2.5020380000000002  3.7530570000000001
  2.5020380000000002  3.7530570000000001  0.0000000000000000
  2.5020380000000002  1.2510190000000001  0.0000000000000000
  0.0000000000000000  0.0000000000000000  0.0000000000000000
  2.5020380000000002  2.5020380000000002  2.5020380000000002
