Er Ni
 1.0000000000000000
     4.8033690000000000    0.0001540000000000    0.0000000000000000
    -2.4015529999999998    4.1599300000000001    0.0000000000000000
     0.0000000000000000    0.0000000000000000    3.9086530000000002
 Er  Ni 
   1   5
Cartesian
  0.0000000000000000  0.0000000000000000  0.0000000000000000
 -1.2007764999999999  2.0799650000000001  1.9543265000000001
  0.0002173522820002  2.7731688305400004  0.0000000000000000
  2.4015986477180000  1.3869151694600002  0.0000000000000000
  2.4016845000000000  0.0000770000000000  1.9543265000000001
  1.2009080000000001  2.0800420000000002  1.9543265000000001
