Al Co
 1.0000000000000000
     2.8535270000000001    0.0000000000000000    0.0000000000000000
     0.0000000000000000    2.8535270000000001    0.0000000000000000
     0.0000000000000000    0.0000000000000000    2.8535270000000001
 Al  Co 
   1   1
Cartesian
  0.0000000000000000  0.0000000000000000  0.0000000000000000
  1.4267635000000001  1.4267635000000001  1.4267635000000001
