Na Ti As O 
 1.0000000000000000
    -2.0348850000000001    2.0348850000000001    7.7386850000000003
     2.0348850000000001   -2.0348850000000001    7.7386850000000003
     2.0348850000000001    2.0348850000000001   -7.7386850000000003
 Na  Ti  As  O  
   2   2   2   1
Cartesian
 -0.0000000000000000  0.0000000000000000  2.8163396320500000
 -0.0000000000000000  0.0000000000000000 12.6610303679499996
  0.0000000000000000  2.0348850000000001  0.0000000000000000
  2.0348850000000001  0.0000000000000000  0.0000000000000000
  0.0000000000000000 -0.0000000000000000  5.9206821650599997
  0.0000000000000001 -0.0000000000000001  9.5566878349400000
  0.0000000000000000  0.0000000000000000  0.0000000000000000
