Ca Sb N 
 1.0000000000000000
     4.8601820000000000    0.0000000000000000    0.0000000000000000
     0.0000000000000000    4.8601820000000000    0.0000000000000000
     0.0000000000000000    0.0000000000000000    4.8601820000000000
 Ca  Sb  N  
   3   1   1
Cartesian
  0.0000000000000000  2.4300910000000000  2.4300910000000000
  2.4300910000000000  0.0000000000000000  2.4300910000000000
  2.4300910000000000  2.4300910000000000  0.0000000000000000
  0.0000000000000000  0.0000000000000000  0.0000000000000000
  2.4300910000000000  2.4300910000000000  2.4300910000000000
