Pd
 1.0000000000000000
     3.9581559999999998    0.0000000000000000    0.0000000000000000
     0.0000000000000000    3.9581559999999998    0.0000000000000000
     0.0000000000000000    0.0000000000000000    3.9581559999999998
 Pd 
   4
Cartesian
  0.0000000000000000  0.0000000000000000  0.0000000000000000
  0.0000000000000000  1.9790779999999999  1.9790779999999999
  1.9790779999999999  0.0000000000000000  1.9790779999999999
  1.9790779999999999  1.9790779999999999  0.0000000000000000
