Lu N 
 1.0000000000000000
     2.8928180000000001    0.0000000000000000    1.6701690000000000
     0.9642730000000000    2.7273760000000000    1.6701690000000000
     0.0000000000000000    0.0000000000000000    3.3403390000000002
 Lu  N  
   1   1
Cartesian
  0.0000000000000000  0.0000000000000000  0.0000000000000000
  1.9285455000000000  1.3636880000000000  3.3403385000000001
