Ca Co As
 1.0000000000000000
     3.7714789999999998    0.0000000000000000   -1.3586050000000001
    -0.4894120000000000    3.7395890000000001   -1.3586050000000001
    -0.0453780000000000   -0.0517030000000000    5.7881330000000002
 Ca  Co  As 
   1   2   2
Cartesian
  0.0000000000000000  0.0000000000000000  0.0000000000000000
  0.5531217500000000  2.7788402500000000  1.5354615000000000
  2.6835672499999998  0.9090457500000000  1.5354615000000000
  1.1599904875239999  1.3216943415719999  3.2201251111040001
  2.0766985124759998  2.3661916584279998 -0.1492021111040001
