Dy Cr C 
 1.0000000000000000
     0.0000000000000000   -3.3779119999999998    0.0000000000000000
    -5.0026400000000004    1.6889570000000000    1.4206129999999999
    -0.0313080000000000    0.0000000000000000   -5.5287819999999996
 Dy  Cr  C  
   2   2   3
Cartesian
 -3.9730307866200003  0.0000024788649999 -2.6570162979729997
 -1.0609172133800000 -1.6889574788649999 -1.4511527020269999
 -1.5923094751400002  0.0000003127360000 -4.4656962474819997
 -3.4416385248600005 -1.6889553127360002  0.3575272474820000
 -2.1576386305280004 -1.6889521956159994 -3.6593603792559999
 -2.8763093694720006 -0.0000028043839998 -0.4488086207439999
  0.0000000000000000  0.0000000000000000  0.0000000000000000
