Lu B 
 1.0000000000000000
     3.9583840000000001    0.0000000000000000    0.0000000000000000
     0.0000000000000000    7.0104759999999997    0.0000000000000000
     0.0000000000000000    0.0000000000000000    7.0104759999999997
 Lu  B  
   4  16
Cartesian
  0.0000000000000000  2.2382136410919999  5.7434516410919993
  0.0000000000000000  5.7434516410919993  4.7722623589079998
  0.0000000000000000  4.7722623589079998  1.2670243589079999
  0.0000000000000000  1.2670243589079999  2.2382136410919999
  1.9791920000000001  5.7703788794079998  6.7415120777839999
  1.9791920000000001  2.8975839612720002  0.6076540387280001
  1.9791920000000001  3.7742019222159997  4.7453351205920002
  1.9791920000000001  6.4028219612719992  2.8975839612720002
  1.9791920000000001  2.2651408794079999  3.7742019222159997
  1.9791920000000001  0.6076540387280001  4.1128920387279999
  1.9791920000000001  4.7453351205920002  3.2362740777840000
  1.9791920000000001  0.2689639222160000  5.7703788794079998
  0.7993402314240000  0.0000000000000000  0.0000000000000000
  0.7993402314240000  3.5052379999999999  3.5052379999999999
  3.1590437685760002  0.0000000000000000  0.0000000000000000
  1.9791920000000001  6.7415120777839999  1.2400971205919999
  1.9791920000000001  1.2400971205919999  0.2689639222160000
  1.9791920000000001  4.1128920387279999  6.4028219612719992
  3.1590437685760002  3.5052379999999999  3.5052379999999999
  1.9791920000000001  3.2362740777840000  2.2651408794079999
