La Si Ir
 1.0000000000000000
     3.8720659999999998    0.0008180000000000   -1.4362490000000001
    -0.5320930000000000    3.8353359999999999   -1.4362580000000000
     0.0015910000000000    0.0018260000000000    5.9402569999999999
 La  Si  Ir 
   1   2   2
Cartesian
  0.0000000000000000  0.0000000000000000  0.0000000000000000
  2.1013226832080005  2.4135003335519998 -0.2738620339160002
  1.2402369126329997  1.4244835009660000  3.3416120339069999
  2.7719935137919998  0.9602109556239998  1.5338831906079999
  0.5695754224599998  2.8777613745219996  1.5338682456590000
