Cr C 
 1.0000000000000000
     2.8200319999999999    0.0000000000000000    0.0000000000000000
     0.0000000000000000    9.2214709999999993    0.0000000000000000
     0.0000000000000000    0.0000000000000000    6.9091839999999998
 Cr  C  
  12   8
Cartesian
  1.4100159999999999  8.3032706895879986  5.1818879999999998
  0.0000000000000000  1.3171027029300000  6.4241109189119996
  1.4100159999999999  0.9182003104119999  1.7272959999999999
  0.0000000000000000  7.9043682970699995  0.4850730810880000
  0.0000000000000000  1.3171027029300000  3.9396650810880001
  0.0000000000000000  7.9043682970699995  2.9695189189119997
  0.0000000000000000  3.6925351895879999  5.1818879999999998
  1.4100159999999999  5.9278382029299994  6.4241109189119996
  0.0000000000000000  5.5289358104119994  1.7272959999999999
  1.4100159999999999  3.2936327970699995  0.4850730810880000
  1.4100159999999999  5.9278382029299994  3.9396650810880001
  1.4100159999999999  3.2936327970699995  2.9695189189119997
  0.0000000000000000  6.9532104493039997  5.1818879999999998
  0.0000000000000000  2.2682605506959996  1.7272959999999999
  1.4100159999999999  0.0000000000000000  0.0000000000000000
  1.4100159999999999  0.0000000000000000  3.4545919999999999
  1.4100159999999999  2.3424749493040000  5.1818879999999998
  1.4100159999999999  6.8789960506959993  1.7272959999999999
  0.0000000000000000  4.6107354999999997  0.0000000000000000
  0.0000000000000000  4.6107354999999997  3.4545919999999999
