La
 1.0000000000000000
     3.7963110000000002   -0.0000000000000000    0.0000000000000000
    -1.8981560000000000    3.2877030000000000    0.0000000000000000
     0.0000000000000000    0.0000000000000000   12.0412579999999991
 La 
   4
Cartesian
  0.0000000000000000  0.0000000000000000  0.0000000000000000
  0.0000000000000000  0.0000000000000000  6.0206289999999996
 -0.0000022314889999  2.1918030959010002  3.0103144999999998
  1.8981572314890005  1.0958999040990001  9.0309434999999993
