Sc Si Rh
 1.0000000000000000
     4.0278080000000003    0.0000000000000000    0.0000000000000000
     0.0000000000000000    6.3121630000000000    0.0000000000000000
     0.0000000000000000    0.0000000000000000    9.5332939999999997
 Sc  Si  Rh 
   4   8   4
Cartesian
  1.0069520000000001  4.6672701316670002  1.7352215739980001
  1.0069520000000001  1.5111886316670000  3.0314254260019999
  3.0208560000000002  1.6448928683330002  7.7980724260020002
  3.0208560000000002  4.8009743683329997  6.5018685739979993
  1.0069520000000001  4.6235268420770002  4.4961397827500003
  3.0208560000000002  1.6886361579230000  5.0371542172500003
  1.0069520000000001  1.4674453420769999  0.2705072172500000
  3.0208560000000002  4.8447176579229998  9.2627867827500001
  1.0069520000000001  2.8757394046810001  6.2744709122159996
  3.0208560000000002  0.2803420953190000  1.5078239122160000
  1.0069520000000001  6.0318209046810001  8.0254700877840008
  3.0208560000000002  3.4364235953190003  3.2588230877839997
  3.0208560000000002  2.6263774053660001  0.9463224289100001
  1.0069520000000001  3.6857855946340004  8.5869715710899985
  3.0208560000000002  5.7824589053660000  3.8203245710900000
  1.0069520000000001  0.5297040946340000  5.7129694289100001
