Er Mn Bi
 1.0000000000000000
     8.1461009999999998    0.0000000000000000    0.0000000000000000
    -4.0730519999999997    7.0547310000000003    0.0000000000000000
     0.0000000000000000    0.0000000000000000    4.3643429999999999
 Er  Mn  Bi 
   6   1   2
Cartesian
  1.9156126728570000  0.0000000000000000  0.0000000000000000
 -2.4609665297640002  4.2625178533170009  2.1821714999999999
  1.6120842828569999  2.7922131466830002  2.1821714999999999
  3.1152430163070002  5.3957616222330005  0.0000000000000000
 -0.9578066891639999  1.6589693777670000  0.0000000000000000
  4.9219312469070005  0.0000000000000000  2.1821714999999999
  0.0000000000000000  0.0000000000000000  2.1821714999999999
 -0.0000050730509999  4.7031563515770003  0.0000000000000000
  4.0730540730509999  2.3515746484230000  0.0000000000000000
