Lu Ag Hg
 1.0000000000000000
     0.0000000000000000    3.5716120000000000    3.5716120000000000
     3.5716120000000000    0.0000000000000000    3.5716120000000000
     3.5716120000000000    3.5716120000000000    0.0000000000000000
 Lu  Ag  Hg 
   2   1   1
Cartesian
  0.0000000000000000  0.0000000000000000  0.0000000000000000
  3.5716191432240003  3.5716191432240003  3.5716191432240003
  1.7858060000000000  1.7858060000000000  1.7858060000000000
  5.3574251432239999  5.3574251432239999  5.3574251432239999
