Tl Pd Cl
 1.0000000000000000
     4.2066010000000000    0.0000000000000000    0.0000000000000000
     0.0000000000000000    7.1667319999999997    0.0000000000000000
     0.0000000000000000    0.0000000000000000    7.1667319999999997
 Tl  Pd  Cl 
   2   1   4
Cartesian
  2.1033005000000000  3.5833659999999998  0.0000000000000000
  2.1033005000000000  0.0000000000000000  3.5833659999999998
  0.0000000000000000  0.0000000000000000  0.0000000000000000
  0.0000000000000000  5.5289617364320005  5.5289617364320005
  0.0000000000000000  1.6377702635680000  5.5289617364320005
  0.0000000000000000  5.5289617364320005  1.6377702635680000
  0.0000000000000000  1.6377702635680000  1.6377702635680000
