Nb Rh
 1.0000000000000000
     2.8778180000000000    0.0000000000000000    0.0000000000000000
     0.0000000000000000    2.8778180000000000    0.0000000000000000
     0.0000000000000000    0.0000000000000000    3.8855089999999999
 Nb  Rh 
   1   1
Cartesian
  0.0000000000000000  0.0000000000000000  0.0000000000000000
  1.4389090000000000  1.4389090000000000  1.9427544999999999
