Sc Ga Ni
 1.0000000000000000
     4.0138639999999999   -0.0000670000000000    0.0000000000000000
    -2.0070109999999999    4.7506940000000002   -0.0000000000000000
     0.0000000000000000    0.0000000000000000    6.4231160000000003
 Sc  Ga  Ni 
   2   4   2
Cartesian
  0.0000242861520000  0.7119149792850000  1.6057790000000001
  2.0068307210169998  4.0386977687000005  4.8173370000000002
  0.0002297963030001  3.4394164386230002  2.8867795625760002
  2.0066232030650002  1.3112485666610001  3.5359382042320004
  2.0066232030650002  1.3112485666610001  6.0987357957679995
  0.0002297963030001  3.4394164386230002  0.3247784374240000
  2.0068214306139995  2.7870745018910004  1.6057790000000001
  0.0000295634810000  1.9634907395560000  4.8173370000000002
