Zn Ru
 1.0000000000000000
     3.7957630000000000    0.0000000000000000    0.0000000000000000
     0.0000000000000000    3.7957630000000000    0.0000000000000000
     0.0000000000000000    0.0000000000000000   15.5764139999999998
 Zn  Ru 
  12   4
Cartesian
  1.8978815000000000  1.8978815000000000  2.0106346719479999
  1.8978815000000000  1.8978815000000000 13.5657793280519989
  1.8978815000000000  0.0000000000000000  0.0000000000000000
  0.0000000000000000  1.8978815000000000  0.0000000000000000
  0.0000000000000000  1.8978815000000000 11.6823104999999998
  1.8978815000000000  0.0000000000000000 11.6823104999999998
  0.0000000000000000  0.0000000000000000  9.7988416719480007
  0.0000000000000000  0.0000000000000000  5.7775723280519999
  0.0000000000000000  1.8978815000000000  7.7882069999999999
  1.8978815000000000  0.0000000000000000  7.7882069999999999
  1.8978815000000000  0.0000000000000000  3.8941034999999999
  0.0000000000000000  1.8978815000000000  3.8941034999999999
  0.0000000000000000  0.0000000000000000 13.7536931865480003
  0.0000000000000000  0.0000000000000000  1.8227208134519999
  1.8978815000000000  1.8978815000000000  5.9654861865479996
  1.8978815000000000  1.8978815000000000  9.6109278134519993
