Lu Rh C 
 1.0000000000000000
     4.1155260000000000    0.0000000000000000    0.0000000000000000
     0.0000000000000000    4.1155260000000000    0.0000000000000000
     0.0000000000000000    0.0000000000000000    4.1155260000000000
 Lu  Rh  C  
   1   3   1
Cartesian
  0.0000000000000000  0.0000000000000000  0.0000000000000000
  0.0000000000000000  2.0577630000000000  2.0577630000000000
  2.0577630000000000  2.0577630000000000  0.0000000000000000
  2.0577630000000000  0.0000000000000000  2.0577630000000000
  2.0577630000000000  2.0577630000000000  2.0577630000000000
