Tm Tl Cd
 1.0000000000000000
     0.0000000000000000    3.6959710000000001    3.6959710000000001
     3.6959710000000001    0.0000000000000000    3.6959710000000001
     3.6959710000000001    3.6959710000000001    0.0000000000000000
 Tm  Tl  Cd 
   2   1   1
Cartesian
  0.0000000000000000  0.0000000000000000  0.0000000000000000
  3.6959710000000001  3.6959710000000001  3.6959710000000001
  5.5439638919420000  5.5439638919420000  5.5439638919420000
  1.8479855000000001  1.8479855000000001  1.8479855000000001
