Tm Tl Ag
 1.0000000000000000
     0.0000000000000000    3.6447370000000001    3.6447370000000001
     3.6447370000000001    0.0000000000000000    3.6447370000000001
     3.6447370000000001    3.6447370000000001    0.0000000000000000
 Tm  Tl  Ag 
   2   1   1
Cartesian
  0.0000000000000000  0.0000000000000000  0.0000000000000000
  3.6447297105260001  3.6447297105260001  3.6447297105260001
  5.4670982105260002  5.4670982105260002  5.4670982105260002
  1.8223685000000001  1.8223685000000001  1.8223685000000001
