As Rh
 1.0000000000000000
     6.9407370000000004    0.0000000000000000   -2.4539219999999999
    -3.4703689999999998    6.0108540000000001   -2.4539219999999999
     0.0000000000000000    0.0000000000000000    7.3617650000000001
 As  Rh 
  12   4
Cartesian
  0.5471829854130005  5.1343212154500000  1.4604608422369998
 -1.5593376348239998  5.1343212154500000 -0.0290817778710003
  5.0297056348240003  0.8765327845500001  2.4830027778709995
 -0.1964195608559997  2.0932738946459999  2.4248523459120004
  2.9231850145870002  0.8765327845500001  0.9934601577629999
 -1.2496834930939995  3.9175801053539998  3.9143851503330001
  1.7146222154260000  1.2167350992420001  4.9369294832910002
  3.6667875608560010  3.9175801053539998  0.0290686540880004
  1.7557457845740001  4.7941189007579998 -2.4830084832909995
  4.7200514930940010  2.0932738946459999 -1.4604641503330003
  2.7678893145309997  3.0410352990960003  3.4473914675250006
  0.7024786854690001  2.9698187009040002 -0.9934704675250000
  3.4703685000000002  0.0000000000000000 -1.2269610000000000
  0.0000000000000000  0.0000000000000000  3.6808825000000001
 -1.7351844999999999  3.0054270000000001 -1.2269610000000000
  1.7351840000000003  3.0054270000000001  1.2269605000000001
