Mn Sb Rh
 1.0000000000000000
     4.1667750000000003    0.0000000000000000    0.0000000000000000
     0.0000000000000000    4.1667750000000003    0.0000000000000000
     0.0000000000000000    0.0000000000000000    3.6421690000000000
 Mn  Sb  Rh 
   1   1   2
Cartesian
  0.0000000000000000  0.0000000000000000  0.0000000000000000
  2.0833875000000002  2.0833875000000002  0.0000000000000000
  2.0833875000000002  0.0000000000000000  1.8210845000000000
  0.0000000000000000  2.0833875000000002  1.8210845000000000
