Sc Hg
 1.0000000000000000
     6.4948910000000000    0.0000000000000000    0.0000000000000000
    -3.2474460000000001    5.6247410000000002    0.0000000000000000
     0.0000000000000000    0.0000000000000000    4.8937140000000001
 Sc  Hg 
   2   6
Cartesian
  3.2474485807789999  1.8749117917530000  3.6702855000000003
 -0.0000035807790001  3.7498292082470002  1.2234285000000000
  1.5943491902930005  4.6703293223790006  3.6702855000000003
  1.6530958097070003  0.9544116776210000  1.2234285000000000
  4.8418015155030005  0.9544116776210000  1.2234285000000000
 -0.0000034171270002  1.9088289799830003  3.6702855000000003
 -1.5943565155030002  4.6703293223790006  3.6702855000000003
  3.2474484171270004  3.7159120200170004  1.2234285000000000
