Lu Mo C 
 1.0000000000000000
     5.6006270000000002    1.6643090000000000    0.0319240000000000
    -5.6006270000000002    1.6643090000000000   -0.0319240000000000
    -1.8677809999999999    0.0000000000000000    5.2565540000000004
 Lu  Mo  C  
   2   2   3
Cartesian
 -0.2276007957869999  1.6643056713820001  4.3036014233340003
 -1.6401876726209998  1.6643073356910001  0.9529578012960001
  2.7633832059849994  1.6643056713819999  3.3488096309900004
 -4.6311623382039997  1.6643056713819999  1.9077391124559999
 -3.9728398932180000  1.6643056713819999  3.9180737661960001
  2.1050682266910004  1.6643056713820001  1.3384855542059999
 -0.9338905000000002  3.3286146713820002  2.6282770000000002
