Ho S  F 
 1.0000000000000000
     3.7438319999999998    0.0000000000000000    0.0000000000000000
     0.0000000000000000    3.7438319999999998    0.0000000000000000
     0.0000000000000000    0.0000000000000000    6.7873370000000000
 Ho  S   F  
   2   2   2
Cartesian
  2.8078740000000000  2.8078740000000000  5.2475956648650000
  0.9359580000000000  0.9359580000000000  1.5397413351350000
  0.9359580000000000  0.9359580000000000  4.3784839493519998
  2.8078740000000000  2.8078740000000000  2.4088530506480001
  0.9359580000000000  2.8078740000000000  0.0000000000000000
  2.8078740000000000  0.9359580000000000  0.0000000000000000
