Cd Pd Rh
 1.0000000000000000
     0.0000000000000000    3.2189260000000002    3.2189260000000002
     3.2189260000000002    0.0000000000000000    3.2189260000000002
     3.2189260000000002    3.2189260000000002    0.0000000000000000
 Cd  Pd  Rh 
   2   1   1
Cartesian
  3.2189324378520006  3.2189324378520006  3.2189324378520006
  0.0000000000000000  0.0000000000000000  0.0000000000000000
  1.6094630000000001  1.6094630000000001  1.6094630000000001
  4.8283890000000005  4.8283890000000005  4.8283890000000005
