Eu F 
 1.0000000000000000
     3.5523609999999999    0.0000000000000000    2.0509559999999998
     1.1841210000000000    3.3491970000000002    2.0509559999999998
    -0.0000000000000000   -0.0000000000000000    4.1019139999999998
 Eu  F  
   1   2
Cartesian
  0.0000000000000000  0.0000000000000000  0.0000000000000000
  1.1841204999999999  0.8372992500000001  2.0509564999999998
  3.5523614999999999  2.5118977500000002  6.1528694999999995
