Ta Sb Ru
 1.0000000000000000
     3.7712979999999998    0.0000000000000000    2.1773600000000002
     1.2570990000000000    3.5556130000000001    2.1773600000000002
     0.0000000000000000    0.0000000000000000    4.3547190000000002
 Ta  Sb  Ru 
   1   1   1
Cartesian
  0.0000000000000000  0.0000000000000000  0.0000000000000000
  2.5141985000000000  1.7778065000000001  4.3547194999999999
  1.2570992500000000  0.8889032500000000  2.1773597499999999
