Rb Ce Se
 1.0000000000000000
     8.0309000000000008   -2.2113510000000001   -0.0111540000000000
     8.0309000000000008    2.2113510000000001   -0.0111540000000000
     7.4272470000000004    0.0000000000000000    3.7711489999999999
 Rb  Ce  Se 
   1   1   2
Cartesian
  0.0000000000000000  0.0000000000000000  0.0000000000000000
 11.7445235000000014  0.0000000000000000  1.8744204999999998
  5.4878400067980007 -0.0000000000000000  0.8758567181940000
 18.0012069932020005 -0.0000000000000001  2.8729842818060001
