Ca Mg Pb
 1.0000000000000000
     4.7316539999999998    0.0000000000000000    0.0000000000000000
     0.0000000000000000    7.9314410000000004    0.0000000000000000
     0.0000000000000000    0.0000000000000000    8.8737010000000005
 Ca  Mg  Pb 
   4   4   4
Cartesian
  3.5487405000000001  7.7693937289290007  1.6254135595720001
  3.5487405000000001  3.8036732289290005  2.8114369404280000
  1.1829135000000000  4.1277677710710003  6.0622640595720005
  1.1829135000000000  0.1620472710710000  7.2482874404280002
  1.1829135000000000  5.0854178888519996  0.5410384236710000
  1.1829135000000000  1.1196973888520001  3.8958120763290003
  3.5487405000000001  6.8117436111480005  4.9778800499700004
  3.5487405000000001  2.8460231111479999  8.3326625763289996
  1.1829135000000000  2.0879359803680000  1.0394830825420001
  1.1829135000000000  6.0536564803680006  3.3973674174580002
  3.5487405000000001  1.8777845196320000  5.4763335825419999
  3.5487405000000001  5.8435050196320004  7.8342179174580009
