Pr B  Pt
 1.0000000000000000
     4.0362530000000003    0.0000000000000000    0.0000000000000000
     0.0000000000000000    4.0362530000000003    0.0000000000000000
     0.0000000000000000    0.0000000000000000    5.1023660000000000
 Pr  B   Pt 
   1   1   3
Cartesian
  0.0000000000000000  0.0000000000000000  5.0201872932040006
  2.0181265000000002  2.0181265000000002  3.5064275530560001
  0.0000000000000000  2.0181265000000002  2.5546321994159999
  2.0181265000000002  2.0181265000000002  0.5109305217760000
  2.0181265000000002  0.0000000000000000  2.5546321994159999
