Co O 
 1.0000000000000000
     4.6241709999999996    0.0000000000000000    0.0000000000000000
     0.0000000000000000    4.6241709999999996    0.0000000000000000
     0.0000000000000000    0.0000000000000000    4.6241709999999996
 Co  O  
   4   4
Cartesian
  0.0000000000000000  0.0000000000000000  0.0000000000000000
  0.0000000000000000  2.3120854999999998  2.3120854999999998
  2.3120854999999998  0.0000000000000000  2.3120854999999998
  2.3120854999999998  2.3120854999999998  0.0000000000000000
  3.4681282499999995  1.1560427499999999  1.1560427499999999
  3.4681282499999995  3.4681282499999995  3.4681282499999995
  1.1560427499999999  1.1560427499999999  3.4681282499999995
  1.1560427499999999  3.4681282499999995  1.1560427499999999
