Be Ge Ru
 1.0000000000000000
     0.0000000000000000    2.8994049999999998    2.8994049999999998
     2.8994049999999998    0.0000000000000000    2.8994049999999998
     2.8994049999999998    2.8994049999999998    0.0000000000000000
 Be  Ge  Ru 
   1   1   2
Cartesian
  1.4497024999999999  1.4497024999999999  1.4497024999999999
  4.3491017011899995  4.3491017011899995  4.3491017011899995
  0.0000000000000000  0.0000000000000000  0.0000000000000000
  2.8994049999999998  2.8994049999999998  2.8994049999999998
