As Ir
 1.0000000000000000
     6.9554429999999998    0.0000000000000000   -2.4591210000000001
    -3.4777209999999998    6.0235900000000004   -2.4591210000000001
     0.0000000000000000    0.0000000000000000    7.3773609999999996
 As  Ir 
  12   4
Cartesian
  2.9242595844419998  0.8741373572100001  0.9971679515219999
 -1.2585662184549999  3.9281757938800004  3.9210643808789998
  1.7144681127739998  1.2212828725000002  4.9527368396239995
  3.6781498715540004  3.9281757938800004  0.0344881579989998
  1.7632538872260000  4.8023071275000007 -2.4936104622630006
  4.7362951738980001  2.0954142061200001 -1.4619478399999999
  2.7726171971030000  3.0540384366700004  3.4562953148569995
  0.7051048028969999  2.9695515633300005 -0.9971689374960001
 -0.2004209161109999  2.0954142061200001  2.4246283828799999
  5.0405435379510006  0.8741373572100001  2.4936137860029999
 -1.5628250156720001  5.1494586663800002 -0.0344972451240005
  0.5534589378370004  5.1494586663800002  1.4619485893569995
  1.7388610000000000  3.0117950000000002  1.2295594999999997
 -1.7388604999999999  3.0117950000000002 -1.2295605000000001
  0.0000000000000000  0.0000000000000000  3.6886804999999998
  3.4777214999999999  0.0000000000000000 -1.2295605000000001
