Ho P 
 1.0000000000000000
     3.4499279999999999    0.0000000000000000    1.9918169999999999
     1.1499760000000001    3.2526250000000001    1.9918169999999999
     0.0000000000000000    0.0000000000000000    3.9836350000000000
 Ho  P  
   1   1
Cartesian
  0.0000000000000000  0.0000000000000000  0.0000000000000000
  2.2999520000000002  1.6263125000000000  3.9836345000000000
