Mn Ge Ru
 1.0000000000000000
     0.0000000000000000    2.9865990000000000    2.9865990000000000
     2.9865990000000000    0.0000000000000000    2.9865990000000000
     2.9865990000000000    2.9865990000000000    0.0000000000000000
 Mn  Ge  Ru 
   1   1   2
Cartesian
  4.4798925268019998  4.4798925268019998  4.4798925268019998
  1.4932995000000000  1.4932995000000000  1.4932995000000000
  2.9865990000000000  2.9865990000000000  2.9865990000000000
  0.0000000000000000  0.0000000000000000  0.0000000000000000
