Dy As
 1.0000000000000000
     3.5557560000000001    0.0000000000000000    2.0529160000000002
     1.1852529999999999    3.3523990000000001    2.0529160000000002
    -0.0000000000000000   -0.0000000000000000    4.1058339999999998
 Dy  As 
   1   1
Cartesian
  2.3705045000000000  1.6761995000000001  4.1058330000000005
  0.0000000000000000  0.0000000000000000  0.0000000000000000
