Ce Zn
 1.0000000000000000
     6.7129170000000000    0.0026000000000000    0.8401100000000000
     0.7418490000000000    6.6718039999999998    0.8401090000000000
     0.0029010000000000    0.0025960000000000    6.7652830000000002
 Ce  Zn 
   2  17
Cartesian
  2.5172832921810002  2.2537746109999999  2.8507200815860001
  4.9403837078189996  4.4232253889999988  5.5947819184140002
  0.7389727653629999  0.6616172530000000  0.8368563476780000
  6.7186942346369998  6.0153827469999994  7.6086456523220001
  0.0014505000000000  0.0012980000000000  3.3826415000000001
  3.3564585000000000  0.0013000000000000  0.4200550000000000
  0.3709245000000000  3.3359019999999999  0.4200545000000000
  4.9731090036359999  1.9458259770919999  0.8401097086270001
  0.5265395043959999  4.7285768574160008  2.5665447239020001
  1.9580184919679999  0.0025971654920000  5.0388475674710005
  2.4816569963639998  4.7285780229079997  0.8401092913730001
  0.2182104956040000  1.9458231425840000  5.0388472760980001
  4.7577995080319999  0.0025988345080000  2.5665454325290002
  4.4869835041860009  1.0658916280960000  5.0813270269760009
  4.8500109218339995  4.3423134575039999  2.1704312449520002
  1.5535411014179998  4.3423114924000004  5.0813265357000006
  5.9041258985819995  2.3346885076000001  3.3641754643000001
  2.9706834958139998  5.6111083719039998  3.3641749730240003
  2.6076560781659999  2.3346865424960002  6.2750707550480005
