Cs Sn I 
 1.0000000000000000
     6.2862280000000004    0.0000000000000000    0.0000000000000000
     0.0000000000000000    6.2862280000000004    0.0000000000000000
     0.0000000000000000    0.0000000000000000    6.2862280000000004
 Cs  Sn  I  
   1   1   3
Cartesian
  3.1431140000000002  3.1431140000000002  3.1431140000000002
  0.0000000000000000  0.0000000000000000  0.0000000000000000
  3.1431140000000002  0.0000000000000000  0.0000000000000000
  0.0000000000000000  0.0000000000000000  3.1431140000000002
  0.0000000000000000  3.1431140000000002  0.0000000000000000
