Sr B 
 1.0000000000000000
     4.1902059999999999    0.0000000000000000    0.0000000000000000
     0.0000000000000000    4.1902059999999999    0.0000000000000000
     0.0000000000000000    0.0000000000000000    4.1902059999999999
 Sr  B  
   1   6
Cartesian
  0.0000000000000000  0.0000000000000000  0.0000000000000000
  0.8511942566339999  2.0951029999999999  2.0951029999999999
  2.0951029999999999  2.0951029999999999  3.3390117433660000
  2.0951029999999999  2.0951029999999999  0.8511942566339999
  2.0951029999999999  0.8511942566339999  2.0951029999999999
  2.0951029999999999  3.3390117433660000  2.0951029999999999
  3.3390117433660000  2.0951029999999999  2.0951029999999999
