Ti Hg
 1.0000000000000000
     3.0495839999999999    0.0000000000000000    0.0000000000000000
     0.0000000000000000    3.0495839999999999    0.0000000000000000
     0.0000000000000000    0.0000000000000000    4.0923340000000001
 Ti  Hg 
   1   1
Cartesian
  1.5247919999999999  1.5247919999999999  2.0461670000000001
  0.0000000000000000  0.0000000000000000  0.0000000000000000
