In Cu S 
 1.0000000000000000
     5.0438919999999996    0.0000000000000000   -2.2436630000000002
    -0.9980450000000000    4.9441639999999998   -2.2436630000000002
     0.0020730000000000    0.0025340000000000    6.7959790000000000
 In  Cu  S  
   2   2   4
Cartesian
  2.0229234999999997  2.4720819999999999 -2.2436630000000002
  3.5344442500000000  1.2373079999999999  1.1543264999999998
  0.5134757499999999  3.7093899999999995  1.1543264999999998
  0.0000000000000000  0.0000000000000000  0.0000000000000000
  3.6859135962759990  4.3267769999999999 -2.2920397253890004
  3.0579783151349997  0.4775142443080000  3.4788612253890001
  1.3724316537239998  1.8546949999999998  0.0808717253889999
 -0.0204835651350000  3.2344097556920000  3.3496127746109998
