Li Tl Pd
 1.0000000000000000
     0.0000000000000000    3.1356000000000002    3.1356000000000002
     3.1356000000000002    0.0000000000000000    3.1356000000000002
     3.1356000000000002    3.1356000000000002    0.0000000000000000
 Li  Tl  Pd 
   2   1   1
Cartesian
  0.0000000000000000  0.0000000000000000  0.0000000000000000
  3.1355937288000004  3.1355937288000004  3.1355937288000004
  4.7033937288000001  4.7033937288000001  4.7033937288000001
  1.5678000000000001  1.5678000000000001  1.5678000000000001
