Ce B  Pt
 1.0000000000000000
     3.9975679999999998    0.0000000000000000    0.0000000000000000
     0.0000000000000000    3.9975679999999998    0.0000000000000000
     0.0000000000000000    0.0000000000000000    5.1441160000000004
 Ce  B   Pt 
   1   1   3
Cartesian
  0.0000000000000000  0.0000000000000000  5.1035495012240002
  1.9987839999999999  1.9987839999999999  3.6240091455360002
  0.0000000000000000  1.9987839999999999  2.6477690992880003
  1.9987839999999999  1.9987839999999999  0.5959561268320001
  1.9987839999999999  0.0000000000000000  2.6477690992880003
