Lu Tl Te
 1.0000000000000000
    -2.1874929999999999   -3.7888500000000001    0.0000000000000000
    -4.3749859999999998    0.0000000000000000    0.0000000000000000
    -2.1874929999999999   -1.2629490000000001   -8.1327010000000008
 Lu  Tl  Te 
   1   1   2
Cartesian
 -4.3749859999999998 -2.5258995000000000 -4.0663505000000004
  0.0000000000000000  0.0000000000000000  0.0000000000000000
 -6.5624746250139996 -3.7888467660900003 -5.7580336350100012
 -2.1874973749860001 -1.2629522339100001 -2.3746673649900005
