Rb Pt C 
 1.0000000000000000
     5.4058929999999998    0.0000000000000000    0.0000000000000000
    -2.7029470000000000    4.6816409999999999    0.0000000000000000
     0.0000000000000000    0.0000000000000000    5.2008010000000002
 Rb  Pt  C  
   2   1   2
Cartesian
 -0.0000030362800000  3.1210955605469999  1.4608998000990001
  2.7029490362799997  1.5605454394529998  3.7399011999009999
  0.0000000000000000  0.0000000000000000  0.0000000000000000
  0.0000000000000000  0.0000000000000000  3.2351842660550001
  0.0000000000000000  0.0000000000000000  1.9656167339449999
