Ti Zn Co
 1.0000000000000000
     0.0029800000000000    2.8758140000000001    2.8758140000000001
     2.8758140000000001    0.0029800000000000    2.8758140000000001
     2.8758140000000001    2.8758140000000001    0.0029800000000000
 Ti  Zn  Co 
   1   1   2
Cartesian
  1.4386462453920001  1.4386462453919999  1.4386462453919999
  4.3159444907840001  4.3159444907840010  4.3159444907840010
  2.8767803306720001  2.8767803306720001  2.8767803306720001
  0.0005409331520000  0.0005409331520000  0.0005409331520000
