Ce Mg Zn
 1.0000000000000000
     4.2379030000000002   -0.0000000000000000    2.4467539999999999
     1.4126339999999999    3.9955330000000000    2.4467539999999999
    -0.0000000000000000   -0.0000000000000000    4.8935100000000000
 Ce  Mg  Zn 
   1   1   2
Cartesian
  0.0000000000000000  0.0000000000000000  0.0000000000000000
  2.8252685000000000  1.9977665000000000  4.8935089999999999
  1.4126342500000000  0.9988832500000000  2.4467544999999999
  4.2379027499999999  2.9966497500000000  7.3402634999999998
