Fe Sn
 1.0000000000000000
     2.6540230000000000   -4.5966659999999999    0.0000000000000000
     2.6540930000000000    4.5967060000000002    0.0000000000000000
     0.0000000000000000    0.0000000000000000    4.5094900000000004
 Fe  Sn 
   3   3
Cartesian
  1.3270115000000000 -2.2983330000000000  0.0000000000000000
  2.6540580000000000  0.0000200000000001  0.0000000000000000
  1.3270465000000000  2.2983530000000001  0.0000000000000000
  0.0000000000000000  0.0000000000000000  0.0000000000000000
  2.6541015165060000  1.5323988253160001  2.2547450000000002
  2.6540144834940000 -1.5323588253159994  2.2547450000000002
