Na La O 
 1.0000000000000000
     0.0000000000000000    4.7911539999999997    0.0000000000000000
     4.7911539999999997    0.0000000000000000    0.0000000000000000
     2.3955769999999998    2.3955769999999998   -5.6929410000000003
 Na  La  O  
   2   2   4
Cartesian
  2.3955769999999998  2.3955769999999998  0.0000000000000000
  4.7911539999999997  2.3955769999999998 -2.8464705000000001
  0.0000000000000000  0.0000000000000000  0.0000000000000000
  2.3955769999999998  4.7911539999999997 -2.8464705000000001
  2.3955793955769997  2.3955793955769997 -3.2274136470149997
  2.3955746044230000  4.7911516044229998 -5.3119978529850007
  2.3955793955769997  4.7911563955769996 -0.3809431470150000
  4.7911516044229998  4.7911516044229998 -2.4655273529850001
