Ti I 
 1.0000000000000000
     6.9592289999999997    0.0074760000000000    0.0796120000000000
     0.0492060000000000    7.1781170000000003    3.7125729999999999
     0.0069090000000000    0.0267700000000000    8.0814719999999998
 Ti  I  
   2   8
Cartesian
  5.2408225904369994  2.4825786604869999  6.6443044557210005
  1.7745214095630000  4.7297843395130004  5.2293525442790001
  6.4873278849869997  3.5857650006730002  4.1903828438909994
  4.0167970516649989  5.1801473157790001  6.7762698404249990
  0.5280161150129999  3.6265979993269997  7.6832741561089994
  2.9985469483349996  2.0322156842209997  5.0973871595749998
  4.2366959942340001  1.9222200695350000  8.9636707129469997
  6.2278657244189999  0.1545582575680000  6.0895059223019992
  2.7786480057660001  5.2901429304649996  2.9099862870529996
  0.7874782755810000  7.0578047424320003  5.7841510776979996
