Tb Zn
 1.0000000000000000
     3.5625659999999999    0.0000000000000000    0.0000000000000000
     0.0000000000000000    3.5625659999999999    0.0000000000000000
     0.0000000000000000    0.0000000000000000    3.5625659999999999
 Tb  Zn 
   1   1
Cartesian
  0.0000000000000000  0.0000000000000000  0.0000000000000000
  1.7812829999999999  1.7812829999999999  1.7812829999999999
