Pm Ge Pd
 1.0000000000000000
    -0.0000040000000000    3.6227630000000000    3.6227630000000000
     3.6227630000000000   -0.0000040000000000    3.6227630000000000
     3.6227630000000000    3.6227630000000000   -0.0000040000000000
 Pm  Ge  Pd 
   2   1   1
Cartesian
  0.0000000000000000  0.0000000000000000  0.0000000000000000
  3.6227537544780000  3.6227537544780004  3.6227537544780004
  1.8113877455219998  1.8113877455219998  1.8113877455219998
  5.4341487455220001  5.4341487455220001  5.4341487455220001
