Li Tm Hg
 1.0000000000000000
     0.0000000000000000    3.4842409999999999    3.4842409999999999
     3.4842409999999999    0.0000000000000000    3.4842409999999999
     3.4842409999999999    3.4842409999999999    0.0000000000000000
 Li  Tm  Hg 
   1   1   2
Cartesian
  1.7421205000000000  1.7421205000000000  1.7421205000000000
  5.2263614999999994  5.2263614999999994  5.2263614999999994
  0.0000000000000000  0.0000000000000000  0.0000000000000000
  3.4842479684820002  3.4842479684820002  3.4842479684820002
