Zr Nb P 
 1.0000000000000000
     3.5836150000000000    0.0000000000000000    0.0000000000000000
     0.0000000000000000    6.9051499999999999    0.0000000000000000
     0.0000000000000000    0.0000000000000000    8.3357139999999994
 Zr  Nb  P  
   4   4   4
Cartesian
  0.8959037500000000  0.2489168472000000  2.7598382054039998
  2.6877112500000000  3.2036581527999997  6.9276952054039995
  0.8959037500000000  3.7014918471999998  1.4080187945959999
  2.6877112500000000  6.6562331528000005  5.5758757945959996
  0.8959037500000000  4.4118936792000003  4.6640320401360000
  2.6877112500000000  2.4932563208000000  3.6716819598639994
  0.8959037500000000  0.9593186791999999  7.8395389598639991
  2.6877112500000000  5.9458313208000000  0.4961750401359999
  2.6877112500000000  1.6589968132499999  1.1862137807699997
  0.8959037500000000  1.7935712815999998  5.3540707807699999
  2.6877112500000000  5.1115787183999997  2.9816432192299995
  0.8959037500000000  5.2461462815999997  7.1495002192299992
