Zr Fe Si
 1.0000000000000000
     2.4897130000000001   -4.3122499999999997    0.0000000000000000
     2.4897130000000001    4.3122499999999997    0.0000000000000000
     0.0000000000000000    0.0000000000000000    8.1630660000000006
 Zr  Fe  Si 
   4   6   2
Cartesian
  2.4897130000000001 -1.4374367904999998  7.6460908671540002
  2.4897130000000001  1.4374195415000002  3.5645905194180001
  2.4897130000000001 -1.4374367904999998  4.5985081328460007
  2.4897130000000001  1.4374195415000002  0.5169424805820000
  2.4897130000000001  2.8512941979999997  6.1222995000000004
  3.7141762608170001  0.7304822132499998  6.1222995000000004
  2.4897130000000001 -2.8513459449999994  2.0407665000000001
  1.2652497391830000  0.7304822132499998  6.1222995000000004
  3.7142210756509999 -0.7304563397500001  2.0407665000000001
  1.2652049243490002 -0.7304563397500000  2.0407665000000001
  2.4897130000000001 -4.3122327509999998  4.0815656522640005
  2.4897130000000001 -4.3122327509999998  8.1630333477360004
