Er Bi Cl O 
 1.0000000000000000
     3.8418960000000002    0.0000000000000000    0.0000000000000000
     0.0000000000000000    3.8418960000000002    0.0000000000000000
     0.0000000000000000    0.0000000000000000    8.9397479999999998
 Er  Bi  Cl  O  
   1   2   1   4
Cartesian
  0.0000000000000000  0.0000000000000000  0.0000000000000000
  1.9209480000000001  1.9209480000000001  2.4777763146720000
  1.9209480000000001  1.9209480000000001  6.4619716853279998
  0.0000000000000000  0.0000000000000000  4.4698739999999999
  1.9209480000000001  0.0000000000000000  7.5849738893399996
  0.0000000000000000  1.9209480000000001  7.5849738893399996
  1.9209480000000001  0.0000000000000000  1.3547741106600002
  0.0000000000000000  1.9209480000000001  1.3547741106600002
