In Au
 1.0000000000000000
     4.0269510000000004    0.0000000000000000    2.3249620000000002
     1.3423170000000000    3.7966460000000000    2.3249620000000002
     0.0000000000000000    0.0000000000000000    4.6499210000000000
 In  Au 
   2   1
Cartesian
  4.0269510000000004  2.8474845000000002  6.9748837500000000
  1.3423170000000000  0.9491615000000000  2.3249612500000003
  0.0000000000000000  0.0000000000000000  0.0000000000000000
