Zr Ti Ga
 1.0000000000000000
    -3.2620320000000000    3.2620320000000000   -2.7215549999999999
     3.2620320000000000   -3.2620320000000000   -2.7215549999999999
    -3.2620320000000000   -3.2620320000000000    2.7215549999999999
 Zr  Ti  Ga 
   1   2   4
Cartesian
  0.0000000000000000  0.0000000000000000  0.0000000000000000
 -3.2620320000000005  0.0000000000000002 -1.3607775000000000
  0.0000000000000000 -3.2620320000000000 -1.3607775000000000
 -1.2741757954559998 -1.2741757954560002 -2.7215550000000004
 -1.9878562045440002 -1.9878562045440000 -0.0000000000000001
  1.2741757954560000 -1.2741757954560000 -2.7215549999999999
 -1.2741757954559998  1.2741757954559998 -2.7215549999999999
