Ga As Pd
 1.0000000000000000
     3.9601769999999998    0.0000000000000000    0.0000000000000000
     0.0000000000000000    3.9601769999999998    0.0000000000000000
     0.0000000000000000    0.0000000000000000    6.8950019999999999
 Ga  As  Pd 
   1   1   5
Cartesian
  1.9800884999999999  1.9800884999999999  0.0000000000000000
  0.0000000000000000  0.0000000000000000  3.4475009999999999
  0.0000000000000000  1.9800884999999999  1.9219128574800000
  0.0000000000000000  1.9800884999999999  4.9730891425200001
  1.9800884999999999  0.0000000000000000  1.9219128574800000
  1.9800884999999999  0.0000000000000000  4.9730891425200001
  0.0000000000000000  0.0000000000000000  0.0000000000000000
