Tm B  C 
 1.0000000000000000
     3.4783029999999999    0.0000000000000000    0.0000000000000000
     0.0000000000000000    5.3091249999999999    0.0000000000000000
     0.0000000000000000    0.0000000000000000    5.3091249999999999
 Tm  B   C  
   2   4   4
Cartesian
  0.0000000000000000  2.6545624999999999  2.6545624999999999
  0.0000000000000000  0.0000000000000000  0.0000000000000000
  1.7391515000000000  3.3757168761249998  0.7211543761250000
  1.7391515000000000  4.5879706238750000  3.3757168761249998
  1.7391515000000000  1.9334081238750001  4.5879706238750000
  1.7391515000000000  0.7211543761250000  1.9334081238750001
  1.7391515000000000  3.5192384522499998  4.4444490477500000
  1.7391515000000000  4.4444490477500000  1.7898865477499999
  1.7391515000000000  0.8646759522500000  3.5192384522499998
  1.7391515000000000  1.7898865477499999  0.8646759522500000
