Th Fe
 1.0000000000000000
     2.5437859999999999   -4.4059330000000001    0.0000000000000000
     2.5437930000000000    4.4059379999999999    0.0000000000000000
     0.0000000000000000   -0.0000000000000000    4.0760660000000000
 Th  Fe 
   1   5
Cartesian
  5.0875789999999999  0.0000049999999998  4.0760660000000000
  2.5437894999999999  0.0000024999999999  2.0380330000000000
  2.5437525098229998  1.4686461979840000  4.0760660000000000
  2.5438264901770000 -1.4686411979839999  4.0760660000000000
  1.2718990437860000  2.2029645940669997  2.0380330000000000
  3.8156834562069997  2.2029670940619996  2.0380330000000000
