Ti Re
 1.0000000000000000
     3.1080809999999999    0.0000000000000000    0.0000000000000000
     0.0000000000000000    3.1080809999999999    0.0000000000000000
     0.0000000000000000    0.0000000000000000    3.1080809999999999
 Ti  Re 
   1   1
Cartesian
  1.5540404999999999  1.5540404999999999  1.5540404999999999
  0.0000000000000000  0.0000000000000000  0.0000000000000000
