Ag Br
 1.0000000000000000
     5.8518030000000003    0.0000000000000000    0.0000000000000000
     0.0000000000000000    5.8518030000000003    0.0000000000000000
     0.0000000000000000    0.0000000000000000    5.8518030000000003
 Ag  Br 
   4   4
Cartesian
  0.0000000000000000  0.0000000000000000  0.0000000000000000
  0.0000000000000000  2.9259015000000002  2.9259015000000002
  2.9259015000000002  0.0000000000000000  2.9259015000000002
  2.9259015000000002  2.9259015000000002  0.0000000000000000
  0.0000000000000000  2.9259015000000002  0.0000000000000000
  0.0000000000000000  0.0000000000000000  2.9259015000000002
  2.9259015000000002  2.9259015000000002  2.9259015000000002
  2.9259015000000002  0.0000000000000000  0.0000000000000000
