Zr Sn Te
 1.0000000000000000
     4.0970789999999999    0.0000000000000000    0.0000000000000000
     0.0000000000000000    4.0970789999999999    0.0000000000000000
     0.0000000000000000    0.0000000000000000    8.7858370000000008
 Zr  Sn  Te 
   2   2   2
Cartesian
  1.0242697500000000  1.0242697500000000  2.3156391289050000
  3.0728092499999997  3.0728092499999997  6.4701978710950003
  3.0728092499999997  1.0242697500000000  0.0000000000000000
  1.0242697500000000  3.0728092499999997  0.0000000000000000
  1.0242697500000000  1.0242697500000000  5.4420616536810007
  3.0728092499999997  3.0728092499999997  3.3437753463190005
