Er Nb O 
 1.0000000000000000
     4.7487149999999998    0.0255670000000000   -1.8324440000000000
    -1.1744779999999999    4.7198229999999999   -1.9866239999999999
    -0.0312470000000000   -0.0056860000000000    6.4951449999999999
 Er  Nb  O  
   2   2   8
Cartesian
  1.0346383043580001  2.9707247233679999  2.9730481962569999
  2.5083457724490001  1.7689839708880000 -0.2969713504370000
  3.9293547303650000  0.5332198266850000  2.8757332031900003
 -0.3863730533169999  4.2064794023580001 -0.1996505516779999
  3.7688621081369997  3.7106747031210001  0.2925761118900000
  2.3712258970639994  1.3424119206050003  2.0499817404089997
 -0.2258673594220000  1.0290293224459999  2.3834990556659998
  1.1717724258879998  3.3972968503519998  0.6260896080789999
  0.5471676825789999  1.7858878739469999  4.8647816866650002
  3.2889839009279997  0.2350234926560000  4.6155823206259994
  2.9958187744310001  2.9538113863489999 -2.1887073627420000
  0.2539977448729999  4.5046757307009999 -1.9394931739690002
