Pt F 
 1.0000000000000000
     5.2477780000000003   -0.0212050000000000   -1.4495359999999999
    -2.9731760000000000    4.3243330000000002   -1.4495359999999999
     0.0092240000000000    0.0174510000000000    5.5685919999999998
 Pt  F  
   2   8
Cartesian
  3.2098847219960001  1.0979939105440000  1.3185309949440001
  0.0127332219960000  0.0240889105440000 -0.0162290050560000
  2.9507189609000006  3.1910560385380000 -1.5632743924319998
  0.5985067999339999  3.5234262210380001  2.6199913546080000
 -0.6392562975220000  1.3470892961200001  1.2981904583999999
  3.0051642838679999  3.1287637534270001  1.2667179780160001
 -0.5774757834060000  1.3255959248680003  4.0824864584000000
  1.8060745487980003  0.9986974702169999 -0.0680420219839999
  0.5144886052480003  3.5566742725800000 -0.1643046453919997
  1.8974361555860000  1.0062439869960000  2.6705576075680000
