Ge N 
 1.0000000000000000
     8.2233719999999995    0.0000000000000000    0.0000000000000000
    -4.1116840000000003    7.1216480000000004    0.0000000000000000
     0.0000000000000000    0.0000000000000000    5.9459739999999996
 Ge  N  
  12  16
Cartesian
  0.3366283512439996  1.8044048321120001  0.1410563412020000
  1.6702337821479993  4.0663613049279999  4.3221998522879996
  1.3943470681879999  1.1937306377600001  3.1140373952279998
 -1.4252285836960004  3.6420036655520005  4.3221998522879996
  5.7819194982039992  3.0552866950720001  1.3492128522880000
  6.4923934823599998  0.6106813160000001  3.1140373952279998
  2.3807173627319997  6.5109666840000004  0.1410563412020000
  3.8666831310879997  0.5867169704800000  1.3492128522880000
 -0.2450011984520004  6.5349310295200000  4.3221998522879996
  4.4483071143959991  5.3172431678880008  3.1140373952279998
  2.6864573707079997  3.4796443344480004  1.3492128522880000
 -2.7173293789200001  5.9279173622400005  0.1410563412020000
  1.4942791431399995  7.0990296459520010  4.5793097140219992
 -2.7834003594120005  4.8662292000480010  4.5793097140219992
  2.3305666129599989  4.6748990048800003  5.9414491137859997
 -1.2283941975520003  2.7658700420000004  5.9414491137859997
  1.3283013541279998  2.2554187999520003  1.6063227140219998
  6.4422602105919990  2.4467489951200001  2.9684621137859999
  5.6059796025879995  0.0226183540480000  1.6063227140219998
  0.0000000000000000  0.0000000000000000  0.1452779827420000
 -1.1021807504640002  6.8025340747680003  5.9414491137859997
  1.2891005461599998  2.2780513972960001  4.5793097140219992
  5.4008037133959990  4.8435966027040003  1.6063227140219998
  2.8833004723199993  4.3557779580000000  2.9684621137859999
  0.0000000000000000  0.0000000000000000  3.1182649827420001
  4.1116907783520000  2.3738802927839999  0.9840051832340000
  3.0095116521440000  0.3191139252320001  2.9684621137859999
 -0.0000027783520004  4.7477677072160001  3.9569921832340000
