Ag Te Au
 1.0000000000000000
    -5.2303790000000001    5.2303790000000001    5.2303790000000001
     5.2303790000000001   -5.2303790000000001    5.2303790000000001
     5.2303790000000001    5.2303790000000001   -5.2303790000000001
 Ag  Te  Au 
  12   8   4
Cartesian
  2.6151895000000001  1.1314983498280000  5.2303790000000001
  3.7466878498280001 -0.0000000000000001  2.6151895000000005
  1.4836911501719998  0.0000000000000000  7.8455685000000006
  0.0000000000000000  2.6151895000000001  3.7466878498280005
 -0.0000000000000002  7.8455685000000006  1.4836911501719998
  2.6151895000000001  3.7466878498280001  0.0000000000000001
  5.2303790000000001  2.6151895000000001  1.1314983498280002
  4.0988806501720001  5.2303790000000001 -2.6151895000000001
  5.2303790000000001 -2.6151895000000005  4.0988806501720001
  1.1314983498279996  5.2303790000000001  2.6151895000000001
 -2.6151895000000005  4.0988806501720001  5.2303790000000001
  7.8455685000000006  1.4836911501720000 -0.0000000000000001
  2.4031760872350003  7.6335550872350000 -2.4031760872350003
 -0.2120134127649997  0.2120134127649997  5.4423924127649999
  5.0183655872350004  5.0183655872350004  5.0183655872350004
  5.4423924127649999 -0.2120134127649997  0.2120134127649997
  0.2120134127649999  5.4423924127649999 -0.2120134127649999
 -2.4031760872350003  2.4031760872350003  7.6335550872350009
  7.6335550872350009 -2.4031760872350003  2.4031760872350003
  2.8272029127650002  2.8272029127649998  2.8272029127649998
  1.3075947500000000  1.3075947500000000  1.3075947500000000
  3.9227842500000003  1.3075947500000000 -1.3075947500000000
  1.3075947500000000 -1.3075947500000000  3.9227842500000003
 -1.3075947500000000  3.9227842500000003  1.3075947500000000
