Pa Sb
 1.0000000000000000
     4.5951180000000003   -0.0000010000000000   -0.0000010000000000
    -0.0000010000000000    4.5951399999999998   -0.0000010000000000
    -0.0000010000000000   -0.0000010000000000    4.5951230000000001
 Pa  Sb 
   3   1
Cartesian
 -0.0000009999980000  2.2975649048609998  2.2975564048780002
  2.2975539048830003  2.2975649048609998 -0.0000009999980000
  2.2975539048830003 -0.0000009999980000  2.2975564048780002
  0.0000000000000000  0.0000000000000000  0.0000000000000000
