Rb Te Cl
 1.0000000000000000
     6.2985530000000001    0.0000000000000000    3.6364719999999999
     2.0995180000000002    5.9383340000000002    3.6364719999999999
     0.0000000000000000    0.0000000000000000    7.2729439999999999
 Rb  Te  Cl 
   2   1   6
Cartesian
  2.0995177500000000  1.4845835000000001  3.6364719999999999
  6.2985532500000003  4.4537504999999999 10.9094160000000002
  0.0000000000000000  0.0000000000000000  0.0000000000000000
  3.1397533386200003  4.4672186415120008  9.1076750369920010
  3.1397533386200003  4.4672186415120008  5.4382129630080005
  5.2583176613800005  1.4711153584880001  9.1076750369920010
  5.2583176613800005  1.4711153584880001  5.4382129630080005
  6.3176000750280004  4.4672186415120008  7.2729440000000007
  2.0804709249719999  1.4711153584880001  7.2729440000000007
