Ca Mg C  O 
 1.0000000000000000
     5.4883790000000001   -2.4085200000000002   -0.0065150000000000
     5.4883790000000001    2.4085200000000002   -0.0065150000000000
     4.4362159999999999    0.0000000000000000    4.0302970000000000
 Ca  Mg  C   O  
   1   1   2   6
Cartesian
  0.0000000000000000  0.0000000000000000  0.0000000000000000
  7.7064870000000001  0.0000000000000000  2.0086335000000002
  3.7388792329200000  0.0000000000000000  0.9745086288600000
 11.6740947670799997 -0.0000000000000001  3.0427583711400001
  8.4898755851349996  0.5161193422800001  3.8657615398220000
  8.9822731388529995 -1.6432729829999999  1.9765900391900000
  9.2077400959600002  1.1271536407200000  1.1115456325220001
  6.9230984148650005 -0.5161193422799999  0.1515054601780000
  6.4307008611469998  1.6432729830000001  2.0406769608100004
  6.2052339040400000 -1.1271536407200002  2.9057213674779998
