Ca Hf N 
 1.0000000000000000
     5.8773869999999997    0.4193010000000000    0.2640090000000000
     4.7457859999999998    3.4924219999999999    0.2640090000000000
     4.7457859999999998    1.7475190000000000    3.0352749999999999
 Ca  Hf  N  
   1   1   2
Cartesian
  0.0000000000000000  0.0000000000000000  0.0000000000000000
  7.6844795000000001  2.8296209999999999  1.7816464999999999
 11.7236109837489995  4.3169320492620002  2.7181190966230000
  3.6453480162509999  1.3423099507380001  0.8451739033770000
