Dy Ni
 1.0000000000000000
     4.8262530000000003    0.0001190000000000    0.0000000000000000
    -2.4130240000000001    4.1798729999999997    0.0000000000000000
     0.0000000000000000    0.0000000000000000    3.9104489999999998
 Dy  Ni 
   1   5
Cartesian
  0.0000000000000000  0.0000000000000000  0.0000000000000000
 -1.2065120000000000  2.0899364999999999  1.9552244999999999
 -0.0000233733319999  2.7863012029139997  0.0000000000000000
  2.4132523733319999  1.3936907970859997  0.0000000000000000
  2.4131265000000002  0.0000595000000000  1.9552244999999999
  1.2066145000000001  2.0899959999999997  1.9552244999999999
