Ca Ge Pt
 1.0000000000000000
     4.4190680000000002    0.0000000000000000    0.0000000000000000
     0.0000000000000000    7.1916469999999997    0.0000000000000000
     0.0000000000000000    0.0000000000000000    7.4137849999999998
 Ca  Ge  Pt 
   4   4   4
Cartesian
  3.3143010000000004  0.0492124404210000  2.2563187406849998
  1.1047670000000001  7.1424345595789998  5.1574662593150000
  3.3143010000000004  3.6450359404210002  1.4505737593149999
  1.1047670000000001  3.5466110595789999  5.9632112406849993
  3.3143010000000004  4.8916360314009992  4.3204721741699998
  1.1047670000000001  2.3000109685990000  3.0933128258300000
  3.3143010000000004  1.2958125314010001  6.8002053258299995
  1.1047670000000001  5.8958344685990003  0.6135796741700000
  3.3143010000000004  5.7718936242009997  6.7230055826249995
  1.1047670000000001  1.4197533757990000  0.6907794173749999
  3.3143010000000004  2.1760701242009999  4.3976719173749999
  1.1047670000000001  5.0155768757989998  3.0161130826250000
