Hf Zn Ir
 1.0000000000000000
    -0.0000030000000000    3.1335220000000001    3.1335220000000001
     3.1335210000000000   -0.0000030000000000    3.1335220000000001
     3.1335220000000001    3.1335210000000000   -0.0000030000000000
 Hf  Zn  Ir 
   1   1   2
Cartesian
  1.5667599999999999  1.5667599999999999  1.5667602500000000
  4.7002800000000002  4.7002800000000002  4.7002807500000010
  6.2670399999999997  6.2670399999999997  6.2670409999999999
  3.1335105994379999  3.1335105994390005  3.1335142329620003
