Er Bi Pt
 1.0000000000000000
     4.0757370000000002    0.0000000000000000    2.3531270000000002
     1.3585790000000000    3.8426410000000000    2.3531270000000002
     0.0000000000000000    0.0000000000000000    4.7062549999999996
 Er  Bi  Pt 
   1   1   1
Cartesian
  2.7171580000000000  1.9213205000000000  4.7062545000000000
  0.0000000000000000  0.0000000000000000  0.0000000000000000
  1.3585790000000000  0.9606602500000000  2.3531272500000000
