Li Nd In
 1.0000000000000000
     0.0001420000000000    3.4922840000000002    3.4922840000000002
     3.4922840000000002    0.0001420000000000    3.4922830000000000
     3.4922830000000000    3.4922840000000002    0.0001420000000000
 Li  Nd  In 
   2   1   1
Cartesian
  6.9847090000000005  6.9847099999999998  6.9847090000000005
  3.4923545000000003  3.4923549999999999  3.4923545000000003
  5.2385387347090004  5.2385394847100004  5.2385387347090013
  1.7461842347090000  1.7461844847099999  1.7461842347090000
