Nd Si Os
 1.0000000000000000
     3.9230980000000000    0.0000000000000000   -1.5236829999999999
    -0.5917790000000001    3.8782070000000002   -1.5236829999999999
    -0.0253380000000000   -0.0294970000000000    5.7470960000000000
 Nd  Si  Os 
   1   2   2
Cartesian
  0.0000000000000000  0.0000000000000000  0.0000000000000000
  1.1993572024740000  1.3962508628120001  3.0880298358439999
  2.1066237975259998  2.4524591371880002 -0.3882998358439999
  2.7817097500000001  0.9548032500000000  1.3498650000000001
  0.5242712500000000  2.8939067500000002  1.3498650000000001
