Er Se
 1.0000000000000000
     3.4751200000000000   -0.0000000000000000    2.0063599999999999
     1.1583730000000001    3.2763740000000001    2.0063599999999999
    -0.0000000000000000   -0.0000000000000000    4.0127249999999997
 Er  Se 
   1   1
Cartesian
  0.0000000000000000  0.0000000000000000  0.0000000000000000
  2.3167464999999998  1.6381870000000001  4.0127224999999997
