Li Ge Ir
 1.0000000000000000
     0.0000000000000000    2.9465450000000000    2.9465450000000000
     2.9465450000000000    0.0000000000000000    2.9465450000000000
     2.9465450000000000    2.9465450000000000    0.0000000000000000
 Li  Ge  Ir 
   1   1   2
Cartesian
  4.4198116069099997  4.4198116069099997  4.4198116069099997
  1.4732783930899997  1.4732783930899997  1.4732783930899997
  2.9465450000000000  2.9465450000000000  2.9465450000000000
  0.0000000000000000  0.0000000000000000  0.0000000000000000
