Nd Ta O 
 1.0000000000000000
     5.2477270000000003    0.0036450000000000    0.0000000000000000
    -0.6361070000000000    5.4027560000000001    0.0000000000000000
     0.0000000000000000    0.0000000000000000    5.6051180000000000
 Nd  Ta  O  
   2   2   8
Cartesian
 -0.4770802500000000  4.0520670000000001  4.2840869744059997
 -0.1590267500000000  1.3506890000000000  1.3210310255940001
  2.4648367499999999  1.3525115000000001  3.8565229682480000
  2.1467832500000004  4.0538895000000004  1.7485950317520000
  3.8002325955860004  0.0570497921800000  3.1456875086059997
  1.1294409044140001  2.6479732078199998  3.1456875086059997
  0.8113874044140003  5.3493512078199998  2.4594304913939999
  3.4821790955860004  2.7584277921800000  2.4594304913939999
  0.9608487379750003  3.2940029218409999  0.5169151921960000
  3.3327177620250001  4.8137760781590000  0.5169151921960000
  3.6507712620250001  2.1123980781589999  5.0882028078039996
  1.2789022379750001  0.5926249218410000  5.0882028078039996
