Ca Cd
 1.0000000000000000
     6.0746200000000004    0.0000000000000000    0.0000000000000000
    -3.0373100000000002    5.2607749999999998    0.0000000000000000
     0.0000000000000000    0.0000000000000000    9.7184790000000003
 Ca  Cd 
   4   8
Cartesian
 -0.0000030373100003  3.5071850869249999  0.5827297193190000
  3.0373130373100006  1.7535899130749999  5.4419692193190006
  3.0373130373100006  1.7535899130749999  9.1357492806809990
 -0.0000030373100003  3.5071850869249999  4.2765097806810006
  0.0000000000000000  0.0000000000000000  0.0000000000000000
  0.0000000000000000  0.0000000000000000  4.8592395000000002
  1.5527336181999998  0.8964676246500000  2.4296197500000001
 -0.0000030373100000  1.7929405100749998  7.2888592499999998
 -1.4845824564200003  4.3643073753500001  7.2888592499999998
  4.5218924564200007  0.8964676246500000  2.4296197500000001
  3.0373130373100006  3.4678344899249995  2.4296197500000001
  1.4845763817999997  4.3643073753500001  7.2888592499999998
