Nb Si Ir
 1.0000000000000000
     3.8189259999999998    0.0000000000000000    0.0000000000000000
     0.0000000000000000    6.4681839999999999    0.0000000000000000
     0.0000000000000000    0.0000000000000000    7.3386380000000004
 Nb  Si  Ir 
   4   4   4
Cartesian
  2.8641945000000000  3.3906996710080000  1.2634566112700001
  0.9547315000000000  6.3115763289919995  4.9327756112700003
  2.8641945000000000  0.1566076710080000  2.4058623887300001
  0.9547315000000000  3.0774843289920000  6.0751813887299999
  0.9547315000000000  1.4914920803759999  0.9138145423980001
  0.9547315000000000  4.7255840803760005  2.7555044576020000
  2.8641945000000000  4.9766919196239998  6.4248234576020007
  2.8641945000000000  1.7425999196240001  4.5831335423980004
  0.9547315000000000  5.5260865322160004  0.4648660241100000
  0.9547315000000000  2.2919945322160000  3.2044529758900002
  2.8641945000000000  4.1761894677839999  4.1341850241099998
  2.8641945000000000  0.9420974677840001  6.8737719758900004
