Li U  S 
 1.0000000000000000
     5.8267160000000002    3.3618370000000000    0.0002880000000000
    -5.8267160000000002    3.3618370000000000    0.0002880000000000
     0.0000000000000000    2.2422849999999999    6.1044090000000004
 Li  U   S  
   4   2   6
Cartesian
  0.0000000000000000  0.0000000000000000  0.0000000000000000
  0.0000000000000000  4.4829794999999999  3.0524925000000001
  3.9008465208160006  4.4829794999999990  3.0524925000000001
 -3.9008465208160001  4.4829794999999999  3.0524925000000001
  1.9447946527519999  3.3618370000000000  0.0002880000000000
 -1.9447946527519999  3.3618370000000000  0.0002880000000000
  0.0000000000000001  2.3062978351429999  1.5439479267630001
  1.9877025893760003  3.3914120908909999  4.5929385222210000
 -1.9877025893760003  3.3914120908909999  4.5929385222210000
  0.0000000000000004  6.6596611648569999  4.5610370732370003
 -1.9877025893760003  5.5745469091090003  1.5120464777790001
  1.9877025893760003  5.5745469091089994  1.5120464777790001
