Ta Sb
 1.0000000000000000
     7.9143809999999997    0.0000000000000000   -6.6709220000000000
     0.0000000000000000    3.6935889999999998    0.0000000000000000
    -0.0014180000000000    0.0000000000000000    9.4633149999999997
 Ta  Sb 
   4   8
Cartesian
  0.2987097089940000  1.8467944999999999  6.2625505657079996
  7.6142532910060003  1.8467944999999999 -3.4701575657080004
  4.2559002089939995  0.0000000000000000  2.9270895657079996
  3.6570627910060001  0.0000000000000000 -0.1346965657080004
  0.8975308761680000  0.0000000000000000  8.3765582419589997
  7.0154321238320003  0.0000000000000000 -5.5841652419590000
  2.3161243910130001  1.8467944999999999  1.7143233607959998
  5.5968386089869995  1.8467944999999999  1.0780696392039997
  4.8547213761679986  1.8467944999999999  5.0410972419590001
  3.0582416238319996  1.8467944999999999 -2.2487042419590000
  6.2733148910130003  0.0000000000000000 -1.6211376392040004
  1.6396481089869999  0.0000000000000000  4.4135306392039997
