Al Pd Ru
 1.0000000000000000
     0.0000000000000000    3.0020910000000001    3.0020910000000001
     3.0020910000000001    0.0000000000000000    3.0020910000000001
     3.0020910000000001    3.0020910000000001    0.0000000000000000
 Al  Pd  Ru 
   2   1   1
Cartesian
  3.0020970041820001  3.0020970041820001  3.0020970041820001
  0.0000000000000000  0.0000000000000000  0.0000000000000000
  1.5010455000000000  1.5010455000000000  1.5010455000000000
  4.5031304958179996  4.5031304958179996  4.5031304958179996
