Hf Sn Ru
 1.0000000000000000
     0.0000000000000000    3.2011750000000001    3.2011750000000001
     3.2011750000000001    0.0000000000000000    3.2011750000000001
     3.2011750000000001    3.2011750000000001    0.0000000000000000
 Hf  Sn  Ru 
   1   1   2
Cartesian
  1.6005810976500001  1.6005810976500001  1.6005810976500001
  4.8017560976500002  4.8017560976500002  4.8017560976500002
  0.0000000000000000  0.0000000000000000  0.0000000000000000
  3.2011750000000001  3.2011750000000001  3.2011750000000001
