Mg Sn Rh
 1.0000000000000000
     0.0000000000000000    3.1450410000000000    3.1450410000000000
     3.1450410000000000    0.0000000000000000    3.1450410000000000
     3.1450410000000000    3.1450410000000000    0.0000000000000000
 Mg  Sn  Rh 
   1   1   2
Cartesian
  1.5725205000000000  1.5725205000000000  1.5725205000000000
  4.7175615000000004  4.7175615000000004  4.7175615000000004
  0.0000000000000000  0.0000000000000000  0.0000000000000000
  3.1450472900820001  3.1450472900820001  3.1450472900820001
