Tm Co C 
 1.0000000000000000
     3.6021290000000001    0.0000000000000000    0.0000000000000000
     0.0000000000000000    3.6022470000000002    0.0000000000000000
     0.0000000000000000    0.0000000000000000    6.6905619999999999
 Tm  Co  C  
   2   2   2
Cartesian
  0.0000000000000000  0.0000000000000000  5.0178345226939998
  0.0000000000000000  0.0000000000000000  1.6727274773059999
  1.8010645000000001  1.8011235000000001  0.0000000000000000
  1.8010645000000001  1.8011235000000001  3.3452809999999999
  1.8010645000000001  0.0000000000000000  3.3452809999999999
  0.0000000000000000  1.8011235000000001  0.0000000000000000
