Na P  O 
 1.0000000000000000
     5.3467190000000002    0.0000000000000000    0.0000000000000000
     0.0000000000000000    9.2768139999999999    0.0000000000000000
     0.0000000000000000    0.0000000000000000   13.4007000000000005
 Na  P   O  
  16   8  28
Cartesian
  1.3460685885640000  0.2622648085940000 10.2767690180999995
  4.0194280885640001  4.3761421914060001  3.1239309819000001
  4.0006504114360002  4.9006718085940006  9.8242809819000012
  1.3272909114360001  9.0145491914059992  3.5764190180999997
  1.4189336750960002  0.0714778518700000  6.8834437640999999
  4.0922931750959997  4.5669291481299998  6.5172562359000006
  3.9277799781850002  4.7098848518699992 13.2176062358999999
  1.2544204781849999  9.2053361481299998  0.1830937641000000
  3.7991806927970000  1.5463614024740000  1.0927466808000001
  1.1258211927970001  3.0920455975260004 12.3079533192000010
  1.5475383072030000  6.1847684024739999  5.6076033191999999
  4.2208978072030003  7.7304525975259999  7.7930966807999997
  1.3257724432400002  5.7538232849180000  1.2857301615000001
  3.9991319432400001  8.1613977150819998 12.1149698385000004
  4.0209465567600002  1.1154162849180000  5.4146198385000002
  1.3475870567599999  3.5229907150819999  7.9860801614999994
  3.9576681373950002  1.7910744789799999 11.4815455509000000
  1.2843086373950001  2.8473325210199998  1.9191544491000001
  1.3890508626050000  6.4294814789799997  8.6195044491000008
  4.0624103626050001  7.4857395210200002  4.7811955509000006
  4.1266565381090006  1.7214056058400000  8.5521525308999991
  1.4532970381090002  2.9170013941600001  4.8485474691000006
  1.2200624618910001  6.3598126058399993 11.5488974691000017
  3.8934219618910002  7.5554083941600005  1.8518025309000001
  4.4184697676910005  6.1602961671419996  1.5667696418999999
  1.7451102676910000  7.7549248328580003 11.8339303580999999
  0.9282492323089999  1.5218891671420001  5.1335803581000006
  3.6016087323089998  3.1165178328579999  8.2671196419000008
  2.3856578973290001  7.6186113279420002  1.9943591775000002
  5.0590173973289998  6.2966096720579996 11.4063408225000007
  2.9610611026710001  2.9802043279419999  4.7059908225000004
  0.2877016026710000  1.6582026720579999  8.6947091775000001
  4.4504805743440006  8.6086236412080002  0.9168490926000001
  1.7771210743440000  5.3065973587919997 12.4838509074000008
  0.8962384256560000  3.9702166412080002  5.7835009074000006
  3.5695979256560002  0.6681903587919999  7.6171990925999999
  3.7554338379390004  6.0068762172099994  4.7094482031000000
  1.0820743379390001  7.9083447827900004  8.6912517968999996
  1.5912851620610002  1.3684692172100001  1.9909017969000002
  4.2646446620610003  3.2699377827900000 11.4097982031000011
  2.8478282876890000  8.3145579142220001  5.1531051779999997
  0.1744687876890000  5.6006630857779998  8.2475948219999999
  2.4988907123109998  3.6761509142219997  1.5472448219999999
  5.1722502123110008  0.9622560857780000 11.8534551780000008
  5.2632781032859999  7.8294825869759999  5.6450716764000006
  2.5899186032860002  6.0857384130240000  7.7556283236000008
  0.0834408967140000  3.1910755869759999  1.0552783236000001
  2.7568003967140000  1.4473314130239998 12.3454216763999991
  3.4854459153150006  1.2844769432540000 10.0039843689000012
  0.8120864153150000  3.3539300567460000  3.3967156311000002
  1.8612730846850001  5.9228839432539990 10.0970656310999995
  4.5346325846850002  7.9923370567460008  3.3036343689000001
