Cs Ni Cl
 1.0000000000000000
     7.2087740000000000   -0.0000040000000000   -0.0000010000000000
    -3.6043900000000000    6.2429870000000003   -0.0000000000000000
    -0.0000010000000000   -0.0000010000000000    5.9401529999999996
 Cs  Ni  Cl 
   2   2   6
Cartesian
  3.6043893543880001  2.0809906690030000  1.4850375833329998
 -0.0000063543880000  4.1619913309970000  4.4551144166669996
 -0.0000005000000000 -0.0000005000000000  2.9700764999999998
  0.0000000000000000  0.0000000000000000  0.0000000000000000
  3.6043877667070001  4.3444468106020002  4.4551198422059999
 -1.9602162243069998  5.2937212394779998  1.4850321577940000
  1.9602034278529996  5.2937190641180001  1.4850316139539999
  1.6441795721470001  0.9492629358820001  4.4551203860459996
 -0.0000047667070000  1.8985351893980003  1.4850321577940000
  5.5645992243069999  0.9492607605220000  4.4551198422059999
