Sm Sb Te
 1.0000000000000000
     4.3100100000000001    0.0000000000000000    0.0000000000000000
     0.0000000000000000    4.3100100000000001    0.0000000000000000
     0.0000000000000000    0.0000000000000000    9.4961810000000000
 Sm  Sb  Te 
   2   2   2
Cartesian
  3.2325075000000001  3.2325075000000001  6.8869723237159999
  1.0775025000000000  1.0775025000000000  2.6092086762840001
  3.2325075000000001  1.0775025000000000  0.0000000000000000
  1.0775025000000000  3.2325075000000001  0.0000000000000000
  3.2325075000000001  3.2325075000000001  3.5645529734269998
  1.0775025000000000  1.0775025000000000  5.9316280265729997
