Lu Zr Ru
 1.0000000000000000
     0.0000000000000000    3.2785370000000000    3.2785370000000000
     3.2785370000000000    0.0000000000000000    3.2785370000000000
     3.2785370000000000    3.2785370000000000    0.0000000000000000
 Lu  Zr  Ru 
   1   1   2
Cartesian
  1.6392685000000000  1.6392685000000000  1.6392685000000000
  4.9178055000000001  4.9178055000000001  4.9178055000000001
  0.0000000000000000  0.0000000000000000  0.0000000000000000
  3.2785435570740002  3.2785435570740002  3.2785435570740002
