Ca As Br
 1.0000000000000000
     5.9324719999999997    0.0000000000000000    0.0000000000000000
     0.0000000000000000    5.9324719999999997    0.0000000000000000
     0.0000000000000000    0.0000000000000000    5.9324719999999997
 Ca  As  Br 
   3   1   3
Cartesian
  2.9662359999999999  0.0000000000000000  0.0000000000000000
  0.0000000000000000  2.9662359999999999  0.0000000000000000
  0.0000000000000000  0.0000000000000000  2.9662359999999999
  0.0000000000000000  0.0000000000000000  0.0000000000000000
  0.0000000000000000  2.9662359999999999  2.9662359999999999
  2.9662359999999999  0.0000000000000000  2.9662359999999999
  2.9662359999999999  2.9662359999999999  0.0000000000000000
