Re Ru
 1.0000000000000000
    -4.4087630000000004    1.3709400000000000    2.3964319999999999
     4.4087630000000004   -1.3709400000000000    2.3964319999999999
     4.4087630000000004    1.3709400000000000   -2.3964319999999999
 Re  Ru 
   3   1
Cartesian
  0.0000044087630006  1.3709358871800001  0.8235698032799998
 -2.1895856913720002  1.3709372581199999  2.3881595167359997
  2.1895768738460002  1.3709400000000000  2.3881547238719998
  0.0000000000000001 -0.0000000000000000  3.1873600030080000
