Er Ge
 1.0000000000000000
     4.0152900000000002    0.0000000000000000    0.0000000000000000
    -2.0076450000000001    5.2676449999999999    0.0000000000000000
     0.0000000000000000    0.0000000000000000   14.1108080000000005
 Er  Ge 
   6   8
Cartesian
 -0.0000020076450000  3.4897147272450000  8.4196510282480013
  2.0076470076450001  1.7779302727550002  5.6911569717520001
  2.0076470076450001  1.7779302727550002  1.3642470282480001
 -0.0000020076450000  3.4897147272450000 12.7465609717520003
  2.0076449999999997  4.7674821072500002  3.5277020000000001
  0.0000000000000000  0.5001628927500000 10.5831060000000008
 -0.0000040152899999  3.9936229155900000  5.5188781168800007
  2.0076490152899997  1.2740220844099999  8.5919298831200006
  2.0076490152899997  1.2740220844099999 12.5742821168799992
 -0.0000040152899999  3.9936229155900000  1.5365258831200002
  0.0000020076449999  2.3566126818750002  3.5277020000000001
  2.0076429923550001  2.9110323181250002 10.5831060000000008
  0.0000000000000000  0.0000000000000000  0.0000000000000000
  0.0000000000000000  0.0000000000000000  7.0554040000000002
