Mg Al Ag
 1.0000000000000000
     0.0000000000000000    3.2271830000000001    3.2271830000000001
     3.2271830000000001    0.0000000000000000    3.2271830000000001
     3.2271830000000001    3.2271830000000001    0.0000000000000000
 Mg  Al  Ag 
   1   1   2
Cartesian
  4.8407809543660001  4.8407809543660001  4.8407809543660001
  1.6135915000000001  1.6135915000000001  1.6135915000000001
  3.2271894543660005  3.2271894543660005  3.2271894543660005
  0.0000000000000000  0.0000000000000000  0.0000000000000000
