Eu Ag Sb
 1.0000000000000000
     4.7600119999999997    0.0000000000000000    0.0000000000000000
    -2.3800059999999998    4.1222930000000000    0.0000000000000000
     0.0000000000000000    0.0000000000000000    8.3011479999999995
 Eu  Ag  Sb 
   2   2   2
Cartesian
  0.0000000000000000  0.0000000000000000  0.0000000000000000
  0.0000000000000000  0.0000000000000000  4.1505739999999998
 -0.0000023800060000  2.7481967074310001  6.2258693011480002
  2.3800083800060001  1.3740962925689999  2.0752786988519998
 -0.0000023800060000  2.7481967074310001  2.0743655725719998
  2.3800083800060001  1.3740962925689999  6.2267824274279997
