La S 
 1.0000000000000000
     3.6027060000000000   -0.0000000000000000    2.0800230000000002
     1.2009019999999999    3.3966639999999999    2.0800230000000002
    -0.0000000000000000   -0.0000000000000000    4.1600479999999997
 La  S  
   1   1
Cartesian
  0.0000000000000000  0.0000000000000000  0.0000000000000000
  2.4018039999999998  1.6983320000000000  4.1600470000000005
