Hf Al Co
 1.0000000000000000
     6.0331809999999999    0.0000000000000000    0.0000000000000000
     0.0000000000000000    6.0331809999999999    0.0000000000000000
     0.0000000000000000    0.0000000000000000    6.0331809999999999
 Hf  Al  Co 
   4   4   8
Cartesian
  0.0000000000000000  0.0000000000000000  3.0165905000000000
  0.0000000000000000  3.0165905000000000  0.0000000000000000
  3.0165905000000000  0.0000000000000000  0.0000000000000000
  3.0165905000000000  3.0165905000000000  3.0165905000000000
  0.0000000000000000  0.0000000000000000  0.0000000000000000
  0.0000000000000000  3.0165905000000000  3.0165905000000000
  3.0165905000000000  0.0000000000000000  3.0165905000000000
  3.0165905000000000  3.0165905000000000  0.0000000000000000
  1.5082952500000000  4.5248857500000002  1.5082952500000000
  1.5082952500000000  4.5248857500000002  4.5248857500000002
  1.5082952500000000  1.5082952500000000  4.5248857500000002
  1.5082952500000000  1.5082952500000000  1.5082952500000000
  4.5248857500000002  4.5248857500000002  4.5248857500000002
  4.5248857500000002  4.5248857500000002  1.5082952500000000
  4.5248857500000002  1.5082952500000000  1.5082952500000000
  4.5248857500000002  1.5082952500000000  4.5248857500000002
