Ta Al Fe
 1.0000000000000000
     0.0000000000000000    2.9326819999999998    2.9326819999999998
     2.9326819999999998    0.0000000000000000    2.9326819999999998
     2.9326819999999998    2.9326819999999998    0.0000000000000000
 Ta  Al  Fe 
   1   1   2
Cartesian
  4.3990229999999997  4.3990229999999997  4.3990229999999997
  1.4663409999999999  1.4663409999999999  1.4663409999999999
  0.0000000000000000  0.0000000000000000  0.0000000000000000
  2.9326819999999998  2.9326819999999998  2.9326819999999998
