Sr As Pd
 1.0000000000000000
     4.2937909999999997    0.0000000000000000    0.0000000000000000
    -2.1468940000000001    3.7185310000000000    0.0000000000000000
     0.0000000000000000    0.0000000000000000    8.9263610000000000
 Sr  As  Pd 
   2   2   2
Cartesian
  0.0000000000000000  0.0000000000000000  4.4631805000000000
  0.0000000000000000  0.0000000000000000  0.0000000000000000
 -0.0000011468950003  2.4790219061770000  6.6947707500000000
  2.1468981468949995  1.2395090938230000  2.2315902500000000
 -0.0000011468950003  2.4790219061770000  2.2315902500000000
  2.1468981468949995  1.2395090938230000  6.6947707500000000
