Ca P  N 
 1.0000000000000000
     4.7116579999999999    0.0000000000000000    0.0000000000000000
     0.0000000000000000    4.7116579999999999    0.0000000000000000
     0.0000000000000000    0.0000000000000000    4.7116579999999999
 Ca  P   N  
   3   1   1
Cartesian
  2.3558290000000000  0.0000000000000000  2.3558290000000000
  2.3558290000000000  2.3558290000000000  0.0000000000000000
  0.0000000000000000  2.3558290000000000  2.3558290000000000
  0.0000000000000000  0.0000000000000000  0.0000000000000000
  2.3558290000000000  2.3558290000000000  2.3558290000000000
