Li La P 
 1.0000000000000000
     4.2275700000000001   -0.0000000000000000    0.0000000000000000
    -2.1137850000000000    3.6611829999999999    0.0000000000000000
     0.0000000000000000    0.0000000000000000    6.8833099999999998
 Li  La  P  
   3   1   2
Cartesian
  0.0000000000000000  0.0000000000000000  3.4416549999999999
  2.1137871137849999  1.2203931129390000  2.4925911005100003
 -0.0000021137850001  2.4407898870609999  4.3907188994899995
  0.0000000000000000  0.0000000000000000  0.0000000000000000
 -0.0000021137850001  2.4407898870609999  1.8082661869300001
  2.1137871137849999  1.2203931129390000  5.0750438130699997
