Sc Te
 1.0000000000000000
     4.1633540000000000    0.0000000000000000    0.0000000000000000
    -2.0816770000000000    3.6055720000000000    0.0000000000000000
     0.0000000000000000    0.0000000000000000    6.8828800000000001
 Sc  Te 
   2   2
Cartesian
  0.0000000000000000  0.0000000000000000  0.0000000000000000
  0.0000000000000000  0.0000000000000000  3.4414400000000001
 -0.0000020816770001  2.4037158685239999  1.7207200000000000
  2.0816790816770001  1.2018561314759999  5.1621600000000001
