Er Ta O 
 1.0000000000000000
     5.0790090000000001    0.0061650000000000    0.0000000000000000
    -0.5817230000000000    5.2354419999999999    0.0000000000000000
     0.0000000000000000    0.0000000000000000    5.4145320000000003
 Er  Ta  O  
   2   2   8
Cartesian
 -0.4362922500000000  3.9265815000000002  4.1500546839119998
 -0.1454307500000000  1.3088605000000000  1.2644773160880001
  2.3940737500000000  1.3119430000000001  3.7765602665520004
  2.1032122499999999  3.9296639999999998  1.6379717334480002
  3.7248697173820005  0.0418655276740000  3.0485114647680001
  1.0632777826180000  2.5820204723259996  3.0485114647680001
  0.7724162826180000  5.1997414723260000  2.3660205352319998
  3.4340082173820003  2.6595865276740001  2.3660205352319998
  0.9180593818759999  3.1193295704089996  0.4347002870880000
  3.2883651181239997  4.7399984295910000  0.4347002870880000
  3.5792266181239998  2.1222774295910001  4.9798317129120004
  1.2089208818760000  0.5016085704090000  4.9798317129120004
