Al V  Os
 1.0000000000000000
     0.0000010000000000    3.0016120000000002    3.0016240000000001
     3.0016129999999999   -0.0000050000000000    3.0016310000000002
     3.0016110000000000    3.0016180000000001   -0.0000030000000000
 Al  V   Os 
   1   1   2
Cartesian
  1.5008122532229997  1.5008062500010000  1.5008130000040001
  4.5023917354960004  4.5024217516130003  4.5024389999769996
  3.0016245064449998  3.0016094983900001  3.0016229983840002
  0.0000160080580000  3.0016089983850001  3.0016240000150001
