Li Tl
 1.0000000000000000
     4.0513839999999997   -0.0000000000000000    2.3390670000000000
     1.3504609999999999    3.8196810000000001    2.3390670000000000
     0.0000000000000000    0.0000000000000000    4.6781350000000002
 Li  Tl 
   3   1
Cartesian
  4.0513837500000003  2.8647607500000003  7.0172017499999999
  2.7009224999999999  1.9098405000000001  4.6781345000000005
  1.3504612499999999  0.9549202500000000  2.3390672500000003
  0.0000000000000000  0.0000000000000000  0.0000000000000000
