Ta Pd Se
 1.0000000000000000
     3.3470550000000001    0.0000000000000000    0.5957900000000000
     1.4921230000000001    6.4868990000000002    1.3169990000000000
    -0.0057010000000000   -0.0356960000000000    9.7315410000000000
 Ta  Pd  Se 
   2   1   6
Cartesian
  3.6627310861060001  6.0090243041750000  8.5218954001070006
  1.1707459138940000  0.4421786958250000  3.1224345998930003
  0.0000000000000000  0.0000000000000000  0.0000000000000000
  1.7576166490140002  4.5343153673100005  9.5250002392030009
  3.0758603509860003  1.9168876326900000  2.1193297607970001
  2.5305454453760001  1.3503232584880001  5.1827856282129998
  0.3529344568280000  1.3377772284580001  7.7167925018769994
  4.4805425431720005  5.1134257715420004  3.9275374981230002
  2.3029315546239997  5.1008797415120002  6.4615443717870003
