Sr Pd
 1.0000000000000000
     4.8201359999999998    0.0000000000000000    2.7829069999999998
     1.6067130000000001    4.5444690000000003    2.7829069999999998
     0.0000000000000000    0.0000000000000000    5.5658139999999996
 Sr  Pd 
   2   4
Cartesian
  0.8033561250000000  0.5680586250000000  1.3914534999999999
  5.6234928750000002  3.9764103750000004  9.7401744999999984
  0.8033565000000000  2.2722345000000002  4.1743604999999997
  2.4100679999999999  0.0000000000000000  4.1743604999999997
  3.2134244999999999  2.2722345000000002  2.7829069999999998
  3.2134244999999999  2.2722345000000002  5.5658139999999996
