Mg Si Ni
 1.0000000000000000
     4.1859950000000001   -0.0001100000000000    1.9999439999999999
     1.2609200000000000    3.9915699999999998    1.9999439999999999
    -0.0001520000000000   -0.0001100000000000    4.6392170000000004
 Mg  Si  Ni 
   2   1   3
Cartesian
  0.6825393182930001  0.5001600598500000  1.0825748866550000
  4.7642236817070005  3.4911899401499999  7.5565301133450005
  2.7233815000000003  1.9956750000000001  4.3195525000000004
  2.7234575000000003  1.9957300000000000  1.9999439999999999
  2.0929215000000001 -0.0001100000000000  3.3195805000000003
  0.6303840000000001  1.9957300000000000  3.3195805000000003
