Sr
 1.0000000000000000
     4.2703680000000004    0.0000000000000000    0.0000000000000000
    -2.1351840000000002    3.6982469999999998    0.0000000000000000
     0.0000000000000000    0.0000000000000000    7.0065130000000000
 Sr 
   2
Cartesian
  2.1351861351840005  1.2327477672509999  5.2548847500000004
 -0.0000021351840001  2.4654992327490000  1.7516282500000000
