Al Au
 1.0000000000000000
     7.0574469999999998    0.0000000000000000    0.0000000000000000
     0.0000000000000000    7.0574469999999998    0.0000000000000000
     0.0000000000000000    0.0000000000000000    7.0574469999999998
 Al  Au 
   4  16
Cartesian
  0.4489524334580000  0.4489524334580000  0.4489524334580000
  3.0797710665419999  6.6084945665420003  3.9776759334579994
  3.9776759334579994  3.0797710665419999  6.6084945665420003
  6.6084945665420003  3.9776759334579994  3.0797710665419999
  4.8173639200710001  4.8173639200710001  4.8173639200710001
  5.7688065799289996  2.2400830799289997  1.2886404200710000
  1.2886404200710000  5.7688065799289996  2.2400830799289997
  2.2400830799289997  1.2886404200710000  5.7688065799289996
  5.5404558247970002  6.6969949519220000  2.7261859143949998
  2.7261859143949998  5.5404558247970002  6.6969949519220000
  6.6969949519220000  2.7261859143949998  5.5404558247970002
  3.8891755480779997  4.3312610856050000  2.0117323247969998
  6.2549094143949997  5.0457146752029995  0.3604520480780000
  0.3604520480780000  6.2549094143949997  5.0457146752029995
  0.8025375856050000  1.5169911752029999  3.1682714519219997
  4.3312610856050000  2.0117323247969998  3.8891755480779997
  3.1682714519219997  0.8025375856050000  1.5169911752029999
  2.0117323247969998  3.8891755480779997  4.3312610856050000
  1.5169911752029999  3.1682714519219997  0.8025375856050000
  5.0457146752029995  0.3604520480780000  6.2549094143949997
