Re Pd
 1.0000000000000000
     5.5403349999999998   -0.0000030000000000    0.0000000000000000
    -2.7701690000000001    4.7980770000000001    0.0000000000000000
     0.0000000000000000    0.0000000000000000    4.4159670000000002
 Re  Pd 
   6   2
Cartesian
  4.2135851977579994  0.7659528950820000  3.3119796659670002
  1.3267520934970001  0.7659496601790000  3.3119796659670002
  2.7701664789260003  3.2661252620579999  3.3119796659670002
 -1.4434746010930000  4.0320731241930003  1.1039961659669999
  1.4434748502089998  4.0320571667310006  1.1039961659669999
  0.0000078315690000  1.5319727283150000  1.1039961659669999
  2.7701614596549993  1.5993889871730003  1.1039961659669999
 -0.0000037701769998  3.1987473878129999  3.3119796659670002
