Sc Cl
 1.0000000000000000
     5.7577369999999997    0.0398170000000000    4.1891220000000002
     2.1544279999999998    5.3396150000000002    4.1891299999999996
     0.0585600000000000    0.0398050000000000    7.1201710000000000
 Sc  Cl 
   2   6
Cartesian
  5.3139548258999998  3.6129186001080003 10.3325506393320001
  2.6567701741000000  1.8063183998920003  5.1658723606679997
  3.9027819043259999  1.5641250627120000 10.1078567724030002
  3.6433736126489999  4.9596993564960004  9.0539592643019997
  1.4295008592249998  2.3651561377779999  7.2684812107349996
  4.3273513873509994  0.4595376435040001  6.4444637356980001
  4.0679430956739999  3.8551119372880001  5.3905662275970005
  6.5412241407749994  3.0540808622219999  8.2299417892650002
