Al Co Ir
 1.0000000000000000
     0.0000010000000000    2.9280390000000001    2.9280400000000002
     2.9280400000000002    0.0000010000000000    2.9280390000000001
     2.9280400000000002    2.9280390000000001    0.0000010000000000
 Al  Co  Ir 
   2   1   1
Cartesian
  2.9280405000000003  2.9280395000000001  2.9280400000000002
  0.0000000000000000  0.0000000000000000  0.0000000000000000
  1.4640143939190002  1.4640138939209999  1.4640141439200001
  4.3920666060810003  4.3920651060790004  4.3920658560800003
