Ca Ga Cu
 1.0000000000000000
    -2.1406260000000001    2.6709540000000001    4.4833980000000002
     2.1406260000000001   -2.6709540000000001    4.4833980000000002
     2.1406260000000001    2.6709540000000001   -4.4833980000000002
 Ca  Ga  Cu 
   2   1   2
Cartesian
  2.1406260000000001  0.0000000000000000  2.7392844436319996
  0.0000000000000000  2.6709540000000001  1.7441135563680001
  0.0000000000000000  0.0000000000000000  0.0000000000000000
 -0.0000000000000000  1.3166414323919999  4.4833980000000002
  2.1406260000000001  1.3543125676080001 -0.0000000000000003
