Li Mo N 
 1.0000000000000000
     6.6218519999999996    0.0000000000000000    0.0000000000000000
     0.0000000000000000    6.6218519999999996    0.0000000000000000
     0.0000000000000000    0.0000000000000000    4.8709980000000002
 Li  Mo  N  
  12   2   8
Cartesian
  1.8964851690959998  1.8964851690959998  0.0000000000000000
  5.2074111690959999  1.4144408309039997  2.4354990000000001
  1.4144408309039997  5.2074111690959999  2.4354990000000001
  4.7253668309039991  4.7253668309039991  0.0000000000000000
  1.4144408309039997  1.4144408309039997  2.4354990000000001
  4.7253668309039991  1.8964851690959998  0.0000000000000000
  1.8964851690959998  4.7253668309039991  0.0000000000000000
  5.2074111690959999  5.2074111690959999  2.4354990000000001
  3.3109259999999998  0.0000000000000000  2.0487563717940001
  3.3109259999999998  0.0000000000000000  4.4842553717940001
  0.0000000000000000  3.3109259999999998  2.8222416282060006
  0.0000000000000000  3.3109259999999998  0.3867426282060000
  0.0000000000000000  0.0000000000000000  0.0000000000000000
  3.3109259999999998  3.3109259999999998  2.4354990000000001
  3.3109259999999998  1.7089212111959999  3.4029084287879998
  3.3109259999999998  4.9129307888040001  3.4029084287879998
  1.6020047888039999  0.0000000000000000  0.9674094287880001
  5.0198472111959997  0.0000000000000000  0.9674094287880001
  1.7089212111959999  3.3109259999999998  1.4680895712120001
  0.0000000000000000  1.6020047888039999  3.9035885712120004
  0.0000000000000000  5.0198472111959997  3.9035885712120004
  4.9129307888040001  3.3109259999999998  1.4680895712120001
