Er B  C 
 1.0000000000000000
    -3.2485360000000001    0.0000000000000000    0.0000000000000000
    -1.6242690000000000   -3.2809900000000001    3.7012570000000000
    -1.6242690000000000    3.2809900000000001    3.7012570000000000
 Er  B   C  
   2   4   1
Cartesian
 -1.6242684666139999  0.0000000000000000  1.7270583337979999
 -4.8728055333859999  0.0000000000000000  5.6754556662019997
 -3.2485369999999998  0.8796202950399998  3.7012570000000000
 -3.2485369999999998 -0.8796202950399998  3.7012569999999996
 -1.6242690000000000 -1.7895175658000000  3.7012570000000000
 -1.6242690000000000  1.7895175658000000  3.7012570000000000
  0.0000000000000000  0.0000000000000000  0.0000000000000000
