Ca Nd Zn
 1.0000000000000000
    -0.0026810000000000    3.6567930000000000    3.6567930000000000
     3.6567930000000000   -0.0026810000000000    3.6567930000000000
     3.6567930000000000    3.6567930000000000   -0.0026810000000000
 Ca  Nd  Zn 
   1   1   2
Cartesian
  1.8277262500000000  1.8277262500000000  1.8277262500000000
  5.4831787500000004  5.4831787499999995  5.4831787499999995
  7.3101373549749997  7.3101373549749997  7.3101373549749997
  3.6562128341199998  3.6562128341199998  3.6562128341200002
