Zr P 
 1.0000000000000000
     5.3708380000000000    0.0000000000000000    0.0000000000000000
     0.0000000000000000   10.8404650000000000   -0.0009770000000000
     0.0000000000000000    0.0009770000000000   10.8404650000000000
 Zr  P  
  24   8
Cartesian
  2.8399702342880002  1.2257855763259999  3.0069044555700004
  0.1545512342880000  7.8340490444300004  6.6450410763259997
  0.1545512342880000  8.4281139555699998  9.6141909236740002
  2.8399702342880002  4.1949354236740009  2.4128395444300001
  2.5308677657119998  9.6156564236740003  7.8325835444300003
  5.2162867657119998  3.0073929555700003  4.1944469236740005
  5.2162867657119998  2.4133280444300000  1.2252970763260000
  2.5308677657119998  6.6465065763259998  8.4266484555699996
  1.2624101010620001  0.7626720775239999  5.7956991995679994
  3.9478291010619997  5.0452543004320001  6.1819275775240001
  3.9478291010619997  0.3764436995680000 10.0782814224759996
  1.2624101010620001  4.6590259224760002 10.4645098004320012
  4.1084278989380003 10.0787699224759990  5.0437888004320000
  1.4230088989379999  5.7961876995679997  4.6575604224760001
  1.4230088989379999 10.4649983004319989  0.7612065775239999
  4.1084278989380003  6.1824160775240005  0.3749781995680000
  1.5450343382980001  7.2124851279480007  1.5469239282259999
  4.2304533382980001  9.2930525717740000  1.7912756279480000
  4.2304533382980001  6.9681334282259995  3.6274913720519999
  1.5450343382980001  9.0487008720519988  3.8718430717739998
  3.8258036617019999  3.6289568720520000  9.2925640717740006
  1.1403846617019999  1.5483894282260000  9.0482123720519994
  1.1403846617019999  3.8733085717739999  7.2119966279480003
  3.8258036617019999  1.7927411279480001  6.9676449282260000
  5.1714348975739997  5.8953298716379994  8.5744825351999996
  2.4860158975740001  2.2654939648000001  0.4741203716380000
  2.4860158975740001  3.1552270352000003  4.9456236283620001
  5.1714348975739997 10.3668331283619999  7.6847494647999994
  0.1994031024260000  4.9461121283620004  2.2650054648000002
  2.8848221024259999  8.5759480352000015 10.3653676283619998
  2.8848221024259999  7.6862149647999995  5.8938643716380001
  0.1994031024260000  0.4746088716380000  3.1547385352000004
