Al H  O 
 1.0000000000000000
     4.3859979999999998    0.0000000000000000    0.0000000000000000
     0.0000000000000000    9.3870699999999996    0.0000000000000000
     0.0000000000000000    0.0000000000000000    2.8380179999999999
 Al  H   O  
   4   4   8
Cartesian
  1.9762605228319998  3.3477201611699998  0.7095045000000000
  0.2167384771680000  8.0412551611699996  0.7095045000000000
  2.4097374771680000  6.0393498388299998  2.1285134999999999
  4.1692595228320002  1.3458148388300000  2.1285134999999999
  0.3920029572480000  5.5464723414100003  0.7095045000000000
  1.8009960427520000  0.8529373414100000  0.7095045000000000
  3.9939950427519997  3.8405976585899997  2.1285134999999999
  2.5850019572480001  8.5341326585899999  2.1285134999999999
  3.4870219199300001  6.5496497381699994  0.7095045000000000
  3.0919750800699997  1.8561147381699998  0.7095045000000000
  0.8989760800700000  2.8374202618300002  2.1285134999999999
  1.2940229199300000  7.5309552618300000  2.1285134999999999
  1.3341065556520000  5.2066510203399998  0.7095045000000000
  0.8588924443479999  0.5131160203400000  0.7095045000000000
  3.0518914443479996  4.1804189796599998  2.1285134999999999
  3.5271055556520001  8.8739539796599995  2.1285134999999999
