Ho Cu Ge
 1.0000000000000000
     2.1100270000000001   -3.6546720000000001    0.0000000000000000
     2.1100270000000001    3.6546720000000001    0.0000000000000000
     0.0000000000000000    0.0000000000000000    7.1525069999999999
 Ho  Cu  Ge 
   2   2   2
Cartesian
  0.0000000000000000  0.0000000000000000  5.3647092653220003
  0.0000000000000000  0.0000000000000000  1.7884557653219999
  2.1100270000000001 -1.2182264364480002  3.8380996287630000
  2.1100270000000001  1.2182264364480000  0.2618461287630000
  2.1100270000000001  1.2182264364480000  3.3906244858290000
  2.1100270000000001 -1.2182264364480002  6.9668779858290000
