Ta Ti Mn
 1.0000000000000000
     0.0000000000000000    3.0113590000000001    3.0113590000000001
     3.0113590000000001    0.0000000000000000    3.0113590000000001
     3.0113590000000001    3.0113590000000001    0.0000000000000000
 Ta  Ti  Mn 
   1   1   2
Cartesian
  1.5056734772820000  1.5056734772820000  1.5056734772820000
  4.5170385000000000  4.5170385000000000  4.5170385000000000
  0.0000000000000000  0.0000000000000000  0.0000000000000000
  3.0113590000000001  3.0113590000000001  3.0113590000000001
