Li Zn N 
 1.0000000000000000
     2.9790670000000001    0.0000000000000000    1.7199660000000001
     0.9930230000000000    2.8086899999999999    1.7199660000000001
     0.0000000000000000    0.0000000000000000    3.4399280000000001
 Li  Zn  N  
   1   1   1
Cartesian
  0.9930225000000000  0.7021725000000000  1.7199650000000002
  2.9790675000000002  2.1065174999999998  5.1598950000000006
  0.0000000000000000  0.0000000000000000  0.0000000000000000
