Ta
 1.0000000000000000
    10.2521070000000005    0.0000000000000000    0.0000000000000000
     0.0000000000000000   10.2521070000000005    0.0000000000000000
     0.0000000000000000    0.0000000000000000    5.3430340000000003
 Ta 
  30
Cartesian
  5.4815248060109996  3.8057359000050002  1.3351066498520001
  2.4507559262430001  9.5620786862580012  4.0134520473040007
  1.8614135553480002  6.9838788178979998  5.3384015895220003
  3.8057359000050002  4.7705821939890001  4.0079273501479999
  6.4463710999950008  5.4815248060109996  4.0079273501479999
  6.2028733066379997  1.0769120756010000  1.3401130727100001
  6.9838788178979998  8.3906934446520012  0.0046324104780000
  3.2644861630470001  1.8583584274620002  2.6689950879520001
  7.8013510737570009  0.6900283137420001  4.0134520473040007
  5.8159075279230006  2.6758101791070001  4.0072541278639999
  1.0769120756010000  4.0492336933619999  4.0029209272899999
  0.0000000000000000  5.1260535000000003  1.3319596028260001
  9.8967792234870000  8.9318406605400007  4.0001425496100005
  9.5620786862580012  7.8013510737570009  1.3295819526960002
  4.7705821939890001  6.4463710999950008  1.3351066498520001
  9.1751949243990012  6.2028733066379997  4.0029209272899999
  1.8583584274620002  6.9876208369530008  2.6740389120480001
  8.3937485725379997  3.2644861630470001  2.6740389120480001
  5.1260535000000003  0.0000000000000000  4.0110743971740002
  6.9876208369530008  8.3937485725379997  2.6689950879520001
  8.3906934446520012  3.2682281821020003  5.3384015895220003
  0.6900283137420001  2.4507559262430001  1.3295819526960002
  3.2682281821020003  1.8614135553480002  0.0046324104780000
  7.5762968208929999  5.8159075279230006  1.3357798721360001
  1.3202663394600000  9.8967792234870000  1.3428914503900000
  4.4361994720769999  7.5762968208929999  4.0072541278639999
  8.9318406605400007  0.3553277765130000  1.3428914503900000
  0.3553277765130000  1.3202663394600000  4.0001425496100005
  2.6758101791070001  4.4361994720769999  1.3357798721360001
  4.0492336933619999  9.1751949243990012  1.3401130727100001
