Fe Rh
 1.0000000000000000
     3.0170580000000000    0.0000000000000000    0.0000000000000000
     0.0000000000000000    3.0170580000000000    0.0000000000000000
     0.0000000000000000    0.0000000000000000    3.0170580000000000
 Fe  Rh 
   1   1
Cartesian
  0.0000000000000000  0.0000000000000000  0.0000000000000000
  1.5085290000000000  1.5085290000000000  1.5085290000000000
