Ti Si
 1.0000000000000000
     4.8092340000000000    0.0000000000000000    0.0000000000000000
     0.0000000000000000    8.5595479999999995    0.0000000000000000
     0.0000000000000000    0.0000000000000000    8.2666579999999996
 Ti  Si 
   8  16
Cartesian
  0.6011542500000000  1.0699434999999999  1.0333322500000000
  1.8034627500000000  7.4896044999999996  3.0999967499999999
  0.6011542500000000  5.3497174999999997  5.1666612499999998
  1.8034627500000000  3.2098304999999998  7.2333257499999997
  3.0057712500000000  1.0699434999999999  5.1666612499999998
  4.2080797499999996  7.4896044999999996  7.2333257499999997
  3.0057712500000000  5.3497174999999997  1.0333322500000000
  4.2080797499999996  3.2098304999999998  3.0999967499999999
  0.6011542500000000  1.0699434999999999  6.5169619676939998
  0.6011542500000000  1.0699434999999999  3.8163605323059997
  1.8034627500000000  7.4896044999999996  0.3169684676940000
  1.8034627500000000  7.4896044999999996  5.8830250323059996
  0.6011542500000000  5.3497174999999997  2.3836329676940000
  0.6011542500000000  5.3497174999999997  7.9496895323059995
  1.8034627500000000  3.2098304999999998  4.4502974676939999
  1.8034627500000000  3.2098304999999998  1.7496960323060000
  3.0057712500000000  1.0699434999999999  2.3836329676940000
  3.0057712500000000  1.0699434999999999  7.9496895323059995
  4.2080797499999996  7.4896044999999996  4.4502974676939999
  4.2080797499999996  7.4896044999999996  1.7496960323060000
  3.0057712500000000  5.3497174999999997  6.5169619676939998
  3.0057712500000000  5.3497174999999997  3.8163605323059997
  4.2080797499999996  3.2098304999999998  0.3169684676940000
  4.2080797499999996  3.2098304999999998  5.8830250323059996
