Li Pd
 1.0000000000000000
     2.8077489999999998    0.0000000000000000    0.0000000000000000
    -1.4038750000000000    2.4315829999999998    0.0000000000000000
     0.0000000000000000    0.0000000000000000    4.1677369999999998
 Li  Pd 
   1   1
Cartesian
  0.0000000000000000  0.0000000000000000  0.0000000000000000
 -0.0000017372080001  1.6210561438609998  2.0838684999999999
