Ti Zn Cu
 1.0000000000000000
     0.0000000000000000    2.9674809999999998    2.9674809999999998
     2.9674809999999998    0.0000000000000000    2.9674809999999998
     2.9674809999999998    2.9674809999999998    0.0000000000000000
 Ti  Zn  Cu 
   1   1   2
Cartesian
  1.4837464349619998  1.4837464349619998  1.4837464349619998
  4.4512214999999999  4.4512214999999999  4.4512214999999999
  2.9674809999999998  2.9674809999999998  2.9674809999999998
  0.0000000000000000  0.0000000000000000  0.0000000000000000
