Li Sc Os
 1.0000000000000000
     0.0000000000000000    3.2594820000000002    3.2594820000000002
     3.2594820000000002    0.0000000000000000    3.2594820000000002
     3.2594820000000002    3.2594820000000002    0.0000000000000000
 Li  Sc  Os 
   1   2   1
Cartesian
  1.6297410000000001  1.6297410000000001  1.6297410000000001
  0.0000000000000000  0.0000000000000000  0.0000000000000000
  3.2594754810360005  3.2594754810360005  3.2594754810360005
  4.8892164810359997  4.8892164810359997  4.8892164810359997
