Ca Al N 
 1.0000000000000000
     5.6276430000000000    0.0004750000000000    0.0013020000000000
    -0.7021280000000000    6.8865390000000000   -0.0022330000000000
    -2.0753320000000000   -2.8285969999999998    7.5142179999999996
 Ca  Al  N  
   6   6  10
Cartesian
  3.0068385693850002  1.2014484602440001  4.5563861304709992
 -0.1566555693849999  2.8569685397560001  2.9569008695290000
  1.3167203888440000  3.4400667800360001  6.6361769289019996
  1.5334626111560001  0.6183502199640001  0.8771100710979999
  2.8628767549689997  3.8526547612170003  1.5102307769749999
 -0.0126937549690002  0.2057622387830003  6.0030562230250002
  2.8677896454900011 -0.5756584123549997  7.2864287102609993
 -0.0176066454900000  4.6340754123550001  0.2268582897390000
  2.1166056086840004  4.9535201882999997  4.2921650390169992
  0.7335773913160000 -0.8951031882999999  3.2211219609829995
 -1.3847321547499998  4.0346961801890000  5.3355600673819996
  4.2349151547499995  0.0237208198110001  2.1777269326180000
  3.7222466067290001 -1.5056153220479997  5.9025922845939993
 -0.8720636067289999  5.5640323220479999  1.6106947154059998
  3.1371480256690001  3.4308916378529997  3.8887266756199996
 -0.2869650256690000  0.6275253621470002  3.6245603243800000
  2.0653874049900005  1.0545620730150005  6.7501883727599994
  0.7847955950100001  3.0038549269849999  0.7630986272399999
  0.2440419669940001  4.7201114352690006  4.6135899799939999
  2.6061410330060002 -0.6616944352690000  2.8996970200059997
 -0.9755164517699999  2.8270758906530009  6.6821537195279994
  3.8256994517700007  1.2313411093469999  0.8311332804720000
