Ta Zn
 1.0000000000000000
     5.0004270000000002    0.0000120000000000    0.0000050000000000
    -2.5002019999999998    4.3304919999999996   -0.0000060000000000
     0.0000220000000000   -0.0000130000000000   16.1894880000000008
 Ta  Zn 
   8  16
Cartesian
 -2.5001924913649995  4.3304864829709988  1.4776571382350001
  5.0002724988249998  0.0000779286030000  9.5760385833090016
  5.0003219791030000  0.0000521536160000 14.7100975863930010
 -2.5001280048809997  4.3304347220809998  6.6153911551310003
 -0.0001062856829997  2.8870237872269997 13.6572069009850008
  2.5003073982040007  1.4434387969749998  5.5618189884260003
  2.5003682845570001  1.4433892651450000  2.5306611502930001
 -0.0002404118330000  2.8870955066110002 10.6288660334710006
 -0.0000483093200000  1.3924553915680000  4.0457519257280001
  2.4996927587939997  2.9381611910769996 12.1441721897440011
  1.2944731852200007  3.6338982799389998  4.0457675980420005
 -1.2939028422960002  3.6342471692159997  4.0457488201120002
  3.7943898643040006  0.6965729488309998 12.1442076750140018
  1.2057813148480001  0.6961120343849999 12.1442374659700008
  0.0000184956730005  4.3303983916679991 16.1874122455910019
 -0.0000300022069995  4.3304871680239998  8.0964242067030003
 -1.2500164973539998  2.1652633152739997 16.1874451245500026
  1.2500594908710005  2.1652736454679999 16.1874152454330016
  1.2500884994130002  2.1652801425349999  8.0964433961770013
  3.7503220009840006  2.1652428376159998  8.0964297067440008
  0.0001304645390004  2.8869075226229999  2.0515457757069999
  2.5000361106310005  1.4435780179839999 10.1506160352170003
  2.5000565269280002  1.4435921402569998 14.1354156640979998
  0.0001308857690002  2.8868956578949998  6.0412831984290003
