Rb Au O 
 1.0000000000000000
     5.4532800000000003   -0.0001700000000000   -1.6274320000000000
    -1.3027470000000001    8.1569570000000002   -4.3800160000000004
    -0.0189680000000000   -0.0350010000000000    9.9180659999999996
 Rb  Au  O  
   7   5   2
Cartesian
 -0.6513735000000000  4.0784785000000001 -2.1900080000000002
  1.6794525116400001  6.4032333465840008  5.6470141426239984
  2.4521124883600001  1.7185526534160001 -1.7363961426240002
  0.4004556340459999  3.1581744694060001  1.3420972998799996
  3.7311093659540009  4.9636115305940001  2.5685207001199997
  4.4571663996950006  0.4194718813340000  5.0098747297620001
 -0.3256013996950001  7.7023141186660009 -1.0992567297620006
  0.0000000000000000  0.0000000000000000  0.0000000000000000
  1.4270068588830001  2.8052390549260000  4.8044160473739996
  2.7045581411169999  5.3165469450740011 -0.8937980473740009
  3.5223520125990002  1.5634217275470002  1.8552524622519997
  0.6092129874010003  6.5583642724529998  2.0553655377480005
  5.1727055556070001  1.7560117129480000 -2.5695743628300001
 -1.0411405556069999  6.3657742870520000  6.4801923628299996
