Ba Ga Si H 
 1.0000000000000000
     2.1385740000000002   -3.7041189999999999    0.0000000000000000
     2.1385740000000002    3.7041189999999999    0.0000000000000000
     0.0000000000000000    0.0000000000000000    5.2846989999999998
 Ba  Ga  Si  H  
   1   1   1   1
Cartesian
  0.0000000000000000  0.0000000000000000  0.0049940405550000
  2.1385740000000002 -1.2347088027460003  2.8681276953769999
  2.1385740000000002  1.2347088027460003  2.4237743493599999
  2.1385740000000002 -1.2347088027460003  4.6050391463090001
