Ba Co As
 1.0000000000000000
     3.8350740000000001    0.0000000000000000   -1.1435450000000000
    -0.3409820000000000    3.8198850000000002   -1.1435450000000000
    -0.0572000000000000   -0.0625330000000000    6.8107340000000001
 Ba  Co  As 
   1   2   2
Cartesian
  0.0000000000000000  0.0000000000000000  0.0000000000000000
  0.6744320000000000  2.8336472500000003  2.2618220000000000
  2.7624599999999999  0.9237047500000001  2.2618220000000000
  2.2779347787440005  2.4903320581580006  0.6368817649959998
  1.1589572212560002  1.2670199418420001  3.8867622350039999
