Zn F 
 1.0000000000000000
     3.1328900000000002    0.0000000000000000    0.0000000000000000
     0.0000000000000000    4.7029439999999996    0.0000000000000000
     0.0000000000000000    0.0000000000000000    4.7029439999999996
 Zn  F  
   2   4
Cartesian
  1.5664450000000001  2.3514719999999998  2.3514719999999998
  0.0000000000000000  0.0000000000000000  0.0000000000000000
  0.0000000000000000  3.2773029617279996  3.2773029617279996
  1.5664450000000001  3.7771130382719997  0.9258309617279999
  0.0000000000000000  1.4256410382719999  1.4256410382719999
  1.5664450000000001  0.9258309617279999  3.7771130382719997
