Ti Pd
 1.0000000000000000
     3.1232210000000000    0.0000000000000000    0.0000000000000000
     0.0000000000000000    3.1232210000000000    0.0000000000000000
     0.0000000000000000    0.0000000000000000    9.9754140000000007
 Ti  Pd 
   4   2
Cartesian
  1.5616105000000000  1.5616105000000000  8.3336902901220000
  1.5616105000000000  1.5616105000000000  1.6417237098780002
  0.0000000000000000  0.0000000000000000  3.3459832901220006
  0.0000000000000000  0.0000000000000000  6.6294307098780001
  0.0000000000000000  0.0000000000000000  0.0000000000000000
  1.5616105000000000  1.5616105000000000  4.9877070000000003
