Nb Ru
 1.0000000000000000
     0.0000000000000000    3.2318539999999998    3.2318539999999998
     3.2318539999999998    0.0000000000000000    3.2318539999999998
     3.2318539999999998    3.2318539999999998    0.0000000000000000
 Nb  Ru 
   3   1
Cartesian
  0.0000000000000000  0.0000000000000000  0.0000000000000000
  3.2318539999999998  3.2318539999999998  3.2318539999999998
  1.6159334637079996  1.6159334637079996  1.6159334637079996
  4.8477745362919995  4.8477745362919995  4.8477745362919995
