Ce Al Ni
 1.0000000000000000
     5.2503750000000000    0.0000000000000000    0.0000000000000000
    -2.6251880000000001    4.5469590000000002    0.0000000000000000
     0.0000000000000000    0.0000000000000000    4.0162730000000000
 Ce  Al  Ni 
   1   3   2
Cartesian
  0.0000000000000000  0.0000000000000000  0.0000000000000000
  2.6251875000000000  0.0000000000000000  2.0081365000000000
  1.3125935000000000  2.2734795000000001  2.0081365000000000
 -1.3125940000000000  2.2734795000000001  2.0081365000000000
  2.6251899585209997  1.5156514843469999  0.0000000000000000
 -0.0000029585210002  3.0313075156530003  0.0000000000000000
