Cd As Pt
 1.0000000000000000
     3.9888990000000000    0.0000000000000000    0.0000000000000000
     0.0000000000000000    3.9888990000000000    0.0000000000000000
     0.0000000000000000    0.0000000000000000    7.2314030000000002
 Cd  As  Pt 
   1   1   5
Cartesian
  1.9944495000000000  1.9944495000000000  0.0000000000000000
  0.0000000000000000  0.0000000000000000  3.6157015000000001
  0.0000000000000000  1.9944495000000000  2.0731926202789999
  0.0000000000000000  1.9944495000000000  5.1582103797209999
  1.9944495000000000  0.0000000000000000  2.0731926202789999
  1.9944495000000000  0.0000000000000000  5.1582103797209999
  0.0000000000000000  0.0000000000000000  0.0000000000000000
