Pa Zn Ru
 1.0000000000000000
     0.0000000000000000    3.2239979999999999    3.2239979999999999
     3.2239979999999999    0.0000000000000000    3.2239979999999999
     3.2239979999999999    3.2239979999999999    0.0000000000000000
 Pa  Zn  Ru 
   1   1   2
Cartesian
  1.6119990000000000  1.6119990000000000  1.6119990000000000
  4.8359905520039996  4.8359905520039996  4.8359905520039996
  0.0000000000000000  0.0000000000000000  0.0000000000000000
  3.2239979999999999  3.2239979999999999  3.2239979999999999
