Si As
 1.0000000000000000
     5.3707580000000004    0.0000000000000000    0.0000000000000000
     0.0000000000000000    5.3707580000000004    0.0000000000000000
     0.0000000000000000    0.0000000000000000    5.3702399999999999
 Si  As 
   3   4
Cartesian
  0.0000000000000000  0.0000000000000000  0.0000000000000000
  0.0000000000000000  2.6853790000000002  2.6851200000000000
  2.6853790000000002  0.0000000000000000  2.6851200000000000
  3.8744379674100005  3.8744379674100005  4.1814675628800000
  1.4963200325900001  1.4963200325900001  4.1814675628800000
  3.8744379674100005  1.4963200325900001  1.1887724371199999
  1.4963200325900001  3.8744379674100005  1.1887724371199999
