Li Os N 
 1.0000000000000000
     4.9718299999999997    0.0000000000000000    0.0000000000000000
     0.0000000000000000    6.6303270000000003    0.0000000000000000
     0.0000000000000000    0.0000000000000000    6.7248609999999998
 Li  Os  N  
  10   2   8
Cartesian
  3.7602099444899997  1.5885335246220000  2.0194824831609997
  3.7602099444899997  1.5885335246220000  4.7053785168389997
  3.7602099444899997  5.0417934753780003  2.0194824831609997
  3.7602099444899997  5.0417934753780003  4.7053785168389997
  1.2116200555099998  1.7266299753779999  1.3429480168389998
  1.2116200555099998  1.7266299753779999  5.3819129831610004
  1.2116200555099998  4.9036970246219997  1.3429480168389998
  1.2116200555099998  4.9036970246219997  5.3819129831610004
  1.5444442993699998  3.3151635000000002  3.3624304999999999
  3.4273857006299999  0.0000000000000000  0.0000000000000000
  1.3839834579499999  0.0000000000000000  3.3624304999999999
  3.5878465420499999  3.3151635000000002  0.0000000000000000
  0.3624911534700000  5.0946172905870002  3.3624304999999999
  0.3624911534700000  1.5357097094130001  3.3624304999999999
  4.6093388465300000  4.8508732094130007  0.0000000000000000
  4.6093388465300000  1.7794537905870000  0.0000000000000000
  2.5729170531700003  3.3151635000000002  1.5453797826610001
  2.5729170531700003  3.3151635000000002  5.1794812173389992
  2.3989129468299999  0.0000000000000000  1.8170507173390000
  2.3989129468299999  0.0000000000000000  4.9078102826609999
