La I 
 1.0000000000000000
     3.8194880000000002    0.0000000000000000   -1.0322060000000000
    -0.2789510000000000    3.8092880000000000   -1.0322070000000001
     0.0480190000000000    0.0516650000000000    7.7604420000000003
 La  I  
   1   2
Cartesian
  0.0000000000000000  0.0000000000000000  0.0000000000000000
  2.2477980729750002  2.4184216074339999  0.7348030764230001
  1.3407579270249999  1.4425313925659999  4.9612259235770004
