Hf S 
 1.0000000000000000
     3.3742740000000002    0.0000000000000000    0.0000000000000000
    -1.6871370000000001    2.9222070000000002    0.0000000000000000
     0.0000000000000000    0.0000000000000000   11.7174069999999997
 Hf  S  
   4   2
Cartesian
  1.6871386871370004  0.9740680259310001 10.5434634274839993
 -0.0000016871370000  1.9481389740690003  4.6847599274839995
  1.6871386871370004  0.9740680259310001  7.0326470725160002
 -0.0000016871370000  1.9481389740690003  1.1739435725159999
  0.0000000000000000  0.0000000000000000  8.7880552499999993
  0.0000000000000000  0.0000000000000000  2.9293517499999999
