Sc Ag Hg
 1.0000000000000000
     0.0000000000000000    3.4604219999999999    3.4604219999999999
     3.4604219999999999    0.0000000000000000    3.4604219999999999
     3.4604219999999999    3.4604219999999999    0.0000000000000000
 Sc  Ag  Hg 
   2   1   1
Cartesian
  0.0000000000000000  0.0000000000000000  0.0000000000000000
  3.4604219999999999  3.4604219999999999  3.4604219999999999
  1.7302179208439998  1.7302179208439998  1.7302179208439998
  5.1906330000000001  5.1906330000000001  5.1906330000000001
