Fe Te
 1.0000000000000000
     3.8744559999999999    0.0000000000000000    0.0000000000000000
     0.0000000000000000    5.2440480000000003    0.0000000000000000
     0.0000000000000000    0.0000000000000000    6.2427690000000000
 Fe  Te 
   2   4
Cartesian
  0.0566910401920000  0.0000000000000000  0.0000000000000000
  1.9939190401919999  2.6220240000000001  3.1213845000000000
  0.0561176207040000  1.1764235080800001  2.2648453793550001
  0.0561176207040000  4.0676244919200002  3.9779236206449999
  1.9933456207040001  1.4456004919200001  5.3862298793549996
  1.9933456207040001  3.7984475080799998  0.8565391206449999
