Ga Hg Se
 1.0000000000000000
     5.2606599999999997    0.0000160000000000   -2.4484940000000002
    -1.1396230000000001    5.1357450000000000   -2.4484800000000000
    -0.0300830000000000   -0.0375080000000000    6.8109560000000000
 Ga  Hg  Se 
   2   1   4
Cartesian
  2.0605184999999997  2.5678804999999998 -2.4484870000000001
  0.4454062499999999  3.8330587500000002  0.9569945000000000
  0.0000000000000000  0.0000000000000000  0.0000000000000000
  3.5378902450129992  4.4874239046959996 -2.3684288909699993
  1.7106069192610001  2.0534022620879999 -0.1061397007979999
 -0.0363280926240000  2.9834249718249999  3.1805509857560001
  2.9697389283499995  0.6722548613909999  3.1219816060119996
