La Co
 1.0000000000000000
     6.7771489999999996   -0.0012950000000000    0.0000000000000000
    -0.0013290000000000    7.0373739999999998    0.0000000000000000
     0.0000000000000000    0.0000000000000000   10.0378980000000002
 La  Co 
  12   4
Cartesian
  5.6096712835969997  4.5490617163579996  0.6949537922340000
  4.5551134006939993  1.0303230062789999  0.6947128826820000
  1.1661487164030000  2.4870172836419999  9.3429442077660010
  2.2207065993060002  6.0057559937210003  5.7136618826819996
  5.8838656577919997  6.4990515126749999  7.5284235000000006
  0.8919543422080000  0.5370274873249999  2.5094745000000001
  1.1661487164030000  2.4870172836419999  5.7139027922340002
  4.5551134006939993  1.0303230062789999  4.3242361173179997
  2.2207065993060002  6.0057559937210003  9.3431851173180007
  5.6096712835969997  4.5490617163579996  4.3239952077660000
  2.4964236093990002  4.0558722397340006  2.5094745000000001
  4.2793963906009997  2.9802067602659998  7.5284235000000006
  3.7338179452549993  6.1257285433569999  2.5094745000000001
  3.0420020547449997  0.9103504566430000  7.5284235000000006
  0.3454146821630000  4.4301296671309993  7.5284235000000006
  6.4304053178369998  2.6059493328690002  2.5094745000000001
