Li Tl In Cl
 1.0000000000000000
     0.0000000000000000    5.1205850000000002    5.1205850000000002
     5.1205850000000002    0.0000000000000000    5.1205850000000002
     5.1205850000000002    5.1205850000000002    0.0000000000000000
 Li  Tl  In  Cl 
   1   2   1   6
Cartesian
  5.1205850000000002  5.1205850000000002  5.1205850000000002
  2.5602925000000001  2.5602925000000001  2.5602925000000001
  7.6808775000000002  7.6808775000000002  7.6808775000000002
  0.0000000000000000  0.0000000000000000  0.0000000000000000
  7.6999055938600005  5.1205850000000002  5.1205850000000002
  5.1205850000000002  2.5412644061400003  5.1205850000000002
  5.1205850000000002  7.6999055938600005  5.1205850000000002
  5.1205850000000002  5.1205850000000002  7.6999055938600005
  5.1205850000000002  5.1205850000000002  2.5412644061400003
  2.5412644061400003  5.1205850000000002  5.1205850000000002
