Cd Te
 1.0000000000000000
     6.6273949999999999    0.0000000000000000    0.0000000000000000
     0.0000000000000000    6.6273949999999999    0.0000000000000000
     0.0000000000000000    0.0000000000000000    6.6273949999999999
 Cd  Te 
   4   4
Cartesian
  0.0000000000000000  0.0000000000000000  0.0000000000000000
  0.0000000000000000  3.3136975000000000  3.3136975000000000
  3.3136975000000000  0.0000000000000000  3.3136975000000000
  3.3136975000000000  3.3136975000000000  0.0000000000000000
  4.9705462499999999  1.6568487500000000  1.6568487500000000
  4.9705462499999999  4.9705462499999999  4.9705462499999999
  1.6568487500000000  1.6568487500000000  4.9705462499999999
  1.6568487500000000  4.9705462499999999  1.6568487500000000
