Li Ca N 
 1.0000000000000000
     3.6479689999999998    0.0000000000000000    0.0000000000000000
     0.0000000000000000    5.5250110000000001    0.0000000000000000
     0.0000000000000000    0.0000000000000000    8.4781610000000001
 Li  Ca  N  
   4   4   4
Cartesian
  0.9119922499999999  3.1752569717660002  0.3993044267780000
  2.7359767499999998  2.3497540282339999  8.0788565732219997
  2.7359767499999998  0.4127514717660000  3.8397760732220001
  0.9119922499999999  5.1122595282339995  4.6383849267779995
  0.9119922499999999  2.6190927894730001  5.5618686137030000
  2.7359767499999998  5.3815982894729997  7.1553728862970001
  0.9119922499999999  0.1434127105270000  1.3227881137030000
  2.7359767499999998  2.9059182105270001  2.9162923862969996
  2.7359767499999998  4.0811875004250000  0.7820170924790000
  2.7359767499999998  4.2063289995750006  5.0210975924789993
  0.9119922499999999  1.4438234995749999  7.6961439075210007
  0.9119922499999999  1.3186820004249999  3.4570634075209998
