Sr U  O 
 1.0000000000000000
     3.7864330000000002    0.0348770000000000    5.3997909999999996
     1.7300450000000001    3.3682680000000000    5.3997909999999996
     0.0565340000000000    0.0348770000000000    6.5948180000000001
 Sr  U   O  
   1   1   4
Cartesian
  2.7865060000000001  1.7190109999999998  8.6971999999999987
  0.0000000000000000  0.0000000000000000  0.0000000000000000
  2.0033974997840001  1.2359070246040003  6.2529737008000001
  0.5917145491000001  0.3650319858500000  1.8468504200000000
  3.5696145002160002  2.2021149753960003 11.1414262991999991
  4.9812974509000005  3.0729900141499997 15.5475495799999983
