Ta W 
 1.0000000000000000
     0.0000000000000000    3.1988989999999999    3.1988989999999999
     3.1988989999999999    0.0000000000000000    3.1988989999999999
     3.1988989999999999    3.1988989999999999    0.0000000000000000
 Ta  W  
   1   3
Cartesian
  4.7983484999999995  4.7983484999999995  4.7983484999999995
  0.0000000000000000  0.0000000000000000  0.0000000000000000
  3.1988989999999999  3.1988989999999999  3.1988989999999999
  1.5994495000000000  1.5994495000000000  1.5994495000000000
