Ca Sn N 
 1.0000000000000000
     6.1236560000000004    0.0000000000000000    0.0000000000000000
     0.0000000000000000    7.7189370000000004    0.0000000000000000
     0.0000000000000000    0.0000000000000000    5.6189239999999998
 Ca  Sn  N  
   4   4   8
Cartesian
  3.5698465017600003  6.7719314952180003  5.4922004070279993
  2.5538094982400001  0.9470055047820001  2.6827384070279998
  5.6156374982399999  2.9124629952180001  2.6827384070279998
  0.5080185017600001  4.8064740047820003  5.4922004070279993
  3.4868893339280000  2.8775270863560003  5.5864353814320005
  2.6367666660720004  4.8414099136440001  2.7769733814319997
  5.6985946660720010  6.7369955863560005  2.7769733814319997
  0.4250613339280001  0.9819414136440000  5.5864353814320005
  3.3560880417680004  3.0647576222280004  2.0318647265640002
  2.7675679582320001  4.6541793777720004  4.8413267265639996
  5.8293959582320003  6.9242261222280002  4.8413267265639996
  0.2942600417680000  0.7947108777720001  2.0318647265640002
  3.6762082828240001  6.5810499021450006  2.2909757878999999
  2.4474477171760003  1.1378870978550000  5.1004377878999998
  5.5092757171760001  2.7215814021450000  5.1004377878999998
  0.6143802828240000  4.9973555978549999  2.2909757878999999
