Dy Ag Sn
 1.0000000000000000
     4.6947799999999997    0.0000000000000000    0.0000000000000000
    -2.3473890000000002    4.0658000000000003    0.0000000000000000
     0.0000000000000000    0.0000000000000000    7.4114060000000004
 Dy  Ag  Sn 
   2   2   2
Cartesian
  0.0000000000000000  0.0000000000000000  5.3665027363220004
  0.0000000000000000  0.0000000000000000  1.6607997363220002
  2.3473926807229999  1.3552653114000002  4.0017960811059998
 -0.0000016807230003  2.7105346886000001  0.2960930811060000
 -0.0000016807230003  2.7105346886000001  3.2903752191660001
  2.3473926807229999  1.3552653114000002  6.9960782191660007
