Cu Sn
 1.0000000000000000
     4.1977700000000002    0.0000000000000000    0.0000000000000000
    -2.0988850000000001    3.6353749999999998    0.0000000000000000
     0.0000000000000000    0.0000000000000000    5.0800830000000001
 Cu  Sn 
   2   2
Cartesian
  0.0000000000000000  0.0000000000000000  0.0000000000000000
  0.0000000000000000  0.0000000000000000  2.5400415000000001
 -0.0000020988850000  2.4235845451249998  3.8100622500000001
  2.0988870988850001  1.2117904548749998  1.2700207500000000
