Si F 
 1.0000000000000000
     4.3132120000000000    0.0000000000000000   -1.5249500000000000
    -2.1566049999999999    3.7353499999999999   -1.5249500000000000
     0.0000000000000000    0.0000000000000000    4.5748509999999998
 Si  F  
   1   4
Cartesian
  0.0000000000000000  0.0000000000000000  0.0000000000000000
  0.0000000000000000  0.0000000000000000  3.0079691073509998
  0.7386357408930001  1.2793536396500000  0.5222941925490000
  2.8359412032120002  0.0000000000000000 -1.0026561499500000
 -1.4179699441050000  2.4559963603499999 -1.0026561499500000
