Mn B 
 1.0000000000000000
     0.0000000000000000    0.0000000000000000    2.9374180000000001
     4.5928430000000002   -0.0000030000000000    0.0000000000000000
    -0.0000050000000000    5.3317360000000003    0.0000000000000000
 Mn  B  
   2   8
Cartesian
  2.2964190000000002  2.6658664999999999  1.4687090000000000
  0.0000000000000000  0.0000000000000000  0.0000000000000000
  3.0535105764660000  4.6379045363219999  1.4687090000000000
  1.5393274235340000  0.6938284636780000  1.4687090000000000
  0.7570948679889999  3.3596969746230001  0.0000000000000000
  3.8357431320110007  1.9720360253770000  0.0000000000000000
  3.3818747211380003  0.9832872075840000  1.4687090000000000
  1.2109632788620002  4.3484457924160003  1.4687090000000000
  1.0854617510490001  1.6825725426580000  0.0000000000000000
  3.5073762489510001  3.6491604573420000  0.0000000000000000
