Al Zn S 
 1.0000000000000000
     6.1290079999999998    0.0000000000000000    3.5385849999999999
     2.0430030000000001    5.7784829999999996    3.5385849999999999
     0.0000000000000000    0.0000000000000000    7.0771689999999996
 Al  Zn  S  
   4   2   8
Cartesian
  3.0645039999999999  0.0000000000000000  5.3078769999999995
  1.0215015000000001  2.8892414999999998  5.3078769999999995
  4.0860054999999997  2.8892414999999998  7.0771695000000001
  4.0860054999999997  2.8892414999999998  3.5385849999999999
  1.0215013749999999  0.7223103749999999  1.7692923750000000
  7.1505096249999998  5.0561726249999994 12.3850466249999993
  2.1196153531249999  1.4987940281250001  6.9444652634560002
  6.0523956468749995  4.2796889718749993 10.4830573218750001
  2.1196153531249999  1.4987940281250001  3.6712816781250002
  6.0523956468749995  4.2796889718749993  7.2098737365440000
  3.2177355758829997  4.2796889718749993  8.8464652979600000
  5.1075088023779998  1.6071463628579998  8.8464652979600000
  4.9542754241169993  1.4987940281250001  5.3078737020400002
  3.0645021976220002  4.1713366371419998  5.3078737020400002
