Zr Al
 1.0000000000000000
     5.2756340000000002    0.0000010000000000    0.0000000000000000
    -2.6378159999999999    4.5688310000000003    0.0000000000000000
     0.0000000000000000    0.0000000000000000    8.7386610000000005
 Zr  Al 
   4   8
Cartesian
 -0.0000019711499999  3.0458891896100004  3.8005572714930000
  2.6378199711500003  1.5229428103900000  8.1698790328320001
  2.6378199711500003  1.5229428103900000  4.9381124671680006
 -0.0000019711499999  3.0458891896100004  0.5687819671680000
  0.0000003413200000  1.5594335675800002  6.5539957500000003
  3.9251246230000003  0.7797175278000000  2.1846652500000001
  1.3505097183200001  0.7797170397800001  2.1846652500000001
  1.2873082816800006  3.7891149602200001  6.5539957500000003
  0.0000000000000000  0.0000000000000000  0.0000000000000000
  0.0000000000000000  0.0000000000000000  4.3693305000000002
  2.6378176586800004  3.0093984324200003  2.1846652500000001
 -1.2873066229999999  3.7891144722000001  6.5539957500000003
