Sc In Cu
 1.0000000000000000
     0.0000000000000000    3.5060120000000001    3.5060120000000001
     3.5060120000000001    0.0000000000000000    3.5060120000000001
     3.5060120000000001    3.5060120000000001    0.0000000000000000
 Sc  In  Cu 
   1   1   4
Cartesian
  0.0000000000000000  0.0000000000000000  0.0000000000000000
  1.7530060000000001  1.7530060000000001  1.7530060000000001
  4.3835878396719998  4.3835878396719998  4.3835878396719998
  4.3835878396719998  2.6284291483039999  2.6284291483039999
  2.6284291483039999  4.3835878396719998  2.6284291483039999
  2.6284291483039999  2.6284291483039999  4.3835878396719998
