Mg Cu
 1.0000000000000000
     5.1207479999999999    0.0033480000000000   -0.7214440000000000
    -2.6695389999999999    4.3698540000000001   -0.7214440000000000
     0.0046480000000000    0.0082930000000000    9.4638629999999999
 Mg  Cu 
   8   4
Cartesian
  0.4591241944050002  3.1022683284279999  3.1094189624779998
  0.0468370555950000  2.3667066715720004  0.1796245375219999
  1.9967328055949998  1.2792266715720000  4.9115560375219998
  2.4090199444049998  2.0147883284280002  7.8413504624780002
 -0.3985107920489999  3.1051017490619999  6.3764532500000000
  4.8042635420489992  0.1889132509380000  6.3764532500000000
  2.8543677920489996  1.2763932509380003  1.6445217500000000
 -2.3484065420490001  4.1925817490619997  1.6445217500000000
 -0.6608409932210001  1.1041384698340002  4.5815380694440000
  1.1714502432210001  4.3731295301660005  8.1713684305560008
  3.1166979932210004  3.2773565301659997  3.4394369305560004
  1.2844067567790001  0.0083654698340000 -0.1503934305560000
