Fe Pd
 1.0000000000000000
     3.9001169999999998    0.0000000000000000    0.0000000000000000
     0.0000000000000000    3.9001169999999998    0.0000000000000000
     0.0000000000000000    0.0000000000000000    3.9001169999999998
 Fe  Pd 
   1   3
Cartesian
  0.0000000000000000  0.0000000000000000  0.0000000000000000
  0.0000000000000000  1.9500584999999999  1.9500584999999999
  1.9500584999999999  1.9500584999999999  0.0000000000000000
  1.9500584999999999  0.0000000000000000  1.9500584999999999
