Al Pd
 1.0000000000000000
     5.9473120000000002    0.0000000000000000    0.0000000000000000
     0.0000000000000000    5.9473120000000002    0.0000000000000000
     0.0000000000000000    0.0000000000000000    5.9473120000000002
 Al  Pd 
   8   4
Cartesian
  4.4604840000000001  1.4868280000000000  1.4868280000000000
  1.4868280000000000  4.4604840000000001  4.4604840000000001
  4.4604840000000001  4.4604840000000001  4.4604840000000001
  1.4868280000000000  1.4868280000000000  1.4868280000000000
  1.4868280000000000  1.4868280000000000  4.4604840000000001
  4.4604840000000001  4.4604840000000001  1.4868280000000000
  1.4868280000000000  4.4604840000000001  1.4868280000000000
  4.4604840000000001  1.4868280000000000  4.4604840000000001
  0.0000000000000000  0.0000000000000000  0.0000000000000000
  0.0000000000000000  2.9736560000000001  2.9736560000000001
  2.9736560000000001  0.0000000000000000  2.9736560000000001
  2.9736560000000001  2.9736560000000001  0.0000000000000000
