La B  Rh C 
 1.0000000000000000
    -1.9522370000000000    1.9522370000000000    5.1798780000000004
     1.9522370000000000   -1.9522370000000000    5.1798780000000004
     1.9522370000000000    1.9522370000000000   -5.1798780000000004
 La  B   Rh  C  
   1   2   2   1
Cartesian
  0.0000000000000000  0.0000000000000000  0.0000000000000000
  0.0000000000000000 -0.0000000000000000  3.6780138129240001
 -0.0000000000000001  0.0000000000000001  6.6817421870759999
  1.9522370000000000  0.0000000000000000  2.5899390000000002
  0.0000000000000001  1.9522369999999998  2.5899390000000002
  0.0000000000000000  0.0000000000000000  5.1798780000000004
