Nb Sb
 1.0000000000000000
     5.3112510000000004    0.0000000000000000    0.0000000000000000
     0.0000000000000000    5.3112510000000004    0.0000000000000000
     0.0000000000000000    0.0000000000000000    5.3112510000000004
 Nb  Sb 
   6   2
Cartesian
  1.3278127500000001  0.0000000000000000  2.6556255000000002
  3.9834382500000003  0.0000000000000000  2.6556255000000002
  0.0000000000000000  2.6556255000000002  1.3278127500000001
  0.0000000000000000  2.6556255000000002  3.9834382500000003
  2.6556255000000002  3.9834382500000003  0.0000000000000000
  2.6556255000000002  1.3278127500000001  0.0000000000000000
  0.0000000000000000  0.0000000000000000  0.0000000000000000
  2.6556255000000002  2.6556255000000002  2.6556255000000002
