Hf Pt
 1.0000000000000000
    -3.3697089999999998    0.0000000000000000    0.0000000000000000
     0.0000000000000000    0.0000000000000000   -4.2631370000000004
    -1.6848559999999999   -5.1601460000000001    0.0000000000000000
 Hf  Pt 
   2   2
Cartesian
 -1.6848555730819998 -3.6915065266480003 -3.1973527500000003
 -3.3697094269179995 -1.4686394733519998 -1.0657842500000001
 -1.6848564642040000 -0.9609894700180001 -3.1973527500000003
 -3.3697085357959997 -4.1991565299820000 -1.0657842500000001
