Re C 
 1.0000000000000000
     2.8557850000000000    0.0000140000000000   -0.0000010000000000
    -1.4278800000000000    2.4731649999999998    0.0000010000000000
    -0.0000010000000000   -0.0000010000000000    9.8628599999999995
 Re  C  
   4   2
Cartesian
  0.0000734084299999  1.6488582180280000  6.0000712143259989
  1.4277252108489999  0.8243250110970000  1.0686504105720001
  1.4277249275250001  0.8243197814540000  3.8627887857109999
  0.0000802646039999  1.6488604079340001  8.7942293151839994
 -0.0002917748760000  1.6486260964169999  2.4657251962669995
  1.4280886829270003  0.8245494298869999  7.3971249409100004
