Tb Co C 
 1.0000000000000000
     3.5906250000000002    0.0000000000000000    0.0000000000000000
     0.0000000000000000    3.5807650000000000   -1.0582910000000001
     0.0000000000000000    0.0082680000000000    3.7338710000000002
 Tb  Co  C  
   1   1   2
Cartesian
  0.0000000000000000  0.0222793332340000  3.7150761406360004
  1.7953125000000001  2.2208654369739995  0.7658838025960001
  1.7953125000000001  0.5668784259920000  1.8326546501530001
  1.7953125000000001  1.6708111412969999  2.6556229244530001
