Cu Pt
 1.0000000000000000
     7.8816959999999998    0.0000000000000000    0.0000000000000000
     0.0000000000000000    7.8816959999999998    0.0000000000000000
     0.0000000000000000    0.0000000000000000    7.8816959999999998
 Cu  Pt 
   4  28
Cartesian
  3.9408479999999999  3.9408479999999999  3.9408479999999999
  3.9408479999999999  0.0000000000000000  0.0000000000000000
  0.0000000000000000  3.9408479999999999  0.0000000000000000
  0.0000000000000000  0.0000000000000000  3.9408479999999999
  0.0000000000000000  0.0000000000000000  0.0000000000000000
  5.9112720000000003  0.0000000000000000  1.9704240000000000
  0.0000000000000000  1.9704240000000000  1.9704240000000000
  3.9408479999999999  1.9704240000000000  1.9704240000000000
  5.9112720000000003  3.9408479999999999  1.9704240000000000
  5.9112720000000003  1.9704240000000000  0.0000000000000000
  5.9112720000000003  1.9704240000000000  3.9408479999999999
  0.0000000000000000  3.9408479999999999  3.9408479999999999
  5.9112720000000003  3.9408479999999999  5.9112720000000003
  0.0000000000000000  5.9112720000000003  5.9112720000000003
  3.9408479999999999  5.9112720000000003  5.9112720000000003
  5.9112720000000003  0.0000000000000000  5.9112720000000003
  5.9112720000000003  5.9112720000000003  3.9408479999999999
  5.9112720000000003  5.9112720000000003  0.0000000000000000
  3.9408479999999999  0.0000000000000000  3.9408479999999999
  1.9704240000000000  0.0000000000000000  5.9112720000000003
  3.9408479999999999  1.9704240000000000  5.9112720000000003
  0.0000000000000000  1.9704240000000000  5.9112720000000003
  1.9704240000000000  3.9408479999999999  5.9112720000000003
  1.9704240000000000  1.9704240000000000  3.9408479999999999
  1.9704240000000000  1.9704240000000000  0.0000000000000000
  3.9408479999999999  3.9408479999999999  0.0000000000000000
  1.9704240000000000  3.9408479999999999  1.9704240000000000
  3.9408479999999999  5.9112720000000003  1.9704240000000000
  0.0000000000000000  5.9112720000000003  1.9704240000000000
  1.9704240000000000  0.0000000000000000  1.9704240000000000
  1.9704240000000000  5.9112720000000003  0.0000000000000000
  1.9704240000000000  5.9112720000000003  3.9408479999999999
