Sr Mn N 
 1.0000000000000000
     7.6707029999999996   -0.0000160000000000    0.0000000000000000
    -3.8353350000000002    6.6430319999999998    0.0000000000000000
     0.0000000000000000    0.0000000000000000    5.2610070000000002
 Sr  Mn  N  
   6   2   6
Cartesian
  2.1108896896889995  4.8084289449759998  3.9457552500000004
  4.5619808598299993  4.2322411457040001  1.3152517500000001
  5.2196041589909994  0.5761053690479999  1.3152517500000001
 -1.3842936893460001  6.0668774159519998  3.9457552500000004
 -0.7265514943050002  2.4107349960240003  3.9457552500000004
  1.7244859811789996  1.8346534852479999  1.3152517500000001
  0.0000148353569998  4.4286848809999997  1.3152517500000001
  3.8353608353460000  2.2143311189840000  3.9457552500000004
  4.5586660381229995  3.7982258226000001  3.9457552500000004
 -1.0097606553180005  5.8470523275440005  1.3152517500000001
  1.7332412716049990  4.5939862749520000  1.3152517500000001
  2.1020039965530000  2.0487905764400001  3.9457552500000004
  4.8453932946209992  0.7959836009760000  3.9457552500000004
 -0.7234476162870001  2.8450093975039996  1.3152517500000001
