Ce Re Si C 
 1.0000000000000000
     2.0700479999999999    5.5662900000000004    0.0728310000000000
    -2.0700479999999999    5.5662900000000004    0.0728310000000000
     0.0000000000000000    4.4414220000000002    5.6016709999999996
 Ce  Re  Si  C  
   2   2   2   1
Cartesian
  0.0000000000000000  6.1174026852600001  1.7412245457459998
 -0.0000000000000000  9.4565993147400000  4.0061084542539991
  0.0000000000000001  9.2525904428760004  0.6311707854699999
  0.0000000000000000  6.3214115571240006  5.1161622145299992
 -0.0000000000000001 12.5770830893100012  4.0578863227469997
  0.0000000000000000  2.9969189106900003  1.6894466772529997
  0.0000000000000000  0.0000000000000000  0.0000000000000000
