Ti F 
 1.0000000000000000
     4.7697520000000004   -0.0497070000000000    2.7927070000000001
     1.5773420000000000    4.5016629999999997    2.7927080000000002
    -0.0708670000000000   -0.0497090000000000    5.5267260000000000
 Ti  F  
   2   6
Cartesian
  3.1381135000000002  2.2011235000000000  5.5560705000000006
  0.0000000000000000  0.0000000000000000  0.0000000000000000
  2.3732079043610002  3.3515119897219998  4.1655551651330001
  3.9487469954230003  1.0610395757679998  4.1830851917120002
  4.7529483596000004  3.3120250334659995  5.5706940039730002
  2.3274800045770001  3.3412074242319996  6.9290558082880001
  3.9030190956390003  1.0507350102780000  6.9465858348670002
  1.5232786404000001  1.0902219665339998  5.5414469960270001
