Lu In Cu
 1.0000000000000000
     3.9700980000000001    0.0000000000000000    2.2921380000000000
     1.3233660000000000    3.7430450000000000    2.2921380000000000
     0.0000000000000000    0.0000000000000000    4.5842739999999997
 Lu  In  Cu 
   1   1   2
Cartesian
  2.6467320000000001  1.8715225000000000  4.5842749999999999
  0.0000000000000000  0.0000000000000000  0.0000000000000000
  1.3233660000000000  0.9357612500000000  2.2921374999999999
  3.9700980000000001  2.8072837499999999  6.8764124999999998
