Cs Ca H 
 1.0000000000000000
    -2.3015550000000000    2.3015550000000000    7.7538840000000002
     2.3015550000000000   -2.3015550000000000    7.7538840000000002
     2.3015550000000000    2.3015550000000000   -7.7538840000000002
 Cs  Ca  H  
   2   1   4
Cartesian
  0.0000000000000001 -0.0000000000000001 10.0499486223120016
  0.0000000000000001 -0.0000000000000001  5.4578348854560002
  0.0000000000000000  0.0000000000000000  0.0000000000000000
 -0.0000000000000001  0.0000000000000001 13.2045077733360010
 -0.0000000000000000  0.0000000000000000  2.3032602266639999
  2.3015550000000000  0.0000000000000000  0.0000000000000000
  0.0000000000000000  2.3015550000000000  0.0000000000000000
