Sc Ni
 1.0000000000000000
     4.1973200000000004    0.0000000000000000    2.4233240000000000
     1.3991070000000001    3.9572669999999999    2.4233240000000000
     0.0000000000000000    0.0000000000000000    4.8466469999999999
 Sc  Ni 
   2   4
Cartesian
  0.6995519758930001  0.4946544177330000  1.2116594516760000
  4.8968750241070005  3.4626125822670000  8.4816355483240002
  0.6995535000000001  1.9786334999999999  3.6349855000000000
  2.0986600000000002  0.0000000000000000  3.6349855000000000
  2.7982135000000001  1.9786334999999999  2.4233240000000000
  2.7982135000000001  1.9786334999999999  4.8466474999999996
