Nd Si Ru
 1.0000000000000000
     4.0756699999999997    0.0000000000000000    0.0000000000000000
     0.0000000000000000    4.3799799999999998   -0.9462630000000000
     0.0000000000000000    0.0073080000000000    8.2902979999999999
 Nd  Si  Ru 
   2   4   2
Cartesian
  1.0189174999999999  1.8057137081839998  6.2308942275349999
  3.0567525000000000  2.5815742918159996  1.1131407724650000
  1.0189174999999999  2.9289360688119999  3.4518777049380001
  3.0567525000000000  1.4583519311880000  3.8921572950620003
  3.0567525000000000  4.2224221259960002  6.6154073750169999
  1.0189174999999999  0.1648658740040000  0.7286276249830000
  3.0567525000000000  3.8632193730880000  4.2422965803000006
  1.0189174999999999  0.5240686269120000  3.1017384197000002
