Sr Ge Ir
 1.0000000000000000
    -2.1021359999999998    2.1021359999999998    5.4007709999999998
     2.1021359999999998   -2.1021359999999998    5.4007709999999998
     2.1021359999999998    2.1021359999999998   -5.4007709999999998
 Sr  Ge  Ir 
   1   2   2
Cartesian
  0.0000000000000000  0.0000000000000000  0.0000000000000000
 -0.0000000000000000  0.0000000000000000  3.9826365508199997
 -0.0000000000000001  0.0000000000000001  6.8189054491799999
  2.1021359999999998  0.0000000000000000  2.7003854999999999
  0.0000000000000000  2.1021359999999998  2.7003854999999999
