Sr Br N 
 1.0000000000000000
     3.8146969999999998    0.0054930000000000    6.6559920000000004
     1.7763610000000001    3.3758689999999998    6.6559920000000004
     0.0090820000000000    0.0054930000000000    7.6716400000000000
 Sr  Br  N  
   2   1   1
Cartesian
  4.3268081675000003  2.6167688443750001 16.2124724929999999
  1.2733318325000000  0.7700861556249999  4.7711515069999999
  0.0000000000000000  0.0000000000000000  0.0000000000000000
  2.8000700000000003  1.6934274999999999 10.4918119999999995
