Sn Ru
 1.0000000000000000
     6.2531319999999999    0.0000000000000000    0.0000000000000000
     0.0000000000000000    6.2531319999999999    0.0000000000000000
     0.0000000000000000    0.0000000000000000   10.0534510000000008
 Sn  Ru 
  12   8
Cartesian
  4.1134165328440000  1.3880264694360001  0.8418156660340000
  4.8651055305640005  2.1397154671559999  4.1849098339660005
  1.3880264694360001  2.1397154671559999  9.2116353339660009
  4.8651055305640005  4.1134165328440000  9.2116353339660009
  2.1397154671559999  1.3880264694360001  5.8685411660340003
  1.1221995749840001  5.1309324250159998  7.5400882500000002
  1.3880264694360001  4.1134165328440000  4.1849098339660005
  1.1221995749840001  1.1221995749840001  2.5133627500000002
  5.1309324250159998  5.1309324250159998  2.5133627500000002
  4.1134165328440000  4.8651055305640005  5.8685411660340003
  2.1397154671559999  4.8651055305640005  0.8418156660340000
  5.1309324250159998  1.1221995749840001  7.5400882500000002
  0.0000000000000000  3.1265660000000000  1.2499556162810002
  3.1265660000000000  0.0000000000000000  8.8034953837190013
  0.0000000000000000  0.0000000000000000  5.0267255000000004
  3.1265660000000000  0.0000000000000000  3.7767698837190000
  0.0000000000000000  3.1265660000000000  6.2766811162809999
  0.0000000000000000  0.0000000000000000  0.0000000000000000
  3.1265660000000000  3.1265660000000000  2.5133627500000002
  3.1265660000000000  3.1265660000000000  7.5400882500000002
