Ca Cu Br O 
 1.0000000000000000
     3.8848959999999999    0.0000000000000000    0.0000000000000000
     0.0000000000000000    3.8848959999999999    0.0000000000000000
    -1.9424480000000000   -1.9424480000000000    8.8491800000000005
 Ca  Cu  Br  O  
   2   1   2   2
Cartesian
 -0.0000000000000001 -0.0000000000000001  7.2762028582800005
  1.9424479999999997  1.9424479999999997  1.5729771417200000
  0.0000000000000000  0.0000000000000000  0.0000000000000000
  1.9424479999999997  1.9424479999999997  5.8345121510400002
  0.0000000000000000  0.0000000000000000  3.0146678489599998
  1.9424480000000000  0.0000000000000000  0.0000000000000000
  0.0000000000000000  1.9424480000000000  0.0000000000000000
