Mg Au
 1.0000000000000000
     8.1340900000000005    0.0000000000000000    0.0000000000000000
    -4.0670460000000004    7.0443290000000003    0.0000000000000000
     0.0000000000000000    0.0000000000000000    8.5653970000000008
 Mg  Au 
  18   6
Cartesian
  1.5263331438920000  2.6436873633969999  0.6355524574000001
  3.0526670383700001  0.0000000000000000  4.9182509574000006
 -1.5263338944780001  2.6436873633969999  4.9182509574000006
 -2.5407121055220001  4.4006416366029999  0.6355524574000001
  5.0814229616300004  0.0000000000000000  0.6355524574000001
  2.5407108561080003  4.4006416366029999  4.9182509574000006
  0.0000000000000000  0.0000000000000000  5.7867993439940006
  0.0000000000000000  0.0000000000000000  1.5041008439940002
 -0.0000047337120004  4.6962216814430002  6.7968223928370008
  4.0670487337120003  2.3481073185570001  2.5141238928370000
 -0.0000047337120004  4.6962216814430002  2.5141238928370000
  4.0670487337120003  2.3481073185570001  6.7968223928370008
  2.9262340909559996  5.0683876711710001  7.8616982440680010
  5.8524696209100000  0.0000000000000000  3.5789997440680001
 -2.9262355299540004  5.0683876711710001  3.5789997440680001
 -1.1408104700460000  1.9759413288290000  7.8616982440680010
  2.2816203790900000  0.0000000000000000  7.8616982440680010
  1.1408099090440000  1.9759413288290000  3.5789997440680001
  1.3352430815520002  2.3127095653320002  6.3881416057760010
  2.6704868197200002  0.0000000000000000  2.1054431057760001
 -1.3352437381680000  2.3127095653320002  2.1054431057760001
 -2.7318022618320001  4.7316194346679996  6.3881416057760010
  5.4636031802799998  0.0000000000000000  6.3881416057760010
  2.7318009184479997  4.7316194346679996  2.1054431057760001
