Er Mg Cd
 1.0000000000000000
     0.0000000000000000    3.5539909999999999    3.5539909999999999
     3.5539909999999999    0.0000000000000000    3.5539909999999999
     3.5539909999999999    3.5539909999999999    0.0000000000000000
 Er  Mg  Cd 
   1   1   2
Cartesian
  1.7769955000000000  1.7769955000000000  1.7769955000000000
  5.3309936079820002  5.3309936079820002  5.3309936079820002
  0.0000000000000000  0.0000000000000000  0.0000000000000000
  3.5539981079820002  3.5539981079820002  3.5539981079820002
