Li Ac Tl
 1.0000000000000000
     0.0000000000000000    3.6521720000000002    3.6521720000000002
     3.6521720000000002    0.0000000000000000    3.6521720000000002
     3.6521720000000002    3.6521720000000002    0.0000000000000000
 Li  Ac  Tl 
   2   1   1
Cartesian
  3.6521720000000002  3.6521720000000002  3.6521720000000002
  0.0000000000000000  0.0000000000000000  0.0000000000000000
  1.8260860000000001  1.8260860000000001  1.8260860000000001
  5.4782580000000003  5.4782580000000003  5.4782580000000003
