Er In Cu
 1.0000000000000000
     7.3654979999999997    0.0000000000000000    0.0000000000000000
    -3.6827489999999998    6.3787099999999999    0.0000000000000000
     0.0000000000000000    0.0000000000000000    3.8907769999999999
 Er  In  Cu 
   3   3   3
Cartesian
 -2.1716102855789998  3.7613403044099996  1.9453885000000000
  1.5111387144210000  2.6173696955899999  1.9453885000000000
  4.3432205711579996  0.0000000000000000  1.9453885000000000
  2.7447749261939998  4.7540908352600004  0.0000000000000000
 -0.9379740738059998  1.6246191647399999  0.0000000000000000
  1.8759481476119997  0.0000000000000000  0.0000000000000000
 -0.0000036827490000  4.2524754595700003  0.0000000000000000
  0.0000000000000000  0.0000000000000000  1.9453885000000000
  3.6827526827489998  2.1262345404300000  0.0000000000000000
