Pm In Hg
 1.0000000000000000
     0.0000000000000000    3.8233320000000002    3.8233320000000002
     3.8233320000000002    0.0000000000000000    3.8233320000000002
     3.8233320000000002    3.8233320000000002    0.0000000000000000
 Pm  In  Hg 
   2   1   1
Cartesian
  5.7349980000000000  5.7349980000000000  5.7349980000000000
  1.9116660000000001  1.9116660000000001  1.9116660000000001
  3.8233320000000002  3.8233320000000002  3.8233320000000002
  0.0000000000000000  0.0000000000000000  0.0000000000000000
