Hg F 
 1.0000000000000000
     3.4858159999999998    0.0000000000000000   -1.1122179999999999
    -0.3548740000000000    3.4677039999999999   -1.1122179999999999
     0.0255410000000000    0.0282880000000000    6.0986300000000000
 Hg  F  
   2   2
Cartesian
  2.7890101403839997  3.0889940484799996  2.7224923931840004
  0.3674728596160000  0.4069979515200000  1.1517016068160000
  2.1641720487059994  2.3969488628559996  0.7641910056840003
  0.9923109512939999  1.0990431371439999  3.1100029943160004
