Sr Mg Si
 1.0000000000000000
     4.5955139999999997    0.0000000000000000    0.0000000000000000
     0.0000000000000000    7.8195439999999996    0.0000000000000000
     0.0000000000000000    0.0000000000000000    8.4636700000000005
 Sr  Mg  Si 
   4   4   4
Cartesian
  1.1488784999999999  0.1140949665040000  6.9048481867400007
  1.1488784999999999  4.0238669665040003  5.7906568132600000
  3.4466354999999997  3.7956770334959997  2.6730131867400000
  3.4466354999999997  7.7054490334959995  1.5588218132600002
  3.4466354999999997  2.7879567591279999  7.9216904278800007
  1.1488784999999999  5.0315872408719997  0.5419795721200000
  3.4466354999999997  6.6977287591279993  4.7738145721200000
  1.1488784999999999  1.1218152408719999  3.6898554278800004
  3.4466354999999997  1.7002425496399998  5.1517851469800000
  1.1488784999999999  2.2095294503599998  0.9199501469800000
  1.1488784999999999  6.1193014503599992  3.3118848530200000
  3.4466354999999997  5.6100145496399998  7.5437198530200007
