Ti Zn
 1.0000000000000000
     5.0822269999999996    0.0000000000000000    0.0000000000000000
    -2.5411130000000002    4.4013380000000000    0.0000000000000000
     0.0000000000000000    0.0000000000000000    8.1683900000000005
 Ti  Zn 
   4   8
Cartesian
 -0.0000022077800002  2.9342268004459999  0.5568228095200001
  2.5411162077800000  1.4671111995540000  4.6410178095200001
  2.5411162077800000  1.4671111995540000  7.6115671904800006
 -0.0000022077800002  2.9342268004459999  3.5273721904799999
  0.0000000000000000  0.0000000000000000  0.0000000000000000
  0.0000000000000000  0.0000000000000000  4.0841950000000002
  2.5411112869190000  2.8875638149700000  2.0420975000000001
 -1.2301424668800001  3.6444487068160001  6.1262924999999999
  1.2301483771389996  3.6444487068160001  6.1262924999999999
  1.3109656228609998  0.7568892931840000  2.0420975000000001
  3.7712564668800002  0.7568892931840000  2.0420975000000001
  0.0000027130810000  1.5137741850299999  6.1262924999999999
