Ho Cd Cu
 1.0000000000000000
     4.3640949999999998    0.0000010000000000    2.5196130000000001
     1.4546990000000000    4.1145079999999998    2.5196130000000001
     0.0000000000000000    0.0000000000000000    5.0392260000000002
 Ho  Cd  Cu 
   1   1   4
Cartesian
  4.3640955000000003  3.0858817500000000  7.5588390000000008
  0.0000000000000000  0.0000000000000000  0.0000000000000000
  2.9093987064489997  3.6109995721329997  5.0392285196130002
  4.3742825018450002  1.5393411831259998  5.0392285196130002
  2.1769563052500001  1.5393406796250000  3.7705958152740000
  2.1769563052500001  1.5393406796250000  6.3078561847260000
