Y  Si Pd
 1.0000000000000000
     4.1652540000000000    0.0000000000000000    0.0000000000000000
     0.0000000000000000    4.1652540000000000    0.0000000000000000
     0.0000000000000000    0.0000000000000000    9.9699310000000008
 Y   Si  Pd 
   2   4   4
Cartesian
  0.0000000000000000  0.0000000000000000  0.0000000000000000
  2.0826270000000000  2.0826270000000000  4.9849655000000004
  2.0826270000000000  2.0826270000000000  1.1657640919680001
  2.0826270000000000  2.0826270000000000  8.8041669080320002
  0.0000000000000000  0.0000000000000000  6.1507295919680010
  0.0000000000000000  0.0000000000000000  3.8192014080320007
  0.0000000000000000  2.0826270000000000  2.4924827500000002
  2.0826270000000000  0.0000000000000000  2.4924827500000002
  2.0826270000000000  0.0000000000000000  7.4774482500000001
  0.0000000000000000  2.0826270000000000  7.4774482500000001
