Lu Pd
 1.0000000000000000
     4.0435319999999999    0.0000000000000000    0.0000000000000000
     0.0000000000000000    4.0435319999999999    0.0000000000000000
     0.0000000000000000    0.0000000000000000    4.0435319999999999
 Lu  Pd 
   1   3
Cartesian
  0.0000000000000000  0.0000000000000000  0.0000000000000000
  2.0217660000000000  0.0000000000000000  2.0217660000000000
  0.0000000000000000  2.0217660000000000  2.0217660000000000
  2.0217660000000000  2.0217660000000000  0.0000000000000000
