Sc Cu
 1.0000000000000000
     3.2624659999999999    0.0000000000000000    0.0000000000000000
     0.0000000000000000    3.2624659999999999    0.0000000000000000
     0.0000000000000000    0.0000000000000000    3.2624659999999999
 Sc  Cu 
   1   1
Cartesian
  1.6312329999999999  1.6312329999999999  1.6312329999999999
  0.0000000000000000  0.0000000000000000  0.0000000000000000
