As Pd
 1.0000000000000000
     4.7578069999999997    0.0133560000000000   -0.4268180000000000
    -1.5889080000000000    4.4846700000000004   -0.4268180000000000
     0.0164940000000000    0.0234120000000000    8.5150340000000000
 As  Pd 
   2  10
Cartesian
  0.8797741663799999  0.9419780246700001  5.8747123814000002
  2.5945149537050001  3.3759302333640000  1.7866856186000002
 -0.0254870832100002  3.1693386379740005  6.6348758330899997
  0.1924141627850002  3.4786339438559999  1.0265221669100000
  3.2822506220789998  0.8382573408720001  6.6353375867839999
  3.5008602829659998  1.1485581911460001  1.0260604132159998
  2.1973483063649994  2.8103269956420003  4.9668675646100002
  1.2786814025379998  1.5063516376860002  2.6945308622080000
  2.5182694108570001  3.2663233841820003  7.8285829044720003
  0.9573207858029997  1.0506682544820003 -0.1671849044720000
  3.7462067133649999  0.7435529753460001  3.8306990000000001
 -0.2707942247250000  3.5735638601100002  3.8306990000000001
