Nd Sn
 1.0000000000000000
     9.2887269999999997    0.0000000000000000    0.0000000000000000
    -4.6443630000000002    8.0442739999999997    0.0000000000000000
     0.0000000000000000    0.0000000000000000    6.8800020000000002
 Nd  Sn 
  10   6
Cartesian
 -0.0000043110300003  5.3628520147579994  0.0000000000000000
  4.6443683110300000  2.6814219852419998  3.4400010000000001
  4.6443683110300000  2.6814219852419998  0.0000000000000000
 -0.0000043110300003  5.3628520147579994  3.4400010000000001
  2.2398464738719999  0.0000000000000000  1.7200005000000000
  1.1199233575040000  1.9397640552639999  5.1600014999999999
 -3.5244398836320001  6.1045099447359998  5.1600014999999999
 -1.1199231163679999  1.9397640552639999  1.7200005000000000
  3.5244406424959993  6.1045099447359998  1.7200005000000000
  7.0488805261279994  0.0000000000000000  5.1600014999999999
  5.6292658012640002  0.0000000000000000  1.7200005000000000
  2.8146332036480000  4.8750874607680004  5.1600014999999999
 -1.8297304023840000  3.1691865392319998  5.1600014999999999
 -2.8146325976160003  4.8750874607680004  1.7200005000000000
  1.8297307963520000  3.1691865392319998  1.7200005000000000
  3.6594611987360000  0.0000000000000000  5.1600014999999999
