Sc In Ir
 1.0000000000000000
     0.0000000000000000    3.2143640000000002    3.2143640000000002
     3.2143640000000002    0.0000000000000000    3.2143640000000002
     3.2143640000000002    3.2143640000000002    0.0000000000000000
 Sc  In  Ir 
   1   1   2
Cartesian
  3.2143640000000002  3.2143640000000002  3.2143640000000002
  0.0000000000000000  0.0000000000000000  0.0000000000000000
  4.8215460000000006  4.8215460000000006  4.8215460000000006
  1.6071820000000001  1.6071820000000001  1.6071820000000001
