Cu Br
 1.0000000000000000
     1.7465370000000000    4.1617870000000003   -0.2325030000000000
    -1.7465370000000000    4.1617870000000003   -0.2325030000000000
     0.0000000000000000    3.2964140000000000    6.0747970000000002
 Cu  Br 
   1   2
Cartesian
  0.0000000000000000  0.0000000000000000  0.0000000000000000
 -0.0000000000000000  6.6244023509960002  4.3947999819460000
  0.0000000000000000  4.9955856490040000  1.2149910180540002
