Tm Ga Rh
 1.0000000000000000
     0.0000000000000000    3.1726190000000001    3.1726190000000001
     3.1726190000000001    0.0000000000000000    3.1726190000000001
     3.1726190000000001    3.1726190000000001    0.0000000000000000
 Tm  Ga  Rh 
   1   1   2
Cartesian
  4.7589284999999997  4.7589284999999997  4.7589284999999997
  1.5863095000000000  1.5863095000000000  1.5863095000000000
  0.0000000000000000  0.0000000000000000  0.0000000000000000
  3.1726126547620002  3.1726126547620002  3.1726126547620002
