Nb C 
 1.0000000000000000
     5.1770440000000004    0.0000000000000000   -1.8518310000000000
     0.0000000000000000   15.7380619999999993    0.0000000000000000
     0.0036860000000000    0.0000000000000000    5.5117719999999997
 Nb  C  
  20  14
Cartesian
  1.2628641800480001 12.6568642216399994  1.0301475241599998
  3.8513861800480003 10.9502287783599996  0.1042320241599999
  3.9178658199520005 12.6568642216399994  2.6297934758399997
  1.2913275764720000  9.4793180277159994  0.8651144687659998
  1.3293438199520000 10.9502287783599996  3.5557089758399996
  1.3688356715660002  0.0000000000000000  0.8102598695289999
  3.8894024235280007  9.4793180277159994  2.7948265312339995
  3.8798495764720000 14.1277749722839996 -0.0608010312340000
  3.8118943284340001  0.0000000000000000  2.8496811304710001
  1.3008804235280003 14.1277749722839996  3.7207420312339994
  3.8513861800480003  4.7878332216399997  0.1042320241599999
  1.2628641800480001  3.0811977783600000  1.0301475241599998
  1.3293438199520000  4.7878332216399997  3.5557089758399996
  3.8798495764720000  1.6103027657779998 -0.0608010312340000
  3.9178658199520005  3.0811977783600000  2.6297934758399997
  3.9573576715660006  7.8690309999999997 -0.1156556304710002
  1.3008804235280003  1.6103027657779998  3.7207420312339994
  1.2913275764720000  6.2587439722839990  0.8651144687659998
  1.2233723284340001  7.8690309999999997  3.7755966304710000
  3.8894024235280007  6.2587439722839990  2.7948265312339995
  0.0018430000000000 12.5964930158079991  2.7558859999999998
  2.5903650000000003 11.0105999841919999  1.8299704999999999
  0.0018430000000000  9.4588900232400004  2.7558859999999998
  2.5885220000000002  9.4565135758779988 -0.9259155000000000
  2.5903650000000003 14.1482029767599986  1.8299704999999999
  2.5885220000000002  0.0000000000000000 -0.9259155000000000
  0.0000000000000000 14.1505794241220002  0.0000000000000000
  2.5903650000000003  4.7274620158079994  1.8299704999999999
  0.0018430000000000  3.1415689841919998  2.7558859999999998
  2.5903650000000003  1.5898590232399998  1.8299704999999999
  0.0000000000000000  1.5874825758780000  0.0000000000000000
  0.0018430000000000  6.2791719767599998  2.7558859999999998
  0.0000000000000000  7.8690309999999997  0.0000000000000000
  2.5885220000000002  6.2815484241219997 -0.9259155000000000
