Bi Te I 
 1.0000000000000000
     4.3956869999999997    0.0000000000000000    0.0000000000000000
    -2.1978430000000002    3.8067769999999999    0.0000000000000000
     0.0000000000000000    0.0000000000000000    7.2227180000000004
 Bi  Te  I  
   1   1   1
Cartesian
  0.0000000000000000  0.0000000000000000  6.6545428885300009
  2.1978458645099996  1.2689243977409999  4.9611333171220000
 -0.0000018645100004  2.5378526022590000  1.5246146517480001
