Li Ge Au
 1.0000000000000000
     3.7772850000000000    0.0000000000000000    2.1808169999999998
     1.2590950000000001    3.5612580000000000    2.1808169999999998
     0.0000000000000000    0.0000000000000000    4.3616330000000003
 Li  Ge  Au 
   2   1   1
Cartesian
  1.2590950000000001  0.8903145000000000  2.1808167500000000
  2.5181900000000002  1.7806290000000000  4.3616334999999999
  0.0000000000000000  0.0000000000000000  0.0000000000000000
  3.7772850000000004  2.6709434999999999  6.5424502499999999
