Mn Ga Co
 1.0000000000000000
     3.4775900000000002    0.0000000000000000    2.0077870000000000
     1.1591970000000000    3.2787030000000001    2.0077870000000000
     0.0000000000000000    0.0000000000000000    4.0155750000000001
 Mn  Ga  Co 
   1   1   2
Cartesian
  2.3183935000000000  1.6393515000000001  4.0155744999999996
  0.0000000000000000  0.0000000000000000  0.0000000000000000
  3.4775902500000004  2.4590272500000001  6.0233617499999994
  1.1591967500000000  0.8196757500000000  2.0077872499999998
