Hf Ga Au
 1.0000000000000000
     4.3166630000000001    0.0000000000000000    0.0000000000000000
    -2.1583320000000001    3.7383389999999999    0.0000000000000000
     0.0000000000000000    0.0000000000000000    6.7068659999999998
 Hf  Ga  Au 
   2   2   2
Cartesian
  0.0000000000000000  0.0000000000000000  3.3534329999999999
  0.0000000000000000  0.0000000000000000  0.0000000000000000
  2.1583334916650001  1.2461117538869999  1.3946055954420000
  2.1583334916650001  1.2461117538869999  5.3122604045579997
 -0.0000024916650001  2.4922272461129999  4.7689841379600004
 -0.0000024916650001  2.4922272461129999  1.9378818620399998
