Ti Mn Fe
 1.0000000000000000
    -0.0005110000000000    3.0552340000000000    3.0556390000000002
     3.0571079999999999   -0.0018340000000000    3.0569139999999999
     3.0566080000000002    3.0558879999999999   -0.0012140000000000
 Ti  Mn  Fe 
   2   1   1
Cartesian
  3.0571507736599997 -0.0016781614700000  3.0569964728119996
  3.0566025269400003  3.0544820402540003  3.0555870301040002
  4.5849251513110003  4.5819568264359996  4.5835042539469999
  1.5282309348729999  1.5273311830039999  1.5278347455650001
