Ta Si
 1.0000000000000000
     6.1937519999999999    0.0000000000000000    0.0000000000000000
     0.0000000000000000    6.1937519999999999    0.0000000000000000
     0.0000000000000000    0.0000000000000000    5.0930720000000003
 Ta  Si 
   8   4
Cartesian
  1.0127156145120000  2.0841603854880000  2.5465360000000001
  5.1810363854879995  2.0841603854880000  0.0000000000000000
  2.0841603854880000  1.0127156145120000  0.0000000000000000
  1.0127156145120000  4.1095916145120004  0.0000000000000000
  4.1095916145120004  5.1810363854879995  0.0000000000000000
  2.0841603854880000  5.1810363854879995  2.5465360000000001
  5.1810363854879995  4.1095916145120004  2.5465360000000001
  4.1095916145120004  1.0127156145120000  2.5465360000000001
  0.0000000000000000  0.0000000000000000  3.8198040000000004
  0.0000000000000000  0.0000000000000000  1.2732680000000001
  3.0968760000000000  3.0968760000000000  1.2732680000000001
  3.0968760000000000  3.0968760000000000  3.8198040000000004
