Cu Br
 1.0000000000000000
     3.9341050000000002   -0.3104610000000000    0.5377360000000000
    -1.6040749999999999    3.6056230000000000   -0.5377360000000000
    -0.7259560000000000   -1.9580430000000000    3.3914270000000002
 Cu  Br 
   1   1
Cartesian
  1.9670522500000001  1.0804549999999999  0.9822907500000000
  0.0000000000000000  0.0000000000000000  0.0000000000000000
