Na Hg P 
 1.0000000000000000
     4.7962680000000004    0.0154510000000000    7.5901969999999999
     2.2087889999999999    4.2574269999999999    7.5901969999999999
     0.0253320000000000    0.0154510000000000    8.9785649999999997
 Na  Hg  P  
   4   1   2
Cartesian
  5.5770248035860011  3.4018198991460000 19.1646740417660020
  4.1990615291970004  2.5613031268170001 14.4294939188070011
  1.4533641964140001  0.8865091008539999  4.9942849582340001
  2.8313274708030001  1.7270258731829999  9.7294650811930001
  0.0000000000000000  0.0000000000000000  0.0000000000000000
  0.6588669659130000  0.4018893288930000  2.2641051606029996
  6.3715220340869996  3.8864396711069995 21.8948538393969976
