Mg B  C 
 1.0000000000000000
    -2.8021360000000000    3.9590390000000002    4.9034409999999999
     2.8021639999999999   -3.9591029999999998    4.9035089999999997
     2.8021400000000001    3.9591059999999998   -4.9034940000000002
 Mg  B   C  
   2  24   4
Cartesian
  2.8021595488360003  1.0865371114629996  2.4517181132810002
  0.0000112532999999  2.8725009294980004  2.4517329832780002
  1.4591531761920000  0.4113980759210001  5.7366844304169993
  2.8021506518560000  2.5228235092360003 -0.9185675512360004
  1.8971769509959997  2.6883575402310007  4.2755132676689991
  4.1451695816080001 -0.4114141964299998  0.8332123203739995
  1.4591536069679998 -0.4114525955489997  4.0702635733949997
 -1.3430015816080003  4.3704561964300002  4.0702436796259995
  1.8971581303039999  2.6884090577339999  0.6279408018360001
  0.0000173481439999  1.4362184907639999  5.8220235512359997
  1.3430148238080002  3.5476439240790003 -0.8332284304170005
 -0.0000074081040000  0.1639872300480003  3.2649973448159999
  0.9050098696960001  1.2706329422659999  4.2755151981639994
  2.8021856563039997  3.7950124827190006  3.2649805407109982
  1.3430376459240003  4.3704536752980001  4.0702361584499993
  2.8021733115840002 -2.5228642747369996  3.9849510287749998
  1.8971530262279999  5.2297419323460002 -0.6279689359200004
  1.3430143930320002  4.3704945955490002  0.8331924266049988
  0.9050149737719998 -1.2706999323459998  5.5314249359199996
 -1.8971554248680000  2.6883396728240001  4.2755031121900000
  4.6993234248680000  1.2707023271760001  0.6279528878099997
 -0.0000025094479998  6.4819023156980000  0.9185000677839996
  2.8021754081040000  3.7950547699520003  1.6384586551840001
  0.9049910490040000  1.2706844597689999  0.6279427323310000
 -0.0000176563040001  0.1640295172810001  1.6384754592890001
  1.4591303540759999 -0.4114116752980000  0.8332198415499998
  0.0000259945160000  4.9810260398270003  3.3159367247350002
  2.8021637533520001 -1.0220269923340002  3.3159844060719994
  0.0000042466480002  4.9810689923340004  1.5874715939279995
  2.8021420054839998 -1.0219840398270001  1.5875192752650000
