Pd Pb
 1.0000000000000000
     5.5197799999999999   -0.0041050000000000   -1.5205409999999999
    -3.2031019999999999    4.4991589999999997   -1.5224480000000000
     0.0033400000000000    0.0041050000000000    5.7253829999999999
 Pd  Pb 
   2   4
Cartesian
  1.7404839740800000  3.3753954999999998  3.4428637304279999
  0.5795340259200000  1.1237634999999999 -0.7604697304280000
  2.4979275241379999  2.9829126384789997  0.5798907638619999
 -0.8209802970979998  3.7637733615209994 -0.7904341208980000
 -0.1779095241380001  1.5162463615210000  2.1025032361379998
  3.1409982937579999  0.7353856343740000  3.4728223955150002
