Be Ni Pt
 1.0000000000000000
    -0.0001100000000000    2.7226029999999999    2.7226040000000000
     2.7226029999999999   -0.0001100000000000    2.7226050000000002
     2.7226029999999999    2.7226029999999999   -0.0001100000000000
 Be  Ni  Pt 
   2   1   1
Cartesian
  2.7225479999999997  2.7225479999999997  2.7225495000000000
  0.0000000000000000  0.0000000000000000  0.0000000000000000
  1.3612740001099999  1.3612740001099999  1.3612693046810000
  4.0838219999999996  4.0838219999999996  4.0838242499999993
