Sr Zn As
 1.0000000000000000
     4.2158780000000000    0.0000000000000000    0.0000000000000000
    -2.1079379999999999    3.6510570000000002    0.0000000000000000
     0.0000000000000000    0.0000000000000000    7.2709910000000004
 Sr  Zn  As 
   1   2   2
Cartesian
  0.0000000000000000  0.0000000000000000  0.0000000000000000
  2.1079414412720001  1.2170177829810001  2.6998352941560002
 -0.0000014412719999  2.4340392170190004  4.5711557058440002
  2.1079414412720001  1.2170177829810001  5.2925252649360006
 -0.0000014412719999  2.4340392170190004  1.9784657350640003
