Ta H 
 1.0000000000000000
     2.9297970000000002    0.0160290000000000    0.0000000000000000
    -0.9244070000000000    2.7801870000000002    0.0000000000000000
     0.0000000000000000    0.0000000000000000    4.7585689999999996
 Ta  H  
   2   1
Cartesian
 -0.4622035000000000  1.3900935000000001  1.2589746003300000
  1.4648985000000001  0.0080145000000000  3.4995943996699999
  0.0000000000000000  0.0000000000000000  0.0000000000000000
