Mn Zn Ir
 1.0000000000000000
     0.0000000000000000    3.0055220000000000    3.0055220000000000
     3.0055220000000000    0.0000000000000000    3.0055220000000000
     3.0055220000000000    3.0055220000000000    0.0000000000000000
 Mn  Zn  Ir 
   1   1   2
Cartesian
  1.5027610000000000  1.5027610000000000  1.5027610000000000
  4.5082830000000005  4.5082830000000005  4.5082830000000005
  0.0000000000000000  0.0000000000000000  0.0000000000000000
  3.0055220000000000  3.0055220000000000  3.0055220000000000
