Sc In Ag
 1.0000000000000000
     0.0000000000000000    3.3737930000000000    3.3737930000000000
     3.3737930000000000    0.0000000000000000    3.3737930000000000
     3.3737930000000000    3.3737930000000000    0.0000000000000000
 Sc  In  Ag 
   1   1   2
Cartesian
  3.3737930000000000  3.3737930000000000  3.3737930000000000
  0.0000000000000000  0.0000000000000000  0.0000000000000000
  1.6868965000000000  1.6868965000000000  1.6868965000000000
  5.0606895000000005  5.0606895000000005  5.0606895000000005
