Zn Rh O 
 1.0000000000000000
     5.2242740000000003    0.0000000000000000    3.0162350000000000
     1.7414250000000000    4.9254910000000001    3.0162350000000000
     0.0000000000000000    0.0000000000000000    6.0324710000000001
 Zn  Rh  O  
   2   4   8
Cartesian
  6.0949866249999998  4.3098046249999999 10.5568233750000005
  0.8707123750000001  0.6156863750000000  1.5081176250000001
  3.4828495000000004  2.4627455000000000  3.0162350000000000
  3.4828495000000004  2.4627455000000000  6.0324705000000005
  0.8707125000000000  2.4627455000000000  4.5243529999999996
  2.6121370000000002  0.0000000000000000  4.5243529999999996
  5.1551396874250006  3.6452327518250001  8.9289612105750003
  1.8105593125750001  1.2802582481750000  5.9127382556669996
  2.6121407229250000  3.5474716064570000  4.5243587923949997
  4.2153030833229996  1.2802582481750000  4.5243587923949997
  4.3535582770750008  1.3780193935430001  7.5405822076050004
  2.7503959166770002  3.6452327518250001  7.5405822076050004
  1.8105593125750001  1.2802582481750000  3.1359797894250003
  5.1551396874250006  3.6452327518250001  6.1522027443329996
