Ga S 
 1.0000000000000000
     3.5932460000000002   -0.0000000000000000    0.0000000000000000
    -1.7966249999999999    3.1118450000000002    0.0000000000000000
     0.0000000000000000    0.0000000000000000   16.0146559999999987
 Ga  S  
   4   4
Cartesian
 -0.0000031299569999  2.0745643706150001  5.2279844512000002
  1.7966241299570000  1.0372806293850001 13.2353124511999987
  1.7966241299570000  1.0372806293850001 10.7866715487999993
 -0.0000031299569999  2.0745643706150001  2.7793435488000000
 -0.0000031299569999  2.0745643706150001 14.3034739917439975
  1.7966241299570000  1.0372806293850001  6.2961459917439999
  1.7966241299570000  1.0372806293850001  1.7111820082559999
 -0.0000031299569999  2.0745643706150001  9.7185100082560005
