Ho In
 1.0000000000000000
     5.3352320000000004   -0.0000000000000000    0.0000000000000000
    -2.6676169999999999    4.6204470000000004    0.0000000000000000
     0.0000000000000000    0.0000000000000000    6.6860840000000001
 Ho  In 
   4   2
Cartesian
 -0.0000033342829999  3.0802995401490003  5.0145629999999999
  2.6676183342830004  1.5401474598510001  1.6715210000000000
  0.0000000000000000  0.0000000000000000  3.3430420000000001
  0.0000000000000000  0.0000000000000000  0.0000000000000000
  2.6676183342830004  1.5401474598510001  5.0145629999999999
 -0.0000033342829999  3.0802995401490003  1.6715210000000000
