Pm Cd Si
 1.0000000000000000
     0.0000000000000000    3.6926380000000001    3.6926380000000001
     3.6926380000000001    0.0000000000000000    3.6926380000000001
     3.6926380000000001    3.6926380000000001    0.0000000000000000
 Pm  Cd  Si 
   2   1   1
Cartesian
  0.0000000000000000  0.0000000000000000  0.0000000000000000
  3.6926380000000001  3.6926380000000001  3.6926380000000001
  1.8463190000000000  1.8463190000000000  1.8463190000000000
  5.5389496147240003  5.5389496147240003  5.5389496147240003
