Si Pt
 1.0000000000000000
     5.6609610000000004    0.0000000000000000   -5.3150120000000003
     0.0000000000000000    7.9118069999999996    0.0000000000000000
     0.0010770000000000    0.0000000000000000    5.4419919999999999
 Si  Pt 
   4  12
Cartesian
  1.6160803766040002  0.0000000000000000 -1.1139929783680000
  4.0459576233960002  0.0000000000000000  1.2409729783679999
  4.4465608766040008  3.9559034999999998 -3.7714989783680006
  1.2154771233960000  3.9559034999999998  3.8984789783679998
  0.0005385000000000  2.1683968562970000  2.7209960000000000
  0.0005385000000000  5.7434101437029996  2.7209960000000000
  0.0000000000000000  1.4585574440639999  0.0000000000000000
  0.0000000000000000  6.4532495559359999  0.0000000000000000
  1.6065314600670000  0.0000000000000000  1.9618924074720001
  4.0555065399330008  0.0000000000000000 -1.8349124074720002
  2.8310190000000004  6.1243003562969998  0.0634899999999998
  2.8310190000000004  1.7875066437029998  0.0634899999999998
  2.8304805000000002  5.4144609440639995 -2.6575060000000001
  2.8304805000000002  2.4973460559359997 -2.6575060000000001
  4.4370119600669993  3.9559034999999998 -0.6956135925279999
  1.2250260399330000  3.9559034999999998  0.8225935925279999
