Li Mg
 1.0000000000000000
     3.4538350000000002    0.0000000000000000    0.0000000000000000
    -1.7269180000000000    2.4148230000000002    4.8720460000000001
     0.0000000000000000   -2.4468920000000001    2.4532370000000001
 Li  Mg 
   1   2
Cartesian
  1.7269207590119999  0.4187373478300001  2.4219160906489998
  0.0000016907770000 -1.9589286762410001  2.4911631360700000
 -0.0000020806700000  0.3503225793110001  4.8086955409240009
