Cu Bi Se O 
 1.0000000000000000
     3.9497130000000000    0.0000000000000000    0.0000000000000000
     0.0000000000000000    3.9497130000000000    0.0000000000000000
     0.0000000000000000    0.0000000000000000    9.0675050000000006
 Cu  Bi  Se  O  
   2   2   2   2
Cartesian
  0.0000000000000000  0.0000000000000000  4.5337525000000003
  1.9748565000000000  1.9748565000000000  4.5337525000000003
  0.0000000000000000  1.9748565000000000  7.7996773833950011
  1.9748565000000000  0.0000000000000000  1.2678276166050000
  1.9748565000000000  0.0000000000000000  6.1008349841200005
  0.0000000000000000  1.9748565000000000  2.9666700158800006
  1.9748565000000000  1.9748565000000000  0.0000000000000000
  0.0000000000000000  0.0000000000000000  0.0000000000000000
