Cr Si
 1.0000000000000000
     4.5164939999999998    0.0000000000000000    0.0000000000000000
     0.0000000000000000    4.5164939999999998    0.0000000000000000
     0.0000000000000000    0.0000000000000000    4.5164939999999998
 Cr  Si 
   6   2
Cartesian
  0.0000000000000000  2.2582469999999999  1.1291234999999999
  0.0000000000000000  2.2582469999999999  3.3873704999999998
  2.2582469999999999  3.3873704999999998  0.0000000000000000
  2.2582469999999999  1.1291234999999999  0.0000000000000000
  3.3873704999999998  0.0000000000000000  2.2582469999999999
  1.1291234999999999  0.0000000000000000  2.2582469999999999
  2.2582469999999999  2.2582469999999999  2.2582469999999999
  0.0000000000000000  0.0000000000000000  0.0000000000000000
