Th Ru C 
 1.0000000000000000
     4.2128199999999998    0.0000000000000000    0.0000000000000000
     0.0000000000000000    4.2128199999999998    0.0000000000000000
     0.0000000000000000    0.0000000000000000    4.2128199999999998
 Th  Ru  C  
   1   3   1
Cartesian
  0.0000000000000000  0.0000000000000000  0.0000000000000000
  0.0000000000000000  2.1064099999999999  2.1064099999999999
  2.1064099999999999  2.1064099999999999  0.0000000000000000
  2.1064099999999999  0.0000000000000000  2.1064099999999999
  2.1064099999999999  2.1064099999999999  2.1064099999999999
