Ac Tl Au
 1.0000000000000000
     0.0000000000000000    3.7312219999999998    3.7312219999999998
     3.7312219999999998    0.0000000000000000    3.7312219999999998
     3.7312219999999998    3.7312219999999998    0.0000000000000000
 Ac  Tl  Au 
   1   1   2
Cartesian
  1.8656035375559998  1.8656035375559998  1.8656035375559998
  5.5968330000000002  5.5968330000000002  5.5968330000000002
  3.7312219999999998  3.7312219999999998  3.7312219999999998
  0.0000000000000000  0.0000000000000000  0.0000000000000000
