Rb Nb F 
 1.0000000000000000
     6.1492969999999998    0.0000000000000000    0.0000000000000000
    -3.0746490000000000    5.3254479999999997    0.0000000000000000
     0.0000000000000000    0.0000000000000000    4.6048369999999998
 Rb  Nb  F  
   2   1   6
Cartesian
 -0.0000034079819999  3.5503004418159998  3.2426433283339997
  3.0746514079820000  1.7751475581839999  1.3621936716660001
  0.0000000000000000  0.0000000000000000  0.0000000000000000
  4.6532467503679991  0.8637450620160000  3.5804679851649999
  3.0746420128939991  3.5979685268640003  3.5804679851649999
  1.4960377888459999  0.8637450620160000  3.5804679851649999
 -1.5785987503679999  4.4617029379839996  1.0243690148350000
  0.0000059871059999  1.7274794731359999  1.0243690148350000
  1.5786102111540001  4.4617029379839996  1.0243690148350000
