Li Eu H 
 1.0000000000000000
     3.7166790000000001    0.0000000000000000    0.0000000000000000
     0.0000000000000000    3.7167119999999998    0.0000000000000000
     0.0000000000000000    0.0000000000000000    3.7166790000000001
 Li  Eu  H  
   1   1   3
Cartesian
  1.8583395000000000  1.8583559999999999  1.8583395000000000
  0.0000000000000000  0.0000000000000000  0.0000000000000000
  0.0000000000000000  1.8583559999999999  1.8583395000000000
  1.8583395000000000  1.8583559999999999  0.0000000000000000
  1.8583395000000000  0.0000000000000000  1.8583395000000000
