Cs V  N 
 1.0000000000000000
     5.8924729999999998   -0.1760730000000000    0.2374230000000000
    -2.7988200000000001    5.1941959999999998    0.0000000000000000
    -6.1873060000000004   -3.3339439999999998    4.4955959999999999
 Cs  V   N  
   2   2   4
Cartesian
 -6.0398895000000001  0.0966400000000001  3.3716970000000002
 -3.0936530000000002 -1.6669719999999999  2.2477980000000000
 -2.9462365000000004  1.7636120000000000  1.1238990000000000
  0.0000000000000000  0.0000000000000000  0.0000000000000000
  1.4745848316800001  0.7910477412960001  0.6806610000000000
 -3.0214113316800004  1.7266172587040001  2.9284590000000001
 -1.4716457758470001  0.8825960714710001  0.5645542490309999
  3.0184722758470004  3.3020409285289998  0.7967677509690000
