Ca Hg
 1.0000000000000000
     8.6420969999999997    0.0000000000000000    0.0000000000000000
     0.0000000000000000    8.6420969999999997    0.0000000000000000
     0.0000000000000000    0.0000000000000000    4.1604229999999998
 Ca  Hg 
   6   4
Cartesian
  0.0000000000000000  0.0000000000000000  0.0000000000000000
  4.3210484999999998  4.3210484999999998  0.0000000000000000
  1.3395509612909999  5.6605994612909996  2.0802114999999999
  2.9814975387089997  1.3395509612909999  2.0802114999999999
  5.6605994612909996  7.3025460387090000  2.0802114999999999
  7.3025460387090000  2.9814975387089997  2.0802114999999999
  3.0853841867459999  7.4064326867459993  0.0000000000000000
  1.2356643132539999  3.0853841867459999  0.0000000000000000
  7.4064326867459993  5.5567128132540002  0.0000000000000000
  5.5567128132540002  1.2356643132539999  0.0000000000000000
