Nb Si Pd
 1.0000000000000000
     3.7891919999999999    0.0000000000000000    0.0000000000000000
     0.0000000000000000    6.4888979999999998    0.0000000000000000
     0.0000000000000000    0.0000000000000000    7.5059610000000001
 Nb  Si  Pd 
   4   4   4
Cartesian
  2.8418939999999999  3.4226341390800004  1.2308950384290001
  0.9472980000000000  6.3107128609199998  4.9838755384290003
  2.8418939999999999  0.1781851390800000  2.5220854615710002
  0.9472980000000000  3.0662638609199999  6.2750659615709994
  0.9472980000000000  1.5055865584500001  0.9751969710030001
  0.9472980000000000  4.7500355584500005  2.7777835289969999
  2.8418939999999999  4.9833114415499997  6.5307640289969999
  2.8418939999999999  1.7388624415500000  4.7281774710029998
  0.9472980000000000  5.5274963834220001  0.4712317375410000
  0.9472980000000000  2.2830473834220002  3.2817487624590003
  2.8418939999999999  4.2058506165780001  4.2242122375409998
  2.8418939999999999  0.9614016165779999  7.0347292624589999
