Sc Bi
 1.0000000000000000
     3.6890499999999999    0.0000000000000000    2.1298740000000000
     1.2296840000000000    3.4780709999999999    2.1298740000000000
     0.0000000000000000    0.0000000000000000    4.2597490000000002
 Sc  Bi 
   1   1
Cartesian
  2.4593669999999999  1.7390355000000000  4.2597485000000006
  0.0000000000000000  0.0000000000000000  0.0000000000000000
