Fe Si
 1.0000000000000000
     5.6089539999999998    0.0000000000000000    0.0000000000000000
     0.0000000000000000    5.6089539999999998    0.0000000000000000
     0.0000000000000000    0.0000000000000000    5.6089549999999999
 Fe  Si 
  12   4
Cartesian
  4.2067154999999996  1.4022384999999999  1.4022387500000000
  1.4022384999999999  4.2067154999999996  4.2067162499999995
  0.0000000000000000  2.8044769999999999  0.0000000000000000
  4.2067154999999996  4.2067154999999996  4.2067162499999995
  1.4022384999999999  1.4022384999999999  1.4022387500000000
  0.0000000000000000  0.0000000000000000  2.8044775000000000
  1.4022384999999999  1.4022384999999999  4.2067162499999995
  4.2067154999999996  4.2067154999999996  1.4022387500000000
  2.8044769999999999  2.8044769999999999  2.8044775000000000
  1.4022384999999999  4.2067154999999996  1.4022387500000000
  4.2067154999999996  1.4022384999999999  4.2067162499999995
  2.8044769999999999  0.0000000000000000  0.0000000000000000
  0.0000000000000000  0.0000000000000000  0.0000000000000000
  0.0000000000000000  2.8044769999999999  2.8044775000000000
  2.8044769999999999  0.0000000000000000  2.8044775000000000
  2.8044769999999999  2.8044769999999999  0.0000000000000000
