La Si Os
 1.0000000000000000
     3.9500579999999998    0.0003750000000000   -1.5210619999999999
    -0.5857300000000000    3.9063919999999999   -1.5210619999999999
    -0.0195470000000000   -0.0226990000000000    5.8354540000000004
 La  Si  Os 
   1   2   2
Cartesian
 -0.6052770000000000  3.8836930000000001  4.3143920000000007
  1.2024733278909998  1.3963508227670001  3.1196814637780004
  2.1423076721089997  2.4877171772329998 -0.3263514637779997
  2.8068228293159998  0.9651118061810000  1.3966650000000003
  0.5379581706840000  2.9189561938189996  1.3966650000000003
