Zn Se
 1.0000000000000000
     5.7398150000000001    0.0000000000000000    0.0000000000000000
     0.0000000000000000    5.7398150000000001    0.0000000000000000
     0.0000000000000000    0.0000000000000000    5.7398150000000001
 Zn  Se 
   4   4
Cartesian
  0.0000000000000000  0.0000000000000000  0.0000000000000000
  0.0000000000000000  2.8699075000000001  2.8699075000000001
  2.8699075000000001  0.0000000000000000  2.8699075000000001
  2.8699075000000001  2.8699075000000001  0.0000000000000000
  1.4349537500000000  1.4349537500000000  1.4349537500000000
  1.4349537500000000  4.3048612500000001  4.3048612500000001
  4.3048612500000001  1.4349537500000000  4.3048612500000001
  4.3048612500000001  4.3048612500000001  1.4349537500000000
