Mn Co Si
 1.0000000000000000
     3.4200580000000000    0.0000000000000000    1.9745710000000001
     1.1400189999999999    3.2244630000000001    1.9745710000000001
     0.0000000000000000    0.0000000000000000    3.9491440000000000
 Mn  Co  Si 
   1   2   1
Cartesian
  0.0000000000000000  0.0000000000000000  0.0000000000000000
  3.4200577499999998  2.4183472500000001  5.9237145000000000
  1.1400192499999999  0.8061157500000000  1.9745715000000001
  2.2800384999999999  1.6122315000000000  3.9491430000000003
