Na
 1.0000000000000000
     4.1945720000000000    0.0000000000000000    0.0000000000000000
     0.0000000000000000    4.1945720000000000    0.0000000000000000
     0.0000000000000000    0.0000000000000000    4.1945720000000000
 Na 
   2
Cartesian
  0.0000000000000000  0.0000000000000000  0.0000000000000000
  2.0972860000000000  2.0972860000000000  2.0972860000000000
