Mn P 
 1.0000000000000000
     6.0769500000000001   -0.0000880000000000    0.0000000000000000
    -3.0385520000000001    5.2628959999999996    0.0000000000000000
     0.0000000000000000    0.0000000000000000    3.2383760000000001
 Mn  P  
   6   3
Cartesian
  0.6213519085399997  5.2627377440799998  1.6191880000000001
  1.2085866137840000  2.0931924125919998  1.6191880000000001
  4.2469820581539999  3.1694805902959997  1.6191880000000001
 -0.7757970196900000  1.3437226066319998  0.0000000000000000
  2.2626889119559999  3.9193289004319998  0.0000000000000000
  1.5513177179720001  0.0000512153760000  0.0000000000000000
  3.0385587191520003  1.7541908784639999  0.0000000000000000
 -0.0000695619759999  3.5084171318399995  0.0000000000000000
 -0.0000303862900000  0.0001052574800000  1.6191880000000001
