Fe P 
 1.0000000000000000
     3.0491419999999998    0.0000000000000000    0.0000000000000000
     0.0000000000000000    5.1526740000000002    0.0000000000000000
     0.0000000000000000    0.0000000000000000    5.7655469999999998
 Fe  P  
   4   4
Cartesian
  0.7622854999999999  2.5809125745120003  1.7189113548449999
  2.2868564999999998  2.5717614254879999  4.0466356451549998
  0.7622854999999999  0.0045755745120000  1.1638621451550000
  2.2868564999999998  5.1480984254880005  4.6016848548449998
  0.7622854999999999  3.5599103291640000  5.3788229349750001
  2.2868564999999998  1.5927636708360000  0.3867240650250000
  0.7622854999999999  0.9835733291640001  3.2694975650250000
  2.2868564999999998  4.1691006708360003  2.4960494349749998
