Rb In
 1.0000000000000000
     4.6392910000000001    0.0000000000000000   -1.6927440000000000
    -0.6176320000000000    4.5979919999999996   -1.6927440000000000
     0.0212180000000000    0.0242580000000000    7.2619579999999999
 Rb  In 
   1   4
Cartesian
  0.0000000000000000  0.0000000000000000  0.0000000000000000
  1.5689072978950003  1.7937425948279999  4.2998898835480004
  2.4739697021050007  2.8285074051720001 -0.4234198835480001
  0.7072077500000000  3.4606229999999996  1.9382349999999999
  3.3356692500000000  1.1616270000000000  1.9382349999999999
