Al Zn Ir
 1.0000000000000000
     0.0000000000000000    2.9990809999999999    2.9990809999999999
     2.9990809999999999    0.0000000000000000    2.9990809999999999
     2.9990809999999999    2.9990809999999999    0.0000000000000000
 Al  Zn  Ir 
   1   1   2
Cartesian
  1.4995404999999999  1.4995404999999999  1.4995404999999999
  4.4986274981619996  4.4986274981619996  4.4986274981619996
  0.0000000000000000  0.0000000000000000  0.0000000000000000
  2.9990869981619999  2.9990869981619999  2.9990869981619999
