Th N 
 1.0000000000000000
     3.1657730000000002    0.0000000000000000    1.8277600000000001
     1.0552569999999999    2.9847199999999998    1.8277600000000001
     0.0000000000000000    0.0000000000000000    3.6555190000000000
 Th  N  
   1   1
Cartesian
  2.1105149999999999  1.4923599999999999  3.6555195000000000
  0.0000000000000000  0.0000000000000000  0.0000000000000000
