Ta Al Ru
 1.0000000000000000
     0.0000000000000000    3.0764100000000001    3.0764100000000001
     3.0764100000000001    0.0000000000000000    3.0764100000000001
     3.0764100000000001    3.0764100000000001    0.0000000000000000
 Ta  Al  Ru 
   1   1   2
Cartesian
  4.6146150000000006  4.6146150000000006  4.6146150000000006
  1.5382050000000000  1.5382050000000000  1.5382050000000000
  0.0000000000000000  0.0000000000000000  0.0000000000000000
  3.0764038471800004  3.0764038471800004  3.0764038471800004
