Sm Sn Pt
 1.0000000000000000
     7.5541720000000003   -0.0000060000000000    0.0000000000000000
    -3.7770929999999998    6.5421139999999998    0.0000000000000000
     0.0000000000000000    0.0000000000000000    4.0857349999999997
 Sm  Sn  Pt 
   3   3   3
Cartesian
  1.5410406778420003  2.6691669797839999  0.0000000000000000
  4.4720849323440008 -0.0000035520120000  0.0000000000000000
 -2.2360428330929998  3.8729380301139997  0.0000000000000000
 -0.9662861480039999  1.6736559403919999  2.0428674999999998
  2.8107964335880000  4.8684535945759997  2.0428674999999998
  1.9325687144160000 -0.0000015349680000  2.0428674999999998
 -0.0000084437550001  4.3614095140400000  2.0428674999999998
  0.0000000000000000  0.0000000000000000  0.0000000000000000
  3.7770874437550006  2.1806984859599998  2.0428674999999998
