Na Pd O 
 1.0000000000000000
     2.9876420000000001    0.0000000000000000   -0.6373720000000000
    -0.4369520000000000    5.0479440000000002   -2.0481840000000000
    -0.0111030000000000   -0.0100650000000000    7.2688319999999997
 Na  Pd  O  
   2   3   4
Cartesian
  2.2485229154230000  1.5007019327850002  3.2189239270079999
  0.2910640845770001  3.5371770672150005  1.3643520729919996
  0.2704871043840000  0.5378554304640001  1.2678911054080000
  2.2690998956160002  4.5000235695360002  3.3153848945919995
  1.2753450000000002  2.5239720000000001 -1.3427780000000000
  1.4582292798820002  4.3860225132239998 -0.4855340243320002
  1.0813577201179998  0.6518564867760001  5.0688100243320005
  0.8600467755419999  3.2085795474480006  4.0314294065400000
  1.6795402244580002  1.8292994525520001  0.5518465934600000
