Hf P 
 1.0000000000000000
     3.6583290000000002   -0.0000000000000000    0.0000000000000000
    -1.8291660000000001    3.1682049999999999    0.0000000000000000
     0.0000000000000000    0.0000000000000000   12.3416610000000002
 Hf  P  
   4   4
Cartesian
 -0.0000028291650001  2.1121377227350000  4.7359889921400002
  1.8291658291649999  1.0560672772649999 10.9068194921400003
  1.8291658291649999  1.0560672772649999  7.6056720078600009
 -0.0000028291650001  2.1121377227350000  1.4348415078600001
  1.8291658291649999  1.0560672772649999  3.0854152500000001
 -0.0000028291650001  2.1121377227350000  9.2562457499999997
  0.0000000000000000  0.0000000000000000  6.1708305000000001
  0.0000000000000000  0.0000000000000000  0.0000000000000000
