Ho Ni B  C 
 1.0000000000000000
    -1.7649319999999999    1.7649319999999999    5.1914680000000004
     1.7649319999999999   -1.7649319999999999    5.1914680000000004
     1.7649319999999999    1.7649319999999999   -5.1914680000000004
 Ho  Ni  B   C  
   1   2   2   1
Cartesian
  0.0000000000000000  0.0000000000000000  0.0000000000000000
  0.0000000000000000  1.7649319999999999  2.5957340000000002
  1.7649319999999999  0.0000000000000000  2.5957340000000002
 -0.0000000000000000  0.0000000000000000  3.7013194082160004
 -0.0000000000000001  0.0000000000000001  6.6816165917840005
  0.0000000000000000  0.0000000000000000  5.1914680000000004
