Sr Sn Hg
 1.0000000000000000
     4.9452980000000002    0.0000000000000000    0.0000000000000000
    -2.4726499999999998    4.2791990000000002    0.0000000000000000
     0.0000000000000000    0.0000000000000000    8.3153939999999995
 Sr  Sn  Hg 
   2   2   2
Cartesian
 -0.0000000003520000  0.0015062780480000  6.2523696947819998
  2.4726480003520011  4.2776927219520005  2.0946726947819996
  2.4726486665979999  1.4266935049980001  8.0623898221559998
 -0.0000006665979998  2.8525054950020001  3.9046928221559996
  2.4726486665680003  1.4268218809680000  4.5611848630619996
  0.0000018060820003  2.8523728398330004  0.4034878630620000
