Sc Fe Si
 1.0000000000000000
     8.2928099999999993    0.0000000000000000  -14.3395410000000005
     0.0000000000000000    3.9843920000000002    0.0000000000000000
    -0.0021150000000000    0.0000000000000000    9.8674780000000002
 Sc  Fe  Si 
   8   4   8
Cartesian
  7.6508627269649994  0.0000000000000000 -5.9545433732999999
  2.7250085102399999  0.0000000000000000 -1.4605860512750002
  0.6398322730350000  0.0000000000000000  1.4824803733000000
  5.5656864897600000  0.0000000000000000 -3.0114769487250008
  3.5044577269649997  1.9921960000000001  1.2152271267000001
  6.8714135102399991  1.9921960000000001 -8.6303565512749998
  4.7862372730349998  1.9921960000000001 -5.6872901267000007
  1.4192814897599997  1.9921960000000001  4.1582935512750003
  7.0974369550799992  1.9921960000000001 -11.4326335062600002
  1.1932580449199999  1.9921960000000001  6.9605705062599998
  2.9510319550799999  0.0000000000000000 -4.2628630062600008
  5.3396630449200000  0.0000000000000000 -0.2091999937399998
  7.1883870875699989  1.9921960000000001 -3.9455969111729998
  7.6177966558949990  0.0000000000000000 -10.4874566353420011
  1.1023079124299997  1.9921960000000001 -0.5264660888270000
  0.6728983441049999  0.0000000000000000  6.0153936353420008
  3.0419820875699997  0.0000000000000000  3.2241735888270004
  3.4713916558949998  1.9921960000000001 -3.3176861353419995
  5.2487129124300003  0.0000000000000000 -7.6962365888270003
  4.8193033441049993  1.9921960000000001 -1.1543768646579993
