Tl As S 
 1.0000000000000000
    11.4962750000000007    0.0000000000000000    0.0000000000000000
     0.0000000000000000    6.1962809999999999   -0.0513350000000000
     0.0000000000000000    3.3255900000000000   12.1391580000000001
 Tl  As  S  
   8   8  16
Cartesian
  3.6492395807000002  5.3994597337260002  0.6200920391340000
  9.3973770807000019  2.4596162662740002  5.3981519608660005
  7.8470354193000000  4.1224112662739998 11.4677309608659996
  2.0988979193000001  7.0622547337260002  6.6896710391339997
  0.6584491506250000  2.0075893650659999  1.2680990696420000
  6.4065866506250000  5.8514866349340000  4.7501449303580001
 10.8378258493750010  7.5142816349340000 10.8197239303580002
  5.0896883493749998  3.6703843650660000  7.3376780696420001
  3.8437220648750001  2.4359851598250000  3.6599682330409999
 10.4674618539750011  4.9938011799690001  7.7376931079690001
  4.7193243539750007  6.1908648200309999 10.4197088920310001
  1.0288131460250001  4.5280698200309999  4.3501298920310001
  6.7769506460250000  3.3310061799690001  1.6681141079690001
  7.6525529351250006  7.0858858401750000  8.4278547669589994
  1.9044154351250000  4.0987801598250000  9.7295472330410000
  9.5918595648750014  5.4230908401750000  2.3582757669590002
  9.0471890479250003  3.1788383736029999  2.0658148636510001
  5.3422385185750008  6.7891202061720000  8.2521076137880005
 11.0903760185750002  4.3955457938280000  9.9052943862119989
  6.1540364814249999  2.7327507938280000  3.8357153862120001
  0.4058989814250000  5.1263252061719999  2.1825286137880000
  8.1972234520750007  4.8416333736029999  8.1353938636510001
  2.4490859520750003  6.3430326263970001 10.0220081363489992
  3.2990515479250004  4.6802376263970000  3.9524291363489996
  3.6100947643250003  2.1769214387279998  1.5066723714640002
  9.3582322643250020  5.6821545612720001  4.5115716285360001
  7.8861802356749999  7.3449495612720002 10.5811506285359993
 10.8208113623750002  7.1635289170980005  7.8420657642020002
  6.4236011376250008  5.5007339170980005  1.7724867642020001
  0.6754636376250001  2.3583420829020003  4.2457572357980000
  5.0726738623749998  4.0211370829020003 10.3153362357980001
  2.1380427356750000  3.8397164387279998  7.5762513714640010
