Fe Ni Pt
 1.0000000000000000
     3.8579129999999999    0.0000000000000000    0.0000000000000000
     0.0000000000000000    3.8579129999999999    0.0000000000000000
     0.0000000000000000    0.0000000000000000    3.6396269999999999
 Fe  Ni  Pt 
   1   1   2
Cartesian
  0.0000000000000000  0.0000000000000000  0.0000000000000000
  1.9289565000000000  1.9289565000000000  0.0000000000000000
  1.9289565000000000  0.0000000000000000  1.8198135000000000
  0.0000000000000000  1.9289565000000000  1.8198135000000000
