Pr Sn Au
 1.0000000000000000
     0.0000000000000000    3.5812650000000001    3.5812650000000001
     3.5812650000000001    0.0000000000000000    3.5812650000000001
     3.5812650000000001    3.5812650000000001    0.0000000000000000
 Pr  Sn  Au 
   1   1   2
Cartesian
  1.7906396625299998  1.7906396625299998  1.7906396625299998
  5.3719046625300004  5.3719046625300004  5.3719046625300004
  3.5812650000000001  3.5812650000000001  3.5812650000000001
  0.0000000000000000  0.0000000000000000  0.0000000000000000
