Pr Si Ag
 1.0000000000000000
     0.0000000000000000    0.0000000000000000    4.2574649999999998
     4.2824669999999996    0.0000000000000000    0.0000000000000000
    -2.1412339999999999    8.7396980000000006    0.0000000000000000
 Pr  Si  Ag 
   2   4   2
Cartesian
 -0.0000004023669999  7.0331321303320005  1.0643662500000000
  2.1412334023669999  1.7065658696680002  3.1930987499999999
 -0.0000021731760000  0.5583356067300000  1.0643662500000000
  2.1412351731759998  8.1813623932700015  3.1930987499999999
 -0.0000001650840001  2.8855686092640003  1.0643662500000000
  2.1412331650839995  5.8541293907360004  3.1930987499999999
  2.1412353932589996  4.3344444834019997  1.0643662500000000
 -0.0000023932590000  4.4052535165980009  3.1930987499999999
