Al B  Pb O 
 1.0000000000000000
     7.0396340000000004    0.0000000000000000    0.0000000000000000
     0.0000000000000000    9.3949429999999996    0.0000000000000000
     0.0000000000000000    0.0000000000000000    9.8299459999999996
 Al  B   Pb  O  
   8   8   8  32
Cartesian
  3.5198170000000002  0.0000000000000000  4.9149729999999998
  0.0000000000000000  7.0462072500000001  8.2005833007699991
  0.0000000000000000  2.3487357499999999  1.6293626992300001
  3.5198170000000002  7.0462072500000001  3.2856103007700002
  0.0000000000000000  0.0000000000000000  0.0000000000000000
  3.5198170000000002  2.3487357499999999  6.5443356992299995
  3.5198170000000002  4.6974714999999998  4.9149729999999998
  0.0000000000000000  4.6974714999999998  0.0000000000000000
  5.4788133891540003  2.3741772556439997  8.9044467541539998
  5.0806376108459999  2.3741772556439997  3.9894737541540000
  5.0806376108459999  7.0716487556440004  5.8404722458459997
  5.4788133891540003  7.0716487556440004  0.9254992458460000
  1.5608206108460001  2.3232942443560001  8.9044467541539998
  1.5608206108460001  7.0207657443559990  0.9254992458460000
  1.9589963891540001  7.0207657443559990  5.8404722458459997
  1.9589963891540001  2.3232942443560001  3.9894737541540000
  4.0077833099779996  5.1602851820659996  8.1590616088660006
  3.0318506900219999  4.2346578179340000  1.6708843911339999
  3.0318506900219999  8.9321293179339989  8.1590616088660006
  6.5516676900220006  5.1602851820659996  3.2440886088659999
  4.0077833099779996  0.4628136820660000  1.6708843911339999
  0.4879663099780001  4.2346578179340000  6.5858573911339997
  6.5516676900220006  0.4628136820660000  6.5858573911339997
  0.4879663099780001  8.9321293179339989  3.2440886088659999
  2.3402277684240000  8.3349679509680001  5.9834193205780002
  4.7250375389700006  2.9603465392999997  7.9116418680459999
  5.8600447684240002  1.0599750490319999  8.7614996794220001
  4.6994062315760008  1.0599750490319999  3.8465266794219999
  5.8880625117440006  7.7994749898539997  9.6595438860899989
  4.6994062315760008  5.7574465490320001  5.9834193205780002
  2.3402277684240000  3.6374964509679999  3.8465266794219999
  2.8110666488800002  8.7293018935069995  3.3730869902239999
  6.3308836488800004  0.6656411064929999  1.5418860097759999
  5.8600447684240002  5.7574465490320001  1.0684463205779999
  5.8344134610299996  2.9603465392999997  2.9966688680459996
  0.7087503511200001  8.7293018935069995  8.2880599902239993
  4.6713884882559995  7.7994749898539997  4.7445708860900000
  2.3145964610300003  6.4345964606999990  1.9183041319539997
  1.2052205389700001  1.7371249607000001  2.9966688680459996
  1.2052205389700001  6.4345964606999990  6.8332771319539996
  2.3145964610300003  1.7371249607000001  7.9116418680459999
  0.7087503511200001  4.0318303935069997  1.5418860097759999
  4.7250375389700006  7.6578180393000004  1.9183041319539997
  4.6713884882559995  3.1020034898540003  5.0853751139099996
  4.2285673511200006  0.6656411064929999  6.4568590097760001
  5.8880625117440006  3.1020034898540003  0.1704021139100000
  2.3682455117440000  6.2929395101459997  4.7445708860900000
  2.3682455117440000  1.5954680101459999  5.0853751139099996
  1.1795892315759999  3.6374964509679999  8.7614996794220001
  5.8344134610299996  7.6578180393000004  6.8332771319539996
  1.1515714882560002  1.5954680101459999  0.1704021139100000
  4.2285673511200006  5.3631126064929999  3.3730869902239999
  6.3308836488800004  5.3631126064929999  8.2880599902239993
  1.1515714882560002  6.2929395101459997  9.6595438860899989
  1.1795892315759999  8.3349679509680001  1.0684463205779999
  2.8110666488800002  4.0318303935069997  6.4568590097760001
