Y  Pd O 
 1.0000000000000000
     5.1431690000000003    0.0000210000000000   -2.5623740000000002
    -1.2766090000000001    4.9822249999999997   -2.5623520000000002
     0.0012190000000000    0.0015430000000000    6.4452900000000000
 Y   Pd  O  
   2   4   8
Cartesian
  0.1644725000000000  1.8687227499999999  0.3301437500000000
  3.7033065000000005  3.1150662499999995  0.9904202499999997
  2.5721940000000001  0.0007820000000000  1.9414579999999999
  1.9332800000000001  2.4911230000000000 -2.5623630000000004
  0.0006095000000000  0.0007715000000000  3.2226450000000000
  2.5715845000000002  0.0000105000000000 -1.2811870000000001
  3.4974362083880002  3.0749559504359998 -1.4313570686560000
  3.3682499063669997  1.6609030781029999  2.7642074045939999
  0.5759096019100001  0.1076814079900000  5.1524689199160001
  2.3787778801110000  1.1832135178609999  0.3403803931879997
  0.3703427916120001  1.9088330495639998  2.7519210686559994
  0.4995290936329999  3.3228859218969995 -1.4436434045940001
  1.4890011198890001  3.8005754821389997  0.9801836068119996
  3.2918693980900007  4.8761075920099994 -3.8319049199160005
