Sc Sn Au
 1.0000000000000000
     3.9632580000000002   -0.0000000000000000    2.2881879999999999
     1.3210850000000001    3.7365960000000000    2.2881879999999999
     0.0000000000000000    0.0000000000000000    4.5763769999999999
 Sc  Sn  Au 
   1   1   1
Cartesian
  2.6421714999999999  1.8682980000000000  4.5763765000000003
  0.0000000000000000  0.0000000000000000  0.0000000000000000
  1.3210857499999999  0.9341490000000000  2.2881882500000001
