Li Zn P  S 
 1.0000000000000000
    -2.9101300000000001    2.9101300000000001    4.5457700000000001
     2.9101300000000001   -2.9101300000000001    4.5457700000000001
     2.9101300000000001    2.9101300000000001   -4.5457700000000001
 Li  Zn  P   S  
   1   1   1   4
Cartesian
  0.0000000000000000  0.0000000000000000  4.5457700000000001
  0.0000000000000000  0.0000000000000000  0.0000000000000000
  2.9101300000000001  0.0000000000000000  2.2728850000000000
  1.2961398905699999  1.6951943769500000  5.7716596162900000
  1.2149356230500001  4.2062640703100005 -1.2258896162900002
  1.6951972870799998 -1.2961369804399998  3.3198758379399997
  1.6139930195599999  1.2149327129200000  1.2258941620600001
