Sm S 
 1.0000000000000000
     3.4672529999999999   -0.0000000000000000    2.0018199999999999
     1.1557500000000001    3.2689580000000000    2.0018199999999999
    -0.0000000000000000   -0.0000000000000000    4.0036399999999999
 Sm  S  
   1   1
Cartesian
  2.3115014999999999  1.6344790000000000  4.0036399999999999
  0.0000000000000000  0.0000000000000000  0.0000000000000000
