Cr Ge Te
 1.0000000000000000
     7.4654400000000001   -3.4517869999999999   -0.0181490000000000
     7.4654230000000004    3.4518230000000001   -0.0180900000000000
     5.8834070000000001   -0.0000360000000000    5.7474749999999997
 Cr  Ge  Te 
   2   2   6
Cartesian
 13.8655092175799997 -0.0000000000000001  3.8045627063440000
  6.9487607824199991  0.0000000000000000  1.9066732936559998
 19.6650517104900011  0.0000000000000001  5.3959015267319996
  1.1492182895100000  0.0000000000000000  0.3153344732680000
  8.1319756341030001  1.2786531935810002  4.0902888581979999
  8.5505071796150016 -2.1918428520679996  2.5649769389569999
  9.1365367792420003  0.9131896584870002  0.4292254765730000
 12.6822943658969987 -1.2786531935809997  1.6209471418020001
 12.2637628203849989  2.1918428520680000  3.1462590610429997
 11.6777332207580002 -0.9131896584869998  5.2820105234269992
