Sb Pt
 1.0000000000000000
     4.2191640000000001    0.0000000000000000    0.0000000000000000
    -2.1095820000000001    3.6539039999999998    0.0000000000000000
     0.0000000000000000    0.0000000000000000    5.5665110000000002
 Sb  Pt 
   2   2
Cartesian
 -0.0000021095820002  2.4359372179680001  1.3916277500000001
  2.1095841095820003  1.2179667820319999  4.1748832500000006
  0.0000000000000000  0.0000000000000000  2.7832555000000001
  0.0000000000000000  0.0000000000000000  0.0000000000000000
