Ba Co N 
 1.0000000000000000
     6.2291699999999999   -0.0255090000000000    0.0352610000000000
     2.9474060000000000    5.2691340000000002    0.0000000000000000
     6.5635279999999998   -3.6714540000000002    5.0750780000000004
 Ba  Co  N  
   2   4   4
Cartesian
  1.6408820000000000 -0.9178635000000001  1.2687695000000001
  4.9226460000000003 -2.7535905000000001  3.8063085000000001
 10.2057901905959998  0.2949918058259999  3.2340118773099999
  5.5343138094039999  1.2771791941740003  1.8763271226900000
  8.0372375635280005 -1.9508953887900002  4.4138661226900009
  7.7028664364719992  3.5230663887899998  0.6964728773100000
  6.7369543317760003  2.0158242693660000  0.8552924619700001
  9.0031496682239993 -0.4436532693659998  4.2550465380300002
  4.7554735635279997 -0.3347057873100002  1.7175075380300002
 10.9846304364720009  1.9068767873099999  3.3928314619700006
