Mg Ge N 
 1.0000000000000000
     5.1744380000000003    0.0000000000000000    0.0000000000000000
     0.0000000000000000    5.5009949999999996    0.0000000000000000
     0.0000000000000000    0.0000000000000000    6.6089300000000000
 Mg  Ge  N  
   4   4   8
Cartesian
  5.1728028775920007  3.2197433754899998  5.7963157939899999
  2.5855838775920001  5.0317491245100001  2.4918507939900003
  2.5855838775920001  2.2812516245099999  0.8126142060100000
  5.1728028775920007  0.4692458754900000  4.1170792060099997
  0.0392274144780000  0.4042131126000000  0.8315421815299999
  2.6264464144780000  5.0967818873999997  5.7773878184700003
  2.6264464144780000  2.3462843873999999  4.1360071815300001
  0.0392274144780000  3.1547106125999997  2.4729228184699998
  2.0989538558820002  3.3043981875449995  5.6581561123399995
  4.6861728558819999  2.1965968124550002  0.9507738876599999
  4.6861728558819999  4.9470943124549995  2.3536911123399999
  2.0989538558820002  0.5539006875450000  4.2552388876600000
  1.8995154920480000  3.0790004184149997  2.5990344207300002
  1.8995154920480000  0.3285029184150000  0.7054305792700000
  4.4867344920479999  5.1724920815849993  5.9034994207300002
  4.4867344920479999  2.4219945815849999  4.0098955792700002
