Ta Nb Os
 1.0000000000000000
     0.0000000000000000    3.2247200000000000    3.2247200000000000
     3.2247200000000000    0.0000000000000000    3.2247200000000000
     3.2247200000000000    3.2247200000000000    0.0000000000000000
 Ta  Nb  Os 
   2   1   1
Cartesian
  0.0000000000000000  0.0000000000000000  0.0000000000000000
  3.2247135505600002  3.2247135505600002  3.2247135505600002
  1.6123600000000000  1.6123600000000000  1.6123600000000000
  4.8370864494400001  4.8370864494400001  4.8370864494400001
