Pu Si
 1.0000000000000000
     4.0315430000000001    0.0000000000000000    0.0000000000000000
    -2.0157720000000001    3.4914179999999999    0.0000000000000000
     0.0000000000000000    0.0000000000000000    4.0040750000000003
 Pu  Si 
   1   2
Cartesian
  0.0000000000000000  0.0000000000000000  0.0000000000000000
  2.0157733491049998  1.1638048361939999  2.0020375000000001
 -0.0000023491050000  2.3276131638059998  2.0020375000000001
