Ge Se
 1.0000000000000000
     5.6680789999999996    0.0000000000000000    0.0000000000000000
     0.0000000000000000    5.6680789999999996    0.0000000000000000
     0.0000000000000000    0.0000000000000000    5.6680789999999996
 Ge  Se 
   4   4
Cartesian
  0.0000000000000000  0.0000000000000000  0.0000000000000000
  0.0000000000000000  2.8340394999999998  2.8340394999999998
  2.8340394999999998  0.0000000000000000  2.8340394999999998
  2.8340394999999998  2.8340394999999998  0.0000000000000000
  0.0000000000000000  0.0000000000000000  2.8340394999999998
  0.0000000000000000  2.8340394999999998  0.0000000000000000
  2.8340394999999998  0.0000000000000000  0.0000000000000000
  2.8340394999999998  2.8340394999999998  2.8340394999999998
