Na Ho F 
 1.0000000000000000
    -2.6826279999999998    2.6826279999999998    5.3029560000000000
     2.6826279999999998   -2.6826279999999998    5.3029560000000000
     2.6826279999999998    2.6826279999999998   -5.3029560000000000
 Na  Ho  F  
   2   2   8
Cartesian
  0.0000000000000000  0.0000000000000000  0.0000000000000000
 -0.0000000000000002  2.6826280000000002  2.6514780000000000
  0.0000000000000000  0.0000000000000000  5.3029560000000000
  2.6826279999999998  0.0000000000000000  2.6514780000000000
  1.3413139999999999  3.9325877860879994 -1.3257389999999998
 -1.2499597860879996  1.3413139999999997  6.6286949999999996
  1.4326682139119999  1.3413139999999999  1.3257389999999998
  1.3413139999999999 -1.2499597860879998  3.9772170000000000
  3.9325877860879994  1.3413139999999999  1.3257390000000002
  1.2499597860880001  1.3413139999999997  6.6286949999999996
  1.3413139999999999  1.4326682139119999 -1.3257390000000002
  1.3413139999999999  1.2499597860879998  3.9772170000000000
