Na Zn P 
 1.0000000000000000
     4.0287839999999999    0.0000000000000000    0.0000000000000000
     0.0000000000000000    4.0287839999999999    0.0000000000000000
     0.0000000000000000    0.0000000000000000    6.8370040000000003
 Na  Zn  P  
   2   2   2
Cartesian
  3.0215879999999999  3.0215879999999999  4.4044253248160006
  1.0071960000000000  1.0071960000000000  2.4325786751840002
  3.0215879999999999  1.0071960000000000  0.0000000000000000
  1.0071960000000000  3.0215879999999999  0.0000000000000000
  1.0071960000000000  1.0071960000000000  5.3855353988159997
  3.0215879999999999  3.0215879999999999  1.4514686011840001
