Ca Tl Cd
 1.0000000000000000
     0.0000000000000000    3.8313540000000001    3.8313540000000001
     3.8313540000000001    0.0000000000000000    3.8313540000000001
     3.8313540000000001    3.8313540000000001    0.0000000000000000
 Ca  Tl  Cd 
   2   1   1
Cartesian
  3.8313540000000001  3.8313540000000001  3.8313540000000001
  0.0000000000000000  0.0000000000000000  0.0000000000000000
  5.7470309999999998  5.7470309999999998  5.7470309999999998
  1.9156693372920002  1.9156693372920002  1.9156693372920002
