Sm P  Ru
 1.0000000000000000
     3.7809270000000001    0.0000000000000000   -1.4544580000000000
    -0.5595050000000000    3.7392989999999999   -1.4544580000000000
     0.0056970000000000    0.0066130000000000    5.6563780000000001
 Sm  P   Ru 
   1   2   2
Cartesian
  0.0000000000000000  0.0000000000000000  0.0000000000000000
  2.0279382272630002  2.3539503698869995 -0.3698640659779999
  1.1991807727370001  1.3919616301129998  3.1173260659780002
  2.6986675000000000  0.9381312500000000  1.3737310000000000
  0.5284515000000001  2.8077807500000000  1.3737310000000000
