Sm Mg Ag
 1.0000000000000000
     0.0000200000000000    3.5223670000000000    3.5223670000000000
     3.5223670000000000    0.0000200000000000    3.5223670000000000
     3.5223659999999999    3.5223659999999999    0.0000200000000000
 Sm  Mg  Ag 
   1   1   2
Cartesian
  5.2835577052469995  5.2835577052469995  5.2835584552460002
  1.7611882500000000  1.7611882500000000  1.7611885000000000
  3.5223835447530001  3.5223835447530001  3.5223840447540002
  7.0447530000000000  7.0447530000000000  7.0447540000000002
