Na H  F 
 1.0000000000000000
     3.1947709999999998    0.0032730000000000    3.8114309999999998
     1.3883770000000000    2.8773200000000001    3.8114309999999998
     0.0052080000000000    0.0032730000000000    4.9732820000000002
 Na  H   F  
   1   1   2
Cartesian
  0.0000000000000000  0.0000000000000000  0.0000000000000000
  2.2941779999999996  1.4419330000000001  6.2980719999999994
  2.6746398911639995  1.6810602848539999  7.3425316643359997
  1.9137161088360000  1.2028057151459999  5.2536123356639992
