Hf Al C 
 1.0000000000000000
     1.6654739999999999   -0.9615620000000000   13.6581679999999999
     0.0000000000000000    1.9231240000000001   13.6581679999999999
    -1.6654739999999999   -0.9615620000000000   13.6581679999999999
 Hf  Al  C  
   2   4   5
Cartesian
 -0.0000000000000000 -0.0000000000000000 14.9933085546720015
 -0.0000000000000001  0.0000000000000001 25.9811954453280016
 -0.0000000000000001  0.0000000000000000 37.3521529738800027
  0.0000000000000000 -0.0000000000000000  7.7606939811119995
  0.0000000000000001 -0.0000000000000000 33.2138100188879974
  0.0000000000000000 -0.0000000000000000  3.6223510261200000
 -0.0000000000000000  0.0000000000000000 10.9516654291200002
 -0.0000000000000000 -0.0000000000000000 30.0228385708800012
  0.0000000000000000  0.0000000000000000  0.0000000000000000
  0.0000000000000000  0.0000000000000000  5.5680253485600009
  0.0000000000000000  0.0000000000000000 35.4064786514400041
