Th B  Ru
 1.0000000000000000
     5.5210070000000000    0.0000000000000000    0.0000000000000000
    -2.7605029999999999    4.7813319999999999    0.0000000000000000
     0.0000000000000000    0.0000000000000000    3.0761319999999999
 Th  B   Ru 
   1   2   3
Cartesian
  0.0000000000000000  0.0000000000000000  0.0000000000000000
 -0.0000024271700001  3.1875562604440000  0.0000000000000000
  2.7605064271700002  1.5937757395559999  0.0000000000000000
  2.7605035000000000  0.0000000000000000  1.5380659999999999
  1.3802520000000000  2.3906660000000000  1.5380659999999999
 -1.3802515000000000  2.3906660000000000  1.5380659999999999
