Hf Sb
 1.0000000000000000
     5.3302690000000004    0.0000010000000000    1.8984580000000000
     2.6652629999999999    7.9112780000000003    0.9488770000000000
     0.0106180000000000   -0.0006170000000000    8.4019589999999997
 Hf  Sb 
  12   4
Cartesian
  3.5458081733500006  5.2941763535269999  6.4823894767669996
  1.9223987512089999  4.9170033058860003  3.4627383010649995
  1.0251761521889999  2.9926767787599999  5.9844290418910004
  4.1893561800950003  2.6174666008309999  4.6702963517739997
  5.1343482925819997  0.2313763309030000  6.8605348168929998
  4.0247740890939996  4.7407095867760010  9.5848540986379991
  1.1927367101360000  3.1705926868719998  0.6714495046540000
  5.6615090600470008  7.6790330815650005  5.3816764976100000
  3.2506818556369996  7.7248595303070005  2.7350151628939998
  4.1829784186650008  1.4866893743290002  1.6871318721379998
  6.9836533923240003  6.4244795360430000 10.6878755194449990
  1.5944388922399999  0.1849554372200000  7.3875138688959998
  1.6599903062070001  2.0299922750220003  3.3143137780909999
  3.5011145211690002  2.5650269665230003  7.4887085132799998
  4.7914742500759999  5.3469799605830008  3.8632013019729996
  6.0584839281080001  5.8793009305349999  7.8337378393709995
