Mg Co P 
 1.0000000000000000
     6.5041669999999998   -0.0000380000000000    0.0000000000000000
    -3.2521170000000001    5.6328490000000002    0.0000000000000000
     0.0000000000000000    0.0000000000000000    3.3503810000000001
 Mg  Co  P  
   1   6   4
Cartesian
  3.2519784545649992  5.6327434064580002  0.0000000000000000
 -1.3062619292189999  4.5093865865489997  1.6751905000000000
 -0.0000231192330000  2.2469077229070002  1.6751905000000000
  3.2521038956989994  0.3982953076570000  0.0000000000000000
  4.5331937084829992  2.6172229119999999  0.0000000000000000
  1.9709551687029998  2.6172604129640002  0.0000000000000000
  1.3061887795999996  4.5093825892049999  1.6751905000000000
  4.6963796080689999  1.0437472264559999  1.6751905000000000
  1.8078205059329999  1.0437528369380000  1.6751905000000000
 -0.0000450979289999  3.7552218777430002  0.0000000000000000
  3.2520916836170000  3.5453236316390004  1.6751905000000000
