Mg Ir
 1.0000000000000000
     7.9120480000000004    0.0000000000000000    0.0000000000000000
    -3.9560240000000002    6.8520349999999999    0.0000000000000000
     0.0000000000000000    0.0000000000000000    8.2827400000000004
 Mg  Ir 
  18   6
Cartesian
  1.4718822454639999  2.5493749941349999  7.5537263561600003
  3.9560279560240001  2.2840093826549999  5.7758444979000005
  0.0000000000000000  0.0000000000000000  6.6917250388800005
  4.9682835090720001  0.0000000000000000  7.5537263561600003
 -0.0000039560240000  4.5680256173449996  1.6344744979000001
  2.8229910342320004  4.8895642117550002  0.5849685124999999
 -2.4841417545360001  4.3026600058650004  7.5537263561600003
  3.9560279560240001  2.2840093826549999  1.6344744979000001
 -1.4718822454639999  2.5493749941349999  3.4123563561600001
  1.1330329657680001  1.9624707882450001  4.7263385125000008
  2.4841417545360001  4.3026600058650004  3.4123563561600001
 -1.1330329657680001  1.9624707882450001  0.5849685124999999
  2.2660659315360001  0.0000000000000000  0.5849685124999999
  5.6459820684640007  0.0000000000000000  4.7263385125000008
 -2.8229910342320004  4.8895642117550002  4.7263385125000008
  2.9437644909279999  0.0000000000000000  3.4123563561600001
  0.0000000000000000  0.0000000000000000  2.5503550388800003
 -0.0000039560240000  4.5680256173449996  5.7758444979000005
 -1.2976826846480001  2.2476524849450001  6.1361105569400003
 -2.6583413153520001  4.6043825150550006  1.9947405569400001
  1.2976826846480001  2.2476524849450001  1.9947405569400001
  2.6583413153520001  4.6043825150550006  6.1361105569400003
  2.5953653692960001  0.0000000000000000  6.1361105569400003
  5.3166826307040003  0.0000000000000000  1.9947405569400001
