Np Se
 1.0000000000000000
     3.5817830000000002    0.0000000000000000    2.0679430000000001
     1.1939280000000001    3.3769369999999999    2.0679430000000001
     0.0000000000000000    0.0000000000000000    4.1358860000000002
 Np  Se 
   1   1
Cartesian
  0.0000000000000000  0.0000000000000000  0.0000000000000000
  2.3878555000000001  1.6884684999999999  4.1358860000000002
