Sc Si Pt
 1.0000000000000000
     4.1612190000000000    0.0000000000000000    0.0000000000000000
     0.0000000000000000    6.6134139999999997    0.0000000000000000
     0.0000000000000000    0.0000000000000000    7.3324340000000001
 Sc  Si  Pt 
   4   4   4
Cartesian
  3.1209142500000002  3.3136775383560000  1.4701896791700000
  1.0403047500000000  6.6064434616440000  5.1364066791700003
  3.1209142500000002  0.0069639249420000  2.1960273208300003
  1.0403047500000000  3.2997430750579997  5.8622443208299995
  1.0403047500000000  5.3320650374999996  0.6843947246920000
  1.0403047500000000  2.0253580375000002  2.9818222753080001
  3.1209142500000002  1.2813489625000001  6.6480392753080002
  3.1209142500000002  4.5880559624999995  4.3506117246920004
  1.0403047500000000  4.6225912104080003  3.0530715364860002
  1.0403047500000000  1.3158842104080000  0.6131454635140000
  3.1209142500000002  5.2975297895919997  6.7192885364860002
  3.1209142500000002  1.9908227895920001  4.2793624635139995
