Tm Se O 
 1.0000000000000000
     3.7554340000000002    0.0000080000000000   -0.0000010000000000
    -1.8777100000000000    3.2522989999999998    0.0000030000000000
    -0.0000000000000000    0.0000080000000000    6.6987019999999999
 Tm  Se  O  
   2   1   2
Cartesian
 -0.0000366430839998  2.1682151801299998  1.9587088301880002
  1.8776930452719998  1.0840998197180001  4.7399884711280000
  3.7547580218800003  0.0000079985600000 -0.0000009998200000
 -0.0000047219299998  2.1682015812829993  4.1882043233169997
  1.8777174556280001  1.0841134186929999  2.5104996766859999
