Nd Co Ge
 1.0000000000000000
     3.7409770000000000    0.0000000000000000   -1.3816690000000000
    -0.5102960000000000    3.7060089999999999   -1.3816690000000000
     0.0357540000000000    0.0410140000000000    5.8521340000000004
 Nd  Co  Ge 
   1   2   2
Cartesian
  0.0000000000000000  0.0000000000000000  0.0000000000000000
  2.6960357499999996  0.9470092500000000  1.5443980000000002
  0.5703992500000000  2.8000137499999997  1.5443980000000002
  2.0543962472509998  2.3566581114830001 -0.1928918881300002
  1.2120387527490000  1.3903648885169999  3.2816878881300005
