Ba P  Pt
 1.0000000000000000
     6.5871680000000001    0.0000000000000000    0.0000000000000000
     0.0000000000000000    6.5871680000000001    0.0000000000000000
     0.0000000000000000    0.0000000000000000    6.5871680000000001
 Ba  P   Pt 
   4   4   4
Cartesian
  4.2088775807680001  2.3782904192320000  5.6718744192320001
  2.3782904192320000  5.6718744192320001  4.2088775807680001
  0.9152935807679999  0.9152935807679999  0.9152935807679999
  5.6718744192320001  4.2088775807680001  2.3782904192320000
  3.8510757893439997  6.0296762106560005  0.5574917893440000
  0.5574917893440000  3.8510757893439997  6.0296762106560005
  6.0296762106560005  0.5574917893440000  3.8510757893439997
  2.7360922106559999  2.7360922106559999  2.7360922106559999
  0.9918759959360000  2.3017080040639999  4.2854599959359998
  4.2854599959359998  0.9918759959360000  2.3017080040639999
  5.5952920040640004  5.5952920040640004  5.5952920040640004
  2.3017080040639999  4.2854599959359998  0.9918759959360000
