Sc Sb Pd
 1.0000000000000000
     6.3826799999999997    0.0000000000000000    0.0000000000000000
     0.0000000000000000    6.3826799999999997    0.0000000000000000
     0.0000000000000000    0.0000000000000000    6.3826799999999997
 Sc  Sb  Pd 
   4   4   4
Cartesian
  3.1913399999999998  0.0000000000000000  0.0000000000000000
  3.1913399999999998  3.1913399999999998  3.1913399999999998
  0.0000000000000000  0.0000000000000000  3.1913399999999998
  0.0000000000000000  3.1913399999999998  0.0000000000000000
  0.0000000000000000  0.0000000000000000  0.0000000000000000
  0.0000000000000000  3.1913399999999998  3.1913399999999998
  3.1913399999999998  0.0000000000000000  3.1913399999999998
  3.1913399999999998  3.1913399999999998  0.0000000000000000
  1.5956699999999999  1.5956699999999999  1.5956699999999999
  1.5956699999999999  4.7870099999999995  4.7870099999999995
  4.7870099999999995  1.5956699999999999  4.7870099999999995
  4.7870099999999995  4.7870099999999995  1.5956699999999999
