Al Cr
 1.0000000000000000
    -1.8994160000000000    1.8994160000000000    4.0214410000000003
     1.8994160000000000   -1.8994160000000000    4.0214410000000003
     1.8994160000000000    1.8994160000000000   -4.0214410000000003
 Al  Cr 
   3   1
Cartesian
 -0.0000000000000003  1.8994235976640002  2.0107124571180002
  1.8994235976639999 -0.0000000000000002  2.0107124571180002
  0.0000000000000000  0.0000000000000000  4.0214410000000003
  0.0000000000000000  0.0000000000000000  0.0000000000000000
