Ba Ga N 
 1.0000000000000000
     8.0799350000000008    0.0000180000000000    0.0000000000000000
    -4.0399779999999996    6.9974270000000001    0.0000000000000000
     0.0000000000000000    0.0000000000000000    5.7913870000000003
 Ba  Ga  N  
   6   2   6
Cartesian
  4.9429258560660010  4.4649909539400001  1.4478467500000001
  5.4352907485290007  0.4842486744920000  1.4478467500000001
  1.7416955952530002  2.0482163741770001  1.4478467500000001
 -0.9029688560659999  2.5324540460600002  4.3435402500000002
 -1.3953337485289994  6.5131963255079999  4.3435402500000002
  2.2982614047470005  4.9492286258230003  4.3435402500000002
  4.0399599600360006  2.3324853341790002  4.3435402500000002
 -0.0000029600359994  4.6649596658209997  1.4478467500000001
  4.8478740930940010  4.0702233928120002  4.3435402500000002
  5.1409302168380009  0.7639495305260000  4.3435402500000002
  2.1310715301980001  2.1632900766259997  4.3435402500000002
 -0.8079130531159998  2.9272146097610001  1.4478467500000001
 -1.1009772568159999  6.2335024669010002  1.4478467500000001
  1.9088693099320009  4.8341549233379997  1.4478467500000001
