Bi Au O 
 1.0000000000000000
     8.6517529999999994    0.0000000000000000    0.0000000000000000
     0.0000000000000000    8.6517529999999994    0.0000000000000000
     0.0000000000000000    0.0000000000000000    5.7652939999999999
 Bi  Au  O  
   8   4  20
Cartesian
  3.0473117899069999  5.6044412100930003  1.4413235000000000
  7.3731882899069987  1.2785647100929998  4.3239704999999997
  5.6044412100930003  5.6044412100930003  4.3239704999999997
  5.6044412100930003  3.0473117899069999  1.4413235000000000
  7.3731882899069987  7.3731882899069987  1.4413235000000000
  1.2785647100929998  7.3731882899069987  4.3239704999999997
  3.0473117899069999  3.0473117899069999  4.3239704999999997
  1.2785647100929998  1.2785647100929998  1.4413235000000000
  4.3258764999999997  0.0000000000000000  2.3018166906760000
  4.3258764999999997  0.0000000000000000  5.1844636906760000
  0.0000000000000000  4.3258764999999997  0.5808303093240000
  0.0000000000000000  4.3258764999999997  3.4634773093239999
  0.6948136316769999  2.4680163642860000  3.5438800994480002
  7.9569393683229999  2.4680163642860000  0.6612330994480000
  7.9569393683229999  6.1837366357139993  3.5438800994480002
  6.1837366357139993  7.9569393683229999  5.1040609005519997
  1.8578601357139999  5.0206901316769992  3.5438800994480002
  3.6310628683229997  6.7938928642859997  5.1040609005519997
  3.6310628683229997  1.8578601357139999  2.2214139005519997
  6.7938928642859997  5.0206901316769992  0.6612330994480000
  2.4680163642860000  7.9569393683229999  2.2214139005519997
  5.0206901316769992  1.8578601357139999  5.1040609005519997
  4.3258764999999997  4.3258764999999997  0.0000000000000000
  4.3258764999999997  4.3258764999999997  2.8826470000000000
  6.7938928642859997  3.6310628683229997  3.5438800994480002
  0.6948136316769999  6.1837366357139993  0.6612330994480000
  2.4680163642860000  0.6948136316769999  5.1040609005519997
  5.0206901316769992  6.7938928642859997  2.2214139005519997
  1.8578601357139999  3.6310628683229997  0.6612330994480000
  0.0000000000000000  0.0000000000000000  0.0000000000000000
  0.0000000000000000  0.0000000000000000  2.8826470000000000
  6.1837366357139993  0.6948136316769999  2.2214139005519997
