Li Be N 
 1.0000000000000000
     4.3741300000000001    0.0000000000000000   -1.0944410000000000
     0.0000000000000000    4.7170350000000001    0.0000000000000000
     0.0198210000000000    0.0000000000000000    4.8623550000000000
 Li  Be  N  
   4   4   4
Cartesian
  1.0496604561540002  2.1603595766849999  4.1811470129670001
  1.1671360438459999  4.5188770766850004  2.5651649870330000
  3.3442905438460007  2.5566754233149998 -0.4132330129670001
  3.2268149561539996  0.1981579233150000  1.2027490129670002
  3.0270599678300001  2.8580609405700002  2.1921987986689997
  3.5638665321700000  0.4995434405700000  3.4596722013310002
  1.3668910321700001  1.8589740594300002  1.5757152013310001
  0.8300844678299999  4.2174915594300000  0.3082417986690000
  4.1837986771499995  3.7893687457950000  2.8458647002170001
  2.4071278228499997  1.4308512457950002  2.8060062997829998
  0.2101523228500000  0.9276662542050000  0.9220492997830000
  1.9868231771500002  3.2861837542050001  0.9619077002170001
