Mn Be Rh
 1.0000000000000000
     0.0000000000000000    2.7652939999999999    2.7652939999999999
     2.7652939999999999    0.0000000000000000    2.7652939999999999
     2.7652939999999999    2.7652939999999999    0.0000000000000000
 Mn  Be  Rh 
   1   2   1
Cartesian
  1.3826525305879998  1.3826525305879998  1.3826525305879998
  2.7652939999999999  2.7652939999999999  2.7652939999999999
  0.0000000000000000  0.0000000000000000  0.0000000000000000
  4.1479465305880003  4.1479465305880003  4.1479465305880003
