As Se
 1.0000000000000000
     4.4905429999999997    0.0000000000000000   -0.0356270000000000
     0.0000000000000000   10.3767209999999999    0.0000000000000000
    -0.0018120000000000    0.0000000000000000   12.0540210000000005
 As  Se 
   8  12
Cartesian
  0.5239464974889999  8.3285326788570000  8.8751619128629997
  1.7186070025109998  3.1401721788570001  9.1880560871370012
  3.9647845025109998  2.0481883211429999  3.1432320871370001
  2.7701239974889997  7.2365488211429998  2.8303379128630004
  2.8007928209629998  7.0364545101000004  6.1863639813850000
  3.9323036790369996  1.8480940101000001 11.8412270186150010
  1.6879381790369998  3.3402664899000003  5.8320300186149998
  0.5564273209630000  8.5286269898999993  0.1771669813850000
  2.1005244791440001  9.0873926623079999  7.2048902600840004
  0.1420290208560000  3.8990321623080004 10.8583277399160014
  2.3882065208559999  1.2893283376919999  4.8135037399160003
  4.3467019791439991  6.4776888376919999  1.1600662600839999
  4.3551996747870003  6.2220583158569998  7.8707536249289998
  2.3778968252129995  1.0336978158570000 10.1568373750710013
  0.1335313252130000  4.1546626841430001  4.1476403750710000
  2.1108341747870001  9.3430231841430000  1.8615566249289999
  1.9251350025919998  7.3302609884939995 10.5974354459020006
  0.3174184974080000  2.1419004884939996  7.4657825540979994
  2.5635959974079996  3.0464600115060003  1.4209585540980001
  4.1713125025919995  8.2348205115059994  4.5526114459020004
