Al Ir Os
 1.0000000000000000
     0.0000000000000000    2.9937090000000000    2.9937090000000000
     2.9937090000000000    0.0000000000000000    2.9937090000000000
     2.9937090000000000    2.9937090000000000    0.0000000000000000
 Al  Ir  Os 
   2   1   1
Cartesian
  0.0000000000000000  0.0000000000000000  0.0000000000000000
  2.9937090000000000  2.9937090000000000  2.9937090000000000
  1.4968545000000000  1.4968545000000000  1.4968545000000000
  4.4905694874180000  4.4905694874180000  4.4905694874180000
