Tm Cu Pb
 1.0000000000000000
     2.2673530000000000   -3.9271710000000000    0.0000000000000000
     2.2673530000000000    3.9271710000000000    0.0000000000000000
     0.0000000000000000    0.0000000000000000    7.2768309999999996
 Tm  Cu  Pb 
   2   2   2
Cartesian
  0.0000000000000000  0.0000000000000000  7.2317655856169996
  0.0000000000000000  0.0000000000000000  3.5933500856169998
  2.2673530000000000 -1.3090596181140000  2.3901260797669996
  2.2673530000000000  1.3090596181140000  6.0285415797669994
  2.2673530000000000 -1.3090596181140000  5.2679526499849993
  2.2673530000000000  1.3090596181140000  1.6295371499849998
