Ho Se
 1.0000000000000000
     3.4953759999999998    0.0000000000000000    2.0180560000000001
     1.1651260000000001    3.2954720000000002    2.0180560000000001
    -0.0000000000000000   -0.0000000000000000    4.0361130000000003
 Ho  Se 
   1   1
Cartesian
  0.0000000000000000  0.0000000000000000  0.0000000000000000
  2.3302510000000001  1.6477360000000001  4.0361124999999998
