Ba Mg Si
 1.0000000000000000
     4.6513700000000000    0.0000000000000000    0.0000000000000000
     0.0000000000000000    4.6513700000000000    0.0000000000000000
     0.0000000000000000    0.0000000000000000    7.8856279999999996
 Ba  Mg  Si 
   2   2   2
Cartesian
  1.1628425000000000  1.1628425000000000  1.2684426919400000
  3.4885275000000000  3.4885275000000000  6.6171853080599998
  1.1628425000000000  3.4885275000000000  3.9428139999999998
  3.4885275000000000  1.1628425000000000  3.9428139999999998
  1.1628425000000000  1.1628425000000000  5.5326433467079994
  3.4885275000000000  3.4885275000000000  2.3529846532919998
