Sr Ni Sn
 1.0000000000000000
     4.4060699999999997   -0.0000000000000000   -1.7598009999999999
    -0.7028720000000001    4.3496459999999999   -1.7598009999999999
     0.0050420000000000    0.0059230000000000    6.4083329999999998
 Sr  Ni  Sn 
   1   1   3
Cartesian
  3.7066507102619997  4.3537022755010000  2.8847454482749999
  2.4410193866639998  2.8671357037130001 -0.2840565484210000
  1.5984973536839999  1.8775394435749999  4.0022158161170003
  3.1298961751320000  1.0886589277209999  1.4407053455150001
  0.5754251751319999  3.2634819277210001  1.4407053455150001
