Er Sb
 1.0000000000000000
     3.7604739999999999   -0.0000000000000000    2.1711109999999998
     1.2534909999999999    3.5454080000000001    2.1711109999999998
    -0.0000000000000000   -0.0000000000000000    4.3422229999999997
 Er  Sb 
   1   1
Cartesian
  0.0000000000000000  0.0000000000000000  0.0000000000000000
  2.5069824999999999  1.7727040000000001  4.3422225000000001
