Sr Ta Bi O 
 1.0000000000000000
     5.5378090000000002    0.0000000000000000    0.0000000000000000
     0.0000000000000000    5.4061480000000000   -1.1896070000000001
     0.0000000000000000   -0.0152620000000000   12.8095219999999994
 Sr  Ta  Bi  O  
   2   4   4  18
Cartesian
  0.0795229372400000  4.0494913778439994 -0.8910786921710000
  2.8484274372400002  1.3566566221559999 -0.2985283078290000
  0.0998909987420000  1.7928913571019998  1.7541104610910001
  2.8687954987420001  4.5151896193900001  1.1550767185990001
  0.0998909987420000  0.8756963806100000 10.4648382814010006
  2.8687954987420001  3.5979946428980001  9.8658045389089999
  5.1776465160670000  5.2880696398580005  3.9554988445490000
  2.4087420160669999  0.1028163601420000  7.6644161554510006
  2.4087420160669999  2.2669249222780001  4.6202928723939998
  5.1776465160670000  3.1239610777219995  6.9996221276060000
  4.4163749884549999  3.2572585441479998  1.4513077098400000
  1.6474704884550002  2.1336274558519999 10.1686072901600006
  1.6474704884550002  3.0589772539519999  1.4949389257789998
  4.4163749884549999  2.3319087460480001 10.1249760742209993
  4.2627617046040003  0.4282065094340000  1.6416883145359999
  1.4938572046040000  4.9626794753039993  9.9782394949859992
  1.4938572046040000  0.3004700444900000  1.6697963487320000
  4.2627617046040003  5.0904159402480005  9.9501314607899989
  3.9698891378300001  1.4311772657580000  6.1109888538899995
  1.2009846378300000  3.9597087342419997  5.5089261461100003
  2.9617254715710004  3.8134913930519998 -0.8391475881930001
  0.1928209715710000  1.5926566069479999 -0.3504594118070000
  2.9726404931100001  5.2685271555619995  2.8704812191699993
  0.2037359931100000  0.1223588444380000  8.7494337808299996
  0.2037359931100000  1.8292006717379998  3.6272949172859996
  2.9726404931100001  3.5616853282620000  7.9926200827139997
  3.9698891378300001  4.1246611220179998  5.4726288573259998
  1.2009846378300000  1.2662248779820000  6.1472861426739991
