Mg Sc Ag
 1.0000000000000000
     0.0000000000000000    3.3568199999999999    3.3568199999999999
     3.3568199999999999    0.0000000000000000    3.3568199999999999
     3.3568199999999999    3.3568199999999999    0.0000000000000000
 Mg  Sc  Ag 
   1   1   2
Cartesian
  1.6784100000000000  1.6784100000000000  1.6784100000000000
  5.0352232863599999  5.0352232863599999  5.0352232863599999
  0.0000000000000000  0.0000000000000000  0.0000000000000000
  3.3568267136400003  3.3568267136400003  3.3568267136400003
