Rb Zn F 
 1.0000000000000000
     4.1228129999999998    0.0000000000000000    0.0000000000000000
     0.0000000000000000    4.1228129999999998    0.0000000000000000
    -2.0614059999999998   -2.0614059999999998    6.8412689999999996
 Rb  Zn  F  
   2   1   4
Cartesian
  0.0000003529869999  0.0000003529869999  4.8297580410059995
  2.0614066470129995  2.0614066470129995  2.0115109589940001
  0.0000000000000000  0.0000000000000000  0.0000000000000000
 -0.0000019136679999 -0.0000019136679999  2.0214376403129997
  2.0614089136679996  2.0614089136679996  4.8198313596869999
  0.0000000000000000  2.0614064999999999  0.0000000000000000
  2.0614064999999999  0.0000000000000000  0.0000000000000000
