Er Cd In
 1.0000000000000000
     0.0000000000000000    3.6945130000000002    3.6945130000000002
     3.6945130000000002    0.0000000000000000    3.6945130000000002
     3.6945130000000002    3.6945130000000002    0.0000000000000000
 Er  Cd  In 
   2   1   1
Cartesian
  0.0000000000000000  0.0000000000000000  0.0000000000000000
  3.6945130000000002  3.6945130000000002  3.6945130000000002
  1.8472565000000001  1.8472565000000001  1.8472565000000001
  5.5417695000000000  5.5417695000000000  5.5417695000000000
