Mg Pt Rh
 1.0000000000000000
     0.0000000000000000    3.1015190000000001    3.1015190000000001
     3.1015190000000001    0.0000000000000000    3.1015190000000001
     3.1015190000000001    3.1015190000000001    0.0000000000000000
 Mg  Pt  Rh 
   2   1   1
Cartesian
  3.1015190000000001  3.1015190000000001  3.1015190000000001
  0.0000000000000000  0.0000000000000000  0.0000000000000000
  1.5507657030380000  1.5507657030380000  1.5507657030380000
  4.6522847030380001  4.6522847030380001  4.6522847030380001
