Li Ga Pd
 1.0000000000000000
     3.7448120000000000    0.0000000000000000    2.1620689999999998
     1.2482709999999999    3.5306430000000000    2.1620689999999998
     0.0000000000000000    0.0000000000000000    4.3241370000000003
 Li  Ga  Pd 
   1   2   1
Cartesian
  2.4965415000000002  1.7653215000000000  4.3241375000000000
  1.2482707500000001  0.8826607500000000  2.1620687500000000
  3.7448122499999998  2.6479822500000001  6.4862062500000004
  0.0000000000000000  0.0000000000000000  0.0000000000000000
