Gd C 
 1.0000000000000000
     3.3160769999999999   -0.0000000000000000   -1.6920400000000000
    -0.8633700000000000    3.2017120000000001   -1.6920400000000000
    -0.0019210000000000   -0.0025080000000000    4.0916959999999998
 Gd  C  
   1   2
Cartesian
  0.0000000000000000  0.0000000000000000  0.0000000000000000
  1.4791718737349999  1.9308796983440000 -1.1965638284320002
  0.9716141262650000  1.2683243016560000  1.9041798284319997
