Ba Y  Nb O 
 1.0000000000000000
    -4.2824070000000001   -4.2824070000000001    0.0000000000000000
    -4.2824070000000001    0.0000000000000000   -4.2824070000000001
     0.0000000000000000   -4.2824070000000001   -4.2824070000000001
 Ba  Y   Nb  O  
   2   1   1   6
Cartesian
 -6.4236105000000006 -6.4236105000000006 -6.4236105000000006
 -2.1412035000000000 -2.1412035000000000 -2.1412035000000000
  0.0000000000000000  0.0000000000000000  0.0000000000000000
 -4.2824070000000001 -4.2824070000000001 -4.2824070000000001
 -4.2824070000000001 -4.2824070000000001 -2.2556893687380004
 -4.2824070000000001 -2.2556893687380004 -4.2824070000000001
 -4.2824070000000001 -6.3091246312619997 -4.2824070000000001
 -6.3091246312619997 -4.2824070000000001 -4.2824070000000001
 -4.2824070000000001 -4.2824070000000001 -6.3091246312619997
 -2.2556893687380004 -4.2824070000000001 -4.2824070000000001
