Ge As
 1.0000000000000000
     3.7357659999999999    0.0000000000000000    0.0000000000000000
     0.0000000000000000   10.5974470000000007    0.0000000000000000
     0.0000000000000000    0.0000000000000000   15.2722540000000002
 Ge  As 
   8  16
Cartesian
  0.0000000000000000  6.1167192390360006 13.0027970556000003
  0.0000000000000000  4.4807277609640002  2.2694569444000003
  0.0000000000000000  0.8179957390360001  9.9055839444000000
  0.0000000000000000  9.7794512609640005  5.3666700556000002
  1.8678830000000000  8.4042417586680003 11.1425296126220008
  1.8678830000000000  2.1932052413320000  4.1297243873780003
  1.8678830000000000  3.1055182586680004 11.7658513873779995
  1.8678830000000000  7.4919287413320008  3.5064026126219998
  0.0000000000000000  6.8826391235140001 10.6877218885020007
  0.0000000000000000  3.7148078764860006  4.5845321114979996
  0.0000000000000000  1.5839156235140002 12.2206591114979997
  0.0000000000000000  9.0135313764860001  3.0515948885020001
  0.0000000000000000  8.0665223176719998 14.5092369179059997
  0.0000000000000000  2.5309246823280001  0.7630170820940000
  0.0000000000000000  2.7677988176720003  8.3991440820940007
  0.0000000000000000  7.8296481823280013  6.8731099179060005
  1.8678830000000000  9.3517065077030015 13.4693185985380008
  1.8678830000000000  1.2457404922970001  1.8029354014620000
  1.8678830000000000  4.0529830077030002  9.4390624014619995
  1.8678830000000000  6.5444639922969996  5.8331915985379998
  1.8678830000000000  9.9804848305540013  9.2573531233700006
  1.8678830000000000  0.6169621694460000  6.0149008766300005
  1.8678830000000000  4.6817719280009999 13.6510278766299997
  1.8678830000000000  5.9156856694460007  1.6212261233700000
