Sc Ga Ni
 1.0000000000000000
     3.6680109999999999    0.0000000000000000    2.1177269999999999
     1.2226710000000001    3.4582340000000000    2.1177269999999999
     0.0000000000000000    0.0000000000000000    4.2354539999999998
 Sc  Ga  Ni 
   1   1   2
Cartesian
  2.4453410000000000  1.7291170000000000  4.2354539999999998
  0.0000000000000000  0.0000000000000000  0.0000000000000000
  1.2226705000000000  0.8645585000000000  2.1177269999999999
  3.6680115000000000  2.5936754999999998  6.3531809999999993
