Mo C  N 
 1.0000000000000000
     2.8104909999999999    0.0000000000000000    0.0000000000000000
     0.0000000000000000    2.8999190000000001    0.0000000000000000
     0.0000000000000000    0.0000000000000000    5.0061349999999996
 Mo  C   N  
   2   1   1
Cartesian
  1.4052454999999999  1.4499595000000001  0.8316541891449999
  1.4052454999999999  0.0000000000000000  3.3418704499249996
  0.0000000000000000  0.0000000000000000  4.9990363005699994
  0.0000000000000000  1.4499595000000001  2.5082538558600000
