Sr I  F 
 1.0000000000000000
     4.2761089999999999    0.0000000000000000    0.0000000000000000
     0.0000000000000000    4.2761089999999999    0.0000000000000000
     0.0000000000000000    0.0000000000000000    8.9787999999999997
 Sr  I   F  
   2   2   2
Cartesian
  1.0690272500000000  1.0690272500000000  1.3272731524000001
  3.2070817500000000  3.2070817500000000  7.6515268475999996
  1.0690272500000000  1.0690272500000000  6.0459198740000000
  3.2070817500000000  3.2070817500000000  2.9328801260000001
  1.0690272500000000  3.2070817500000000  0.0000000000000000
  3.2070817500000000  1.0690272500000000  0.0000000000000000
