Fe I 
 1.0000000000000000
     4.0375649999999998    0.0000000000000000    0.0000000000000000
    -2.0187810000000002    3.4966349999999999    0.0000000000000000
     0.0000000000000000    0.0000000000000000    7.0406009999999997
 Fe  I  
   1   2
Cartesian
  0.0000000000000000  0.0000000000000000  0.0000000000000000
 -0.0000010187820002  2.3310911655450002  1.5993358825589998
  2.0187850187819998  1.1655438344550000  5.4412651174409996
