Bi Ru O 
 1.0000000000000000
     0.0000000000000000    5.1405440000000002    5.1405440000000002
     5.1405440000000002    0.0000000000000000    5.1405440000000002
     5.1405440000000002    5.1405440000000002    0.0000000000000000
 Bi  Ru  O  
   4   4  14
Cartesian
  3.8554080000000002  3.8554080000000002  1.2851360000000001
  3.8554079999999997  1.2851360000000001  3.8554080000000002
  1.2851360000000001  3.8554079999999997  3.8554079999999997
  1.2851360000000001  1.2851360000000001  1.2851360000000001
  3.8554079999999997  3.8554079999999997  6.4256799999999998
  3.8554080000000002  6.4256799999999998  3.8554079999999997
  6.4256799999999998  3.8554080000000002  3.8554080000000002
  6.4256799999999998  6.4256799999999998  6.4256799999999998
  2.5702720000000001  2.5702720000000001  2.5702720000000001
  0.0000000000000000  0.0000000000000000  0.0000000000000000
  7.7108160000000003  5.6158592604160011  7.7108160000000003
  5.1405439999999993  3.0455872604160001  5.1405440000000002
  7.7108160000000003  7.7108160000000003  5.6158592604160011
  5.6158592604160011  7.7108160000000003  7.7108160000000003
  9.8057727395840004  7.7108160000000003  7.7108160000000003
  7.7108160000000003  7.7108160000000003  9.8057727395840004
  7.7108160000000003  9.8057727395840004  7.7108160000000003
  3.0455872604160001  5.1405439999999993  5.1405439999999993
  7.2355007395839994  5.1405440000000002  5.1405440000000002
  5.1405440000000002  7.2355007395839994  5.1405439999999993
  5.1405440000000002  5.1405440000000002  3.0455872604160001
  5.1405439999999993  5.1405439999999993  7.2355007395839994
