Mg Al Se
 1.0000000000000000
     3.8872870000000002    0.0000000000000000    0.0000000000000000
    -1.9436439999999999    3.3664879999999999    0.0000000000000000
     0.0000000000000000    0.0000000000000000   16.3359740000000002
 Mg  Al  Se 
   2   2   5
Cartesian
 -0.0000022769769999  2.2443264554960001  9.7498156983940003
  1.9436452769770003  1.1221615445039999  6.5861583016059999
 -0.0000022769769999  2.2443264554960001  2.8746903527019998
  1.9436452769770003  1.1221615445039999 13.4612836472980000
  1.9436452769770003  1.1221615445039999  1.8255287585260001
 -0.0000022769769999  2.2443264554960001 14.5104452414740006
  1.9436452769770003  1.1221615445039999 11.1747373665180003
 -0.0000022769769999  2.2443264554960001  5.1612366334819999
  0.0000000000000000  0.0000000000000000  8.1679870000000001
