Lu Sb
 1.0000000000000000
     3.7224050000000002   -0.0000000000000000    2.1491300000000000
     1.2408010000000000    3.5095179999999999    2.1491300000000000
    -0.0000000000000000   -0.0000000000000000    4.2982620000000002
 Lu  Sb 
   1   1
Cartesian
  0.0000000000000000  0.0000000000000000  0.0000000000000000
  2.4816030000000002  1.7547590000000000  4.2982610000000001
