Cd Ga S 
 1.0000000000000000
     5.0576119999999998   -0.0000040000000000   -2.3836290000000000
    -1.1233900000000001    4.9312680000000002   -2.3836320000000000
    -0.0433040000000000   -0.0542730000000000    6.4655810000000002
 Cd  Ga  S  
   1   2   4
Cartesian
  0.0000000000000000  0.0000000000000000  0.0000000000000000
  0.4002084999999999  3.6713135000000001  0.8491592500000000
  1.9671109999999998  2.4656320000000003 -2.3836304999999998
  3.4098656779999996  4.2400880071059994 -2.3730442600490003
  2.8128896286620000  0.6105040758260000  2.9879739084310004
 -0.0084831467040002  2.9046254615700002  2.9624533807000004
  1.5675638400419996  1.9987644554980000 -0.1807430290819998
