Mg Rh
 1.0000000000000000
     3.2211680000000000    0.0000000000000000    0.0000000000000000
     0.0000000000000000    3.2211680000000000    0.0000000000000000
     0.0000000000000000    0.0000000000000000   10.0268460000000008
 Mg  Rh 
   4   2
Cartesian
  1.6105840000000000  1.6105840000000000  1.4449186428300003
  1.6105840000000000  1.6105840000000000  8.5819273571700005
  0.0000000000000000  0.0000000000000000  6.4583416428300007
  0.0000000000000000  0.0000000000000000  3.5685043571700006
  0.0000000000000000  0.0000000000000000  0.0000000000000000
  1.6105840000000000  1.6105840000000000  5.0134230000000004
