Pm Ir Pd
 1.0000000000000000
     0.0000000000000000    3.5350269999999999    3.5350269999999999
     3.5350269999999999    0.0000000000000000    3.5350269999999999
     3.5350269999999999    3.5350269999999999    0.0000000000000000
 Pm  Ir  Pd 
   2   1   1
Cartesian
  0.0000000000000000  0.0000000000000000  0.0000000000000000
  3.5350340700539999  3.5350340700539999  3.5350340700539999
  1.7675135000000000  1.7675135000000000  1.7675135000000000
  5.3025405000000001  5.3025405000000001  5.3025405000000001
