Ac Ag
 1.0000000000000000
     3.9478520000000001    0.0000000000000000    0.0000000000000000
     0.0000000000000000    3.9478520000000001    0.0000000000000000
     0.0000000000000000    0.0000000000000000    3.9478520000000001
 Ac  Ag 
   1   1
Cartesian
  0.0000000000000000  0.0000000000000000  0.0000000000000000
  1.9739299478520003  1.9739299478520003  1.9739299478520003
