Mg P 
 1.0000000000000000
     5.1030660000000001    0.0000000000000000    0.0000000000000000
     0.0000000000000000    5.1090549999999997   -0.7899880000000000
     0.0000000000000000    0.0074650000000000    7.5460960000000004
 Mg  P  
   2   8
Cartesian
  0.0000000000000000  0.0000000000000000  0.0000000000000000
  2.5515330000000001  0.0037325000000000  3.7730480000000002
  1.4991889356120001  3.8140953249899998  5.0423354687760007
  4.0507219356119997  1.3061571750100001  5.4868205312239997
  3.6038770643880000  1.3024246750099999  1.7137725312240000
  1.0523440643880000  3.8103628249899999  1.2692874687760001
  4.5530014127939999  3.0798038109299997  2.5445418463520002
  2.0014684127939999  2.0329836890699999  0.4385181536480000
  0.5500645872060000  2.0367161890699998  4.2115661536480005
  3.1015975872059998  3.0835363109299996  6.3175898463519999
