Ba As Pd
 1.0000000000000000
     4.3691190000000004    0.0000000000000000    0.0000000000000000
    -2.1845590000000001    3.7837670000000001    0.0000000000000000
     0.0000000000000000    0.0000000000000000    4.7935699999999999
 Ba  As  Pd 
   1   1   1
Cartesian
  0.0000000000000000  0.0000000000000000  0.0000000000000000
  2.1845618512260003  1.2612544054110000  2.3967849999999999
 -0.0000018512259999  2.5225125945890001  2.3967849999999999
