Na Hg Pd
 1.0000000000000000
     0.0000000000000000    3.2629109999999999    3.2629109999999999
     3.2629109999999999    0.0000000000000000    3.2629109999999999
     3.2629109999999999    3.2629109999999999    0.0000000000000000
 Na  Hg  Pd 
   1   1   2
Cartesian
  4.8943665000000003  4.8943665000000003  4.8943665000000003
  1.6314554999999999  1.6314554999999999  1.6314554999999999
  0.0000000000000000  0.0000000000000000  0.0000000000000000
  3.2629109999999999  3.2629109999999999  3.2629109999999999
