Lu Ni Bi
 1.0000000000000000
     3.8860420000000002    0.0000000000000000    2.2436069999999999
     1.2953479999999999    3.6637960000000001    2.2436069999999999
     0.0000000000000000    0.0000000000000000    4.4872150000000000
 Lu  Ni  Bi 
   1   1   1
Cartesian
  2.5906950000000002  1.8318980000000000  4.4872145000000003
  1.2953475000000001  0.9159490000000000  2.2436072500000002
  0.0000000000000000  0.0000000000000000  0.0000000000000000
