Sc Ni Te
 1.0000000000000000
     7.7567360000000001   -0.0000030000000000    0.0000000000000000
    -3.8783699999999999    6.7175289999999999    0.0000000000000000
     0.0000000000000000    0.0000000000000000    3.7602980000000001
 Sc  Ni  Te 
   6   1   2
Cartesian
  1.8354376560000001 -0.0000007098750000  1.8801490000000001
  2.9606398885140002  5.1279914102530002  1.8801490000000001
 -0.9177193012500000  1.5895352996250001  1.8801490000000001
  4.7186862378240004 -0.0000018250020000  0.0000000000000000
  1.5190240977560001  2.6310265383160001  0.0000000000000000
 -2.3593443355799999  4.0865012866860004  0.0000000000000000
  0.0000000000000000  0.0000000000000000  0.0000000000000000
 -0.0000052117020000  4.4783539058440001  1.8801490000000001
  3.8783712117020004  2.2391720941559998  1.8801490000000001
