Be V 
 1.0000000000000000
     7.2206780000000004    0.0000000000000000    0.0000000000000000
     0.0000000000000000    7.2206780000000004    0.0000000000000000
     0.0000000000000000    0.0000000000000000    4.1469290000000001
 Be  V  
  24   2
Cartesian
  1.5307187498980002  0.0000000000000000  2.0734645000000000
  0.0000000000000000  2.5203848765779999  0.0000000000000000
  4.7002931234220000  0.0000000000000000  0.0000000000000000
  2.5203848765779999  0.0000000000000000  0.0000000000000000
  0.0000000000000000  1.5307187498980002  2.0734645000000000
  5.4155085000000005  1.8051695000000001  1.0367322500000000
  5.6899592501020004  0.0000000000000000  2.0734645000000000
  0.0000000000000000  4.7002931234220000  0.0000000000000000
  0.0000000000000000  5.6899592501020004  2.0734645000000000
  5.4155085000000005  5.4155085000000005  3.1101967500000001
  5.4155085000000005  5.4155085000000005  1.0367322500000000
  5.4155085000000005  1.8051695000000001  3.1101967500000001
  5.1410577498980006  3.6103390000000002  0.0000000000000000
  3.6103390000000002  6.1307238765780001  2.0734645000000000
  1.0899541234220000  3.6103390000000002  2.0734645000000000
  6.1307238765780001  3.6103390000000002  2.0734645000000000
  3.6103390000000002  5.1410577498980006  0.0000000000000000
  1.8051695000000001  5.4155085000000005  3.1101967500000001
  2.0796202501020002  3.6103390000000002  0.0000000000000000
  3.6103390000000002  1.0899541234220000  2.0734645000000000
  3.6103390000000002  2.0796202501020002  0.0000000000000000
  1.8051695000000001  1.8051695000000001  1.0367322500000000
  1.8051695000000001  1.8051695000000001  3.1101967500000001
  1.8051695000000001  5.4155085000000005  1.0367322500000000
  0.0000000000000000  0.0000000000000000  0.0000000000000000
  3.6103390000000002  3.6103390000000002  2.0734645000000000
