Zr N 
 1.0000000000000000
     2.8098900000000002    0.0000000000000000    1.6222920000000001
     0.9366300000000000    2.6491899999999999    1.6222920000000001
     0.0000000000000000    0.0000000000000000    3.2445810000000002
 Zr  N  
   1   1
Cartesian
  1.8732600000000001  1.3245950000000000  3.2445824999999999
  0.0000000000000000  0.0000000000000000  0.0000000000000000
