Ga P 
 1.0000000000000000
     3.8801429999999999    0.0000000000000000    0.0000000000000000
    -1.9400710000000001    3.3603019999999999    0.0000000000000000
     0.0000000000000000    0.0000000000000000    6.3939269999999997
 Ga  P  
   2   2
Cartesian
  1.9400736067379998  1.1200995465660000  3.1966310157960001
 -0.0000016067380001  2.2402024534340002  6.3935945157959990
  1.9400736067379998  1.1200995465660000  5.5886246822040002
 -0.0000016067380001  2.2402024534340002  2.3916611822039999
