Lu Ni Te
 1.0000000000000000
    -1.8963129999999999    4.7066229999999996    7.6087930000000004
     1.8963129999999999   -4.7066229999999996    7.6087930000000004
     1.8963129999999999    4.7066229999999996   -7.6087930000000004
 Lu  Ni  Te 
   7   2   2
Cartesian
  1.8963130000000001  1.1570103055980001  2.8221469764579989
 -0.0000018963129999  5.8636380122209992  4.7866536323350006
  0.0000000000000001  9.4072215225599987  0.0000000000000000
  0.0000000000000000  3.9339649418279996  2.0560176092880003
  1.8963129999999999 -0.7726580581719996  5.5527753907120001
 -0.0000000000000000  2.5663991497019998  5.3799188313380002
  0.0000018963130002  2.5663944430790000  9.8376595598689995
  1.8963129999999999  4.0413700786879998 -4.0117361092500010
  1.8963129999999999  4.0413700786879998  4.0117361092500010
  0.0000000000000001  6.2190209950819995  0.0000000000000002
  1.8963129999999999  2.5056178202799999  0.0000000000000005
