Nb S  Br
 1.0000000000000000
     7.1799730000000004    0.0000000000000000    0.0000000000000000
    -3.5899860000000001    6.2180390000000001    0.0000000000000000
     0.0000000000000000    0.0000000000000000    6.5461700000000000
 Nb  S   Br 
   3   1   7
Cartesian
  1.4487250927200006  4.9817809220979994  1.4610593208100000
  0.0000001988180000  2.4725161558040001  1.4610593208100000
 -1.4487242915379999  4.9817809220979994  1.4610593208100000
 -0.0000032566529999  4.1453614060130004  3.1902235801400001
  5.3678521736130005  3.0991265999510000  6.3032416313000006
  3.5899900915770000  0.0197795820590000  6.3032416313000006
  0.0000000000000000  0.0000000000000000  0.0528603227500000
  1.8099707577070001  1.0449911982620002  2.9048302066499998
  5.3699952303779996  1.0449911982620002  2.9048302066499998
  3.5899832419560003  4.1280628215149999  2.9048302066499998
  1.8121285047690001  3.0991265999510000  6.3032416313000006
