Zr Ru
 1.0000000000000000
     3.2822410000000000    0.0000000000000000    0.0000000000000000
     0.0000000000000000    3.2822410000000000    0.0000000000000000
     0.0000000000000000    0.0000000000000000    3.2822410000000000
 Zr  Ru 
   1   1
Cartesian
  1.6411205000000000  1.6411205000000000  1.6411205000000000
  0.0000000000000000  0.0000000000000000  0.0000000000000000
