Ce B  Ir
 1.0000000000000000
     5.5690879999999998   -0.0000200000000000    0.0000000000000000
    -2.7845620000000002    4.8230589999999998    0.0000000000000000
     0.0000000000000000    0.0000000000000000    3.0493290000000002
 Ce  B   Ir 
   1   2   3
Cartesian
  0.0000000000000000  0.0000000000000000  0.0000000000000000
  2.7846493808479993  1.6079173674159999  0.0000000000000000
 -0.0001233808480003  3.2151216325839997  0.0000000000000000
  1.3922629999999998  2.4115194999999998  1.5246645000000001
  2.7845439999999999 -0.0000100000000000  1.5246645000000001
 -1.3922810000000001  2.4115294999999999  1.5246645000000001
