Er Co Si
 1.0000000000000000
     3.9177309999999999    0.0000000000000000    0.0000000000000000
     0.0000000000000000    3.8556849999999998   -0.9450040000000000
     0.0000000000000000   -0.0016320000000000    8.3315750000000008
 Er  Co  Si 
   2   2   4
Cartesian
  0.9794327500000000  3.4343972215749998  5.6743545333570005
  2.9382982499999999  0.4196557784250000  1.7122164666430002
  2.9382982499999999  1.2394085873300000  5.0568816989870014
  0.9794327500000000  2.6146444126700001  2.3296893010130004
  0.9794327500000000  0.9639604841980000  3.9330425915620002
  2.9382982499999999  2.8900925158019999  3.4535284084380007
  2.9382982499999999  1.7614347473560001  7.1867847908630003
  0.9794327500000000  2.0926182526440003  0.1997862091370000
