Er I 
 1.0000000000000000
    11.0343710000000002    0.0017720000000000    0.0000000000000000
    -5.5156549999999998    9.5561089999999993    0.0000000000000000
     0.0000000000000000    0.0000000000000000    3.9565450000000002
 Er  I  
   2   6
Cartesian
 -0.0004748877080001  6.3709315517689999  2.9674047934550001
  5.5186998107530005  3.1866531025319995  0.9891322934550001
  0.0000799627220000  4.0822512081160003  0.9891322934550001
  1.9816858127240000  7.5172960051659992  0.9891322934550001
 -1.9825613202510002  7.5142414705089999  0.9891322934550001
  5.5210084301040006  5.4756492868539990  2.9674047934550001
  3.5358388241620000  2.0427637983179996  2.9674047934550001
  7.5005542674419994  2.0417566854099998  2.9674047934550001
