Li H  Pd
 1.0000000000000000
    -1.5394300000000001    1.5394300000000001    5.1187730000000000
     1.5394300000000001   -1.5394300000000001    5.1187730000000000
     1.5394300000000001    1.5394300000000001   -5.1187730000000000
 Li  H   Pd 
   2   2   1
Cartesian
  0.0000000000000000 -0.0000000000000000  6.6049677903660005
 -0.0000000000000000  0.0000000000000000  3.6325782096340000
 -0.0000000000000000  0.0000000000000000  8.5653554739059992
  0.0000000000000000 -0.0000000000000000  1.6721905260940002
  0.0000000000000000  0.0000000000000000  0.0000000000000000
