Rb Lu O 
 1.0000000000000000
     6.5472919999999997   -1.6884850000000000    0.0039580000000000
     6.5472919999999997    1.6884850000000000    0.0039580000000000
     6.1100989999999999    0.0000000000000000    2.8956360000000001
 Rb  Lu  O  
   1   1   2
Cartesian
  0.0000000000000000  0.0000000000000000  0.0000000000000000
  9.6023414999999996  0.0000000000000000  1.4517760000000000
 14.9042935639080003 -0.0000000000000001  2.2533770219520002
  4.3003894360919999 -0.0000000000000000  0.6501749780480001
