Nb Al C 
 1.0000000000000000
     3.1225689999999999   -0.0000000000000000    0.0000000000000000
    -1.5612860000000000    2.7042240000000000    0.0000000000000000
     0.0000000000000000    0.0000000000000000   13.9380659999999992
 Nb  Al  C  
   4   2   2
Cartesian
 -0.0000025612849999  1.8028169014080000  1.2509274854339998
  1.5612855612849998  0.9014070985920000  8.2199604854339992
  1.5612855612849998  0.9014070985920000 12.6871385145659996
 -0.0000025612849999  1.8028169014080000  5.7181055145659991
 -0.0000025612849999  1.8028169014080000 10.4535494999999994
  1.5612855612849998  0.9014070985920000  3.4845164999999998
  0.0000000000000000  0.0000000000000000  0.0000000000000000
  0.0000000000000000  0.0000000000000000  6.9690329999999996
