Nb Co Si
 1.0000000000000000
     4.8318589999999997    0.0000000000000000    0.0000000000000000
    -2.4159290000000002    4.1845119999999998    0.0000000000000000
     0.0000000000000000    0.0000000000000000    7.5129450000000002
 Nb  Co  Si 
   4   6   2
Cartesian
  2.4159320825959996  1.3948359384959998  7.0604027579249999
 -0.0000020825960004  2.7896760615039997  3.3039302579250003
  2.4159320825959996  1.3948359384959998  4.2090147420750004
 -0.0000020825960004  2.7896760615039997  0.4525422420750000
 -1.1867693852920000  3.4748564254079994  5.6347087499999997
  1.1867750475599999  3.4748564254079994  5.6347087499999997
  3.6026993852919991  0.7096555745919999  1.8782362500000001
  0.0000025855199998  1.4193069646720000  5.6347087499999997
  2.4159274144799991  2.7652050353280000  1.8782362500000001
  1.2291549524399998  0.7096555745919999  1.8782362500000001
  0.0000000000000000  0.0000000000000000  3.7564725000000001
  0.0000000000000000  0.0000000000000000  0.0000000000000000
