Sr Al
 1.0000000000000000
     4.4166280000000002    0.0000000000000000    1.9001020000000000
     2.2008980000000000    5.5957210000000002    0.9672910000000000
    -0.0030640000000000   -0.0304710000000000    6.0902170000000000
 Sr  Al 
   2   4
Cartesian
  2.6445708167740003  1.6561704672500002  6.0191035865739995
  3.9698911832260002  3.9090795327500003  2.9385064134259999
  1.3042711523560002  1.5030709756750000  3.0514307862929999
  5.3101908476440007  4.0621790243250011  5.9061792137069995
  3.9091657564940001  0.5083437559250000  3.0796502951570002
  2.7052962435060000  5.0569062440750008  5.8779597048429997
