Tb As
 1.0000000000000000
     3.5757390000000000    0.0000000000000000    2.0644550000000002
     1.1919130000000000    3.3712390000000001    2.0644550000000002
     0.0000000000000000    0.0000000000000000    4.1289080000000000
 Tb  As 
   1   1
Cartesian
  2.3838260000000000  1.6856195000000000  4.1289090000000002
  0.0000000000000000  0.0000000000000000  0.0000000000000000
