Ti Nb Re
 1.0000000000000000
     0.0000000000000000    3.1607129999999999    3.1607129999999999
     3.1607129999999999    0.0000000000000000    3.1607129999999999
     3.1607129999999999    3.1607129999999999    0.0000000000000000
 Ti  Nb  Re 
   1   1   2
Cartesian
  4.7410695000000000  4.7410695000000000  4.7410695000000000
  1.5803628214259997  1.5803628214259997  1.5803628214259997
  0.0000000000000000  0.0000000000000000  0.0000000000000000
  3.1607129999999999  3.1607129999999999  3.1607129999999999
