Li Pt
 1.0000000000000000
     7.8724520000000000   -0.0000010000000000    0.0000000000000000
    -0.0000010000000000    7.8724520000000000    0.0000000000000000
     0.0000000000000000    0.0000000000000000    7.8724530000000001
 Li  Pt 
   4  28
Cartesian
  3.9362254999999999  3.9362254999999999  3.9362265000000001
  3.9362260000000000 -0.0000005000000000  0.0000000000000000
 -0.0000005000000000  3.9362260000000000  0.0000000000000000
  0.0000000000000000  0.0000000000000000  3.9362265000000001
  0.0000000000000000  0.0000000000000000  0.0000000000000000
  1.9681124999999999  3.9362257500000002  5.9043318775469995
  1.9681122499999999  5.9043387500000000  0.0000000000000000
  1.9681122499999999  5.9043387500000000  3.9362265000000001
  1.9681130000000000 -0.0000002500000000  5.9043397500000001
 -0.0000002500000000  1.9681130000000000  5.9043397500000001
 -0.0000007500000000  5.9043390000000002  5.9043397500000001
 -0.0000005000000000  3.9362260000000000  3.9362265000000001
  1.9681130000000000 -0.0000002500000000  1.9681132500000000
  1.9681127500000000  1.9681127500000000  3.9362265000000001
  1.9681127500000000  1.9681127500000000  0.0000000000000000
  1.9681124999999999  3.9362257500000002  1.9681132500000000
 -0.0000007500000000  5.9043390000000002  1.9681132500000000
 -0.0000002500000000  1.9681130000000000  1.9681132500000000
  3.9362260000000000 -0.0000005000000000  3.9362265000000001
  5.9043385000000006  3.9362252500000001  1.9681132500000000
  5.9043382500000003  5.9043382500000003  3.9362265000000001
  5.9043382500000003  5.9043382500000003  0.0000000000000000
  5.9043390000000002 -0.0000007500000000  1.9681132500000000
  3.9362257499990001  1.9681203724519998  1.9681211224529997
  3.9362252500010002  5.9043306275480001  1.9681132500000000
  3.9362254999999999  3.9362254999999999  0.0000000000000000
  5.9043390000000002 -0.0000007500000000  5.9043397500000001
  5.9043387500000000  1.9681122499999999  0.0000000000000000
  5.9043387500000000  1.9681122499999999  3.9362265000000001
  5.9043385000000006  3.9362252500000001  5.9043397500000001
  3.9362252500000001  5.9043384999999997  5.9043397500000001
  3.9362257500000002  1.9681124999999999  5.9043397500000001
