Rb Si As
 1.0000000000000000
     5.9337590000000002    0.0000000000000000   -2.4349479999999999
    -1.2942830000000001    6.4610360000000000   -3.1540569999999999
     0.0117400000000000    0.0100950000000000    8.4761159999999993
 Rb  Si  As 
   4   2   4
Cartesian
  2.5614855656650000  6.3364857954699998 -2.2053840716899997
  2.0897304343349998  0.1346452045300000  5.0924950716899993
  4.1885472690650003  4.4679974393700004  1.7596265823599995
  0.4626687309349999  2.0031335606299998  1.1274844176399996
  3.8031777499999997  3.2305180000000000 -3.4032394999999998
  0.8362982500000000  3.2305180000000000 -2.1857655000000000
  1.6788517937450000  3.6604316045999998  4.0912190542449993
  2.9723642062550000  2.8106993953999999 -1.2041080542449998
  5.0615714788150008  1.5845653481600002  3.8871120277749989
 -0.4103554788150001  4.8865656518400007 -1.0000010277750002
