Pr Nd Hg
 1.0000000000000000
     0.0000000000000000    3.8280340000000002    3.8280340000000002
     3.8280340000000002    0.0000000000000000    3.8280340000000002
     3.8280340000000002    3.8280340000000002    0.0000000000000000
 Pr  Nd  Hg 
   1   1   2
Cartesian
  5.7420433439320000  5.7420433439320000  5.7420433439320000
  1.9140170000000001  1.9140170000000001  1.9140170000000001
  0.0000000000000000  0.0000000000000000  0.0000000000000000
  3.8280263439320001  3.8280263439320001  3.8280263439320001
