Ga Cu Pt
 1.0000000000000000
     3.9730020000000001    0.0000000000000000   -0.0000010000000000
     0.0000000000000000    3.9743970000000002   -0.0000030000000000
    -0.0000010000000000   -0.0000030000000000    3.5430739999999998
 Ga  Cu  Pt 
   1   1   2
Cartesian
  1.9865010000000001  1.9872064487939998 -0.0000020000060000
 -0.0000000000010000  3.9743930256000004  0.0000005430770000
  1.9865005000010001  3.9743875512090003  1.7715299569320000
 -0.0000005000000000  1.9872049487939998  1.7715354999939998
