Pr Sn
 1.0000000000000000
     4.7822870000000002    0.0000000000000000    0.0000000000000000
     0.0000000000000000    4.7822870000000002    0.0000000000000000
     0.0000000000000000    0.0000000000000000    4.7822870000000002
 Pr  Sn 
   1   3
Cartesian
  0.0000000000000000  0.0000000000000000  0.0000000000000000
  2.3911435000000001  0.0000000000000000  2.3911435000000001
  0.0000000000000000  2.3911435000000001  2.3911435000000001
  2.3911435000000001  2.3911435000000001  0.0000000000000000
