Na Te Au
 1.0000000000000000
     4.6571129999999998    0.0000000000000000    0.0000000000000000
    -2.3285570000000000    4.0331780000000004    0.0000000000000000
     0.0000000000000000    0.0000000000000000    8.4931009999999993
 Na  Te  Au 
   2   2   2
Cartesian
  0.0000000000000000  0.0000000000000000  0.0000000000000000
  0.0000000000000000  0.0000000000000000  4.2465504999999997
 -0.0000026618900000  2.6887866777260001  6.3698257499999995
  2.3285586618900003  1.3443913222740000  2.1232752499999998
 -0.0000026618900000  2.6887866777260001  2.1232752499999998
  2.3285586618900003  1.3443913222740000  6.3698257499999995
