In Ni
 1.0000000000000000
     4.3850720000000001    0.0000000000000000    0.0000000000000000
    -2.1925349999999999    3.7975829999999999    0.0000000000000000
     0.0000000000000000    0.0000000000000000    5.2992319999999999
 In  Ni 
   3   2
Cartesian
  2.1925385258690002  1.2658597341389999  1.8741316883520001
 -0.0000015258690000  2.5317232658609998  3.4251003116479999
  0.0000000000000000  0.0000000000000000  0.0000000000000000
  2.1925385258690002  1.2658597341389999  4.5523370449920000
 -0.0000015258690000  2.5317232658609998  0.7468949550080001
