Sr Cd P 
 1.0000000000000000
     4.3595220000000001    0.0000000000000000    0.0000000000000000
    -2.1797610000000001    3.7754569999999998    0.0000000000000000
     0.0000000000000000    0.0000000000000000    7.3115340000000000
 Sr  Cd  P  
   1   2   2
Cartesian
  0.0000000000000000  0.0000000000000000  0.0000000000000000
 -0.0000021797610001  2.5169725918190000  4.6418809021140000
  2.1797631797610002  1.2584844081809998  2.6696530978860000
  2.1797631797610002  1.2584844081809998  5.4520281154500001
 -0.0000021797610001  2.5169725918190000  1.8595058845500001
