Li Pr In
 1.0000000000000000
    -0.0008120000000000    3.5131389999999998    3.5120760000000000
     3.5129090000000001    0.0001380000000000    3.5119060000000002
     3.5130810000000001    3.5139260000000001   -0.0026940000000000
 Li  Pr  In 
   2   1   1
Cartesian
  3.5123078105399999  3.5135300165919996  7.0237710229359998
  3.5123149262500002  3.5133414332290003  3.5110166189120005
  5.2672707685650000  5.2688102901259999  5.2675763377780003
  1.7579704946450001  1.7583997600529999  1.7535500203740002
