Y  Mn Sn
 1.0000000000000000
     5.4579810000000002    0.0000000000000000    0.0000000000000000
    -2.7289910000000002    4.7267510000000001    0.0000000000000000
     0.0000000000000000    0.0000000000000000    8.9972999999999992
 Y   Mn  Sn 
   1   6   6
Cartesian
  0.0000000000000000  0.0000000000000000  0.0000000000000000
  2.7289905000000001  0.0000000000000000  6.7612280228999992
 -1.3644955000000001  2.3633755000000001  2.2360719770999999
  2.7289905000000001  0.0000000000000000  2.2360719770999999
  1.3644950000000000  2.3633755000000001  2.2360719770999999
  1.3644950000000000  2.3633755000000001  6.7612280228999992
 -1.3644955000000001  2.3633755000000001  6.7612280228999992
 -0.0000030623240002  3.1511689089170001  4.4986499999999996
  2.7289930623240002  1.5755820910830001  4.4986499999999996
 -0.0000030623240002  3.1511689089170001  0.0000000000000000
  2.7289930623240002  1.5755820910830001  0.0000000000000000
  0.0000000000000000  0.0000000000000000  3.0027589019999996
  0.0000000000000000  0.0000000000000000  5.9945410979999991
