Na B  H  O 
 1.0000000000000000
     3.5437010000000000    0.0000000000000000    0.0000000000000000
     0.0000000000000000    8.6848449999999993    0.0000000000000000
     0.0000000000000000    0.0000000000000000    9.9554220000000004
 Na  B   H   O  
   8   4   4  12
Cartesian
  0.8859252500000000  0.6257865064749999  3.9478126386780001
  2.6577757499999999  8.0590584935249989  6.0076093613220003
  2.6577757499999999  2.8442867375000001  5.5084743685079998
  2.6577757499999999  3.7166359935249997  8.9255236386780012
  2.6577757499999999  7.1867092374999997  9.4246586314920009
  0.8859252500000000  1.4981357624999998  0.5307633685080000
  0.8859252500000000  5.8405582624999992  4.4469476314920007
  0.8859252500000000  4.9682090064749991  1.0298983613220001
  0.8859252500000000  1.1928721455950000  7.5543335003520005
  0.8859252500000000  5.5352946455949992  7.3787994996480002
  2.6577757499999999  7.4919728544049997  2.4010884996480004
  2.6577757499999999  3.1495503544049996  2.5766225003519998
  0.8859252500000000  7.8434398467099991  7.6788459633060002
  0.8859252500000000  3.5010173467099994  7.2542870366940004
  2.6577757499999999  5.1838276532899998  2.7011349633060000
  2.6577757499999999  0.8414051532899999  2.2765760366940002
  2.6577757499999999  0.0326463323550000  1.6230523595040001
  0.8859252500000000  1.1158983643599998  6.1904406863520007
  0.8859252500000000  8.6521986676449991  8.3323696404960010
  2.6577757499999999  7.5689466356399988  3.7649813136480001
  0.8859252500000000  2.3525421287549997  8.2793868846120002
  0.8859252500000000  4.3097761676449995  6.6007633595039996
  2.6577757499999999  6.3323028712450000  1.6760351153880002
  0.8859252500000000  5.4583208643600001  8.7426923136479999
  2.6577757499999999  1.9898803712449997  3.3016758846120000
  2.6577757499999999  3.2265241356399996  1.2127296863520001
  2.6577757499999999  4.3750688323549989  3.3546586404959999
  0.8859252500000000  6.6949646287549989  6.6537461153880004
