Ce Si Au
 1.0000000000000000
     4.0418490000000000    0.0000000000000000   -1.5687780000000000
    -0.6088960000000000    3.9957210000000001   -1.5687780000000000
    -0.0227440000000000   -0.0264730000000000    5.9325630000000000
 Ce  Si  Au 
   1   2   2
Cartesian
  0.0000000000000000  0.0000000000000000  0.0000000000000000
  2.1041583421340002  2.4490953541230001 -0.5699484563430000
  1.3060506578660001  1.5201526458770001  3.3649554563430004
  2.8677907500000002  0.9856937500000000  1.3975035000000000
  0.5424182500000000  2.9835542500000001  1.3975035000000000
