Pa O 
 1.0000000000000000
    -1.8373079999999999    1.8373079999999999    3.0688550000000001
     1.8373079999999999   -1.8373079999999999    3.0688550000000001
     1.8373079999999999    1.8373079999999999   -3.0688550000000001
 Pa  O  
   1   3
Cartesian
  0.0000000000000000  0.0000000000000000  0.0000000000000000
  0.0000000000000000  1.8373043253840000  1.5344336377100003
  1.8373043253840000  0.0000000000000000  1.5344336377099999
  0.0000000000000000 -0.0000000000000000  3.0688488622900003
