Sn F 
 1.0000000000000000
     3.7128570000000001    0.0000000000000000   -1.6874020000000001
    -0.7677460000000000    3.6317320000000000   -1.6893020000000001
    -0.0411450000000000   -0.0490380000000000    4.8379409999999998
 Sn  F  
   1   4
Cartesian
  0.0000000000000000  0.0000000000000000  0.0000000000000000
  2.2046231081510004  2.7176584789000002 -0.0775547577040003
 -0.3838730000000000  1.8158660000000000 -0.8446510000000000
  1.8564285000000000  0.0000000000000000 -0.8437010000000000
  0.6993428918490000  0.8650355210999999  1.5387917577039998
