Li Be Sb
 1.0000000000000000
     4.1733269999999996    0.0000000000000000    0.0000000000000000
    -2.0866639999999999    3.6142069999999999    0.0000000000000000
     0.0000000000000000    0.0000000000000000    6.7866090000000003
 Li  Be  Sb 
   2   2   2
Cartesian
  0.0000000000000000  0.0000000000000000  1.0360573031580000
  0.0000000000000000  0.0000000000000000  4.4293618031579998
 -0.0000024199970002  2.4094725380690001  0.0492843545580000
  2.0866654199969998  1.2047344619309999  3.4425888545580001
 -0.0000024199970002  2.4094725380690001  2.6472865056750003
  2.0866654199969998  1.2047344619309999  6.0405910056750001
