Sb O 
 1.0000000000000000
    12.4970009999999991    0.0000000000000000   -3.0130210000000002
     0.0000000000000000    4.8870550000000001    0.0000000000000000
     0.0006170000000000    0.0000000000000000    5.5184210000000000
 Sb  O  
   8  20
Cartesian
  1.7268310028330001  1.1677960016350000  3.9018102564349997
 10.7710954971669999  1.1677960016350000  1.3628002435649997
 10.7707869971669989  3.7192589983650004 -1.3964102564350005
  1.7265225028330000  3.7192589983650004  1.1425997564349999
  7.9753315028329990  3.6113235016349998  2.3952997564349996
  4.5225949971669994  3.6113235016349998  2.8693107435650003
  4.5222864971669994  1.2757314983650001  0.1101002435650000
  7.9750230028329989  1.2757314983650001 -0.3639107435650000
  0.0004627500000000  2.0527830174749999  4.1388157500000000
  0.0001542500000000  2.8342719825250002  1.3796052500000000
 11.2248454770779986  4.4595745250399998  0.3267341424300002
  1.2730810229219998  4.4595745250399998  4.9378763575699995
  9.9663158009519996  2.0548600158500001 -0.3239073650760000
  2.5309936990480000  2.0548600158500001  0.0700968650760000
  2.5313021990480000  2.8321949841500000  2.8293073650760001
  9.9666243009519988  2.8321949841500000  2.4353031349240002
 11.2245369770779977  0.4274804749600000 -2.4324763575700001
  1.2727725229219999  0.4274804749600000  2.1786658575700000
  6.2489632499999992  4.4963105174750000  2.6323052499999999
  6.2486547499999991  0.3907444825250000 -0.1269052500000001
  4.9763449770779991  2.0160470250400002  1.8332446424300002
  7.5215815229219993  2.0160470250400002  3.4313658575699995
  3.7178153009520001  4.4983875158500002  1.1826031349240000
  8.7794941990479991  4.4983875158500002 -1.4364136349240002
  8.7798026990479983  0.3886674841500000  1.3227968650759998
  3.7181238009520001  0.3886674841500000  3.9418136349239998
  4.9760364770779999  2.8710079749599999 -0.9259658575700001
  7.5212730229219993  2.8710079749599999  0.6721553575699999
