Be Ru Au
 1.0000000000000000
     0.0000000000000000    2.8311820000000001    2.8311820000000001
     2.8311820000000001    0.0000000000000000    2.8311820000000001
     2.8311820000000001    2.8311820000000001    0.0000000000000000
 Be  Ru  Au 
   2   1   1
Cartesian
  2.8311763376360002  2.8311763376360002  2.8311763376360002
  0.0000000000000000  0.0000000000000000  0.0000000000000000
  4.2467730000000001  4.2467730000000001  4.2467730000000001
  1.4155910000000000  1.4155910000000000  1.4155910000000000
