Lu Ta Os
 1.0000000000000000
    -0.0004490000000000    3.2318889999999998    3.2313570000000000
     3.2316360000000000    0.0001050000000000    3.2314349999999998
     3.2318750000000001    3.2319990000000001   -0.0007900000000000
 Lu  Ta  Os 
   1   1   2
Cartesian
  1.6157687318749998  1.6160014819989998  1.6155004992100002
  4.8472997316360003  4.8479947501050003  4.8465047314350000
  6.4628293287830001  6.4637376729989997  6.4617855299210003
  3.2317701349669998  3.2322582909989999  3.2312174684989996
