Ba O 
 1.0000000000000000
     5.6130030000000000    0.0000000000000000    0.0000000000000000
     0.0000000000000000    5.6130030000000000    0.0000000000000000
     0.0000000000000000    0.0000000000000000    5.6130030000000000
 Ba  O  
   4   4
Cartesian
  0.0000000000000000  0.0000000000000000  0.0000000000000000
  0.0000000000000000  2.8065015000000000  2.8065015000000000
  2.8065015000000000  0.0000000000000000  2.8065015000000000
  2.8065015000000000  2.8065015000000000  0.0000000000000000
  0.0000000000000000  0.0000000000000000  2.8065015000000000
  0.0000000000000000  2.8065015000000000  0.0000000000000000
  2.8065015000000000  0.0000000000000000  0.0000000000000000
  2.8065015000000000  2.8065015000000000  2.8065015000000000
