Ti As Rh
 1.0000000000000000
     3.8146420000000001    0.0000000000000000    0.0000000000000000
     0.0000000000000000    6.3702850000000000    0.0000000000000000
     0.0000000000000000    0.0000000000000000    7.3970989999999999
 Ti  As  Rh 
   4   4   4
Cartesian
  2.8609815000000003  0.2010525648850000  2.3528544557220004
  0.9536605000000000  6.1692324351150001  5.0442445442780004
  0.9536605000000000  2.9840899351150001  6.0514039557219998
  2.8609815000000003  3.3861950648849999  1.3456950442780000
  0.9536605000000000  1.5995849337850001  0.9001011976170000
  2.8609815000000003  4.7707000662149994  6.4969978023830004
  0.9536605000000000  4.7847274337850001  2.7984483023830000
  2.8609815000000003  1.5855575662150001  4.5986506976169998
  2.8609815000000003  0.9108360898700000  6.9216578588739992
  0.9536605000000000  5.4594489101299999  0.4754411411260000
  0.9536605000000000  2.2743064101299999  3.2231083588740002
  2.8609815000000003  4.0959785898700005  4.1739906411260002
