Sm F 
 1.0000000000000000
     4.3773900000000001    0.0000000000000000    0.0000000000000000
     0.0000000000000000    6.6458380000000004    0.0000000000000000
     0.0000000000000000    0.0000000000000000    7.0245139999999999
 Sm  F  
   4  12
Cartesian
  4.0894803049199995  4.1990863444060000  5.2683854999999999
  1.9007853049200001  5.7696706555940001  1.7561285000000000
  2.4766046950800003  0.8761673444060001  5.2683854999999999
  0.2879096950800000  2.4467516555940003  1.7561285000000000
  0.3274856780700000  6.5221523089820002  5.2683854999999999
  2.5161806780700000  3.4466046910180004  1.7561285000000000
  1.8612093219299999  3.1992333089820004  5.2683854999999999
  4.0499043219299997  0.1236856910180000  1.7561285000000000
  1.7244903000600003  1.1005707103140001  0.4553711445640000
  3.9131853000600003  2.2223482896860003  6.5691358309219998
  0.4642046999400000  4.4234897103139996  3.0568788309219999
  2.6528996999399999  5.5452672896860005  3.9676351690779996
  2.6528996999399999  5.5452672896860005  6.5691358309219998
  0.4642046999400000  4.4234897103139996  0.4553711445640000
  3.9131853000600003  2.2223482896860003  3.9676351690779996
  1.7244903000600003  1.1005707103140001  3.0568788309219999
