Sc In Pt
 1.0000000000000000
     4.0161509999999998    0.0000000000000000    2.3187250000000001
     1.3387169999999999    3.7864629999999999    2.3187250000000001
     0.0000000000000000    0.0000000000000000    4.6374510000000004
 Sc  In  Pt 
   1   1   2
Cartesian
  2.6774339999999999  1.8932315000000000  4.6374504999999999
  0.0000000000000000  0.0000000000000000  0.0000000000000000
  1.3387169999999999  0.9466157500000000  2.3187252500000000
  4.0161509999999998  2.8398472500000000  6.9561757499999999
