Er Al Ni
 1.0000000000000000
     4.0125000000000002    0.0000000000000000    0.0000000000000000
    -2.0062489999999999    5.0193779999999997    0.0000000000000000
     0.0000000000000000    0.0000000000000000    6.8302300000000002
 Er  Al  Ni 
   2   4   2
Cartesian
  0.0000001212740000  0.6087200475720000  5.1226725000000002
  2.0062508787260001  4.4106579524280001  1.7075575000000001
 -0.0000033281140000  3.4351920319080000  6.4571969885500007
  2.0062543281140002  1.5841859680919999  0.3730330114500000
  2.0062543281140002  1.5841859680919999  3.0420819885500001
 -0.0000033281140000  3.4351920319080000  3.7881480114500001
  2.0062505688200005  2.8551225939599996  5.1226725000000002
  0.0000004311800000  2.1642554060400001  1.7075575000000001
