Th Be
 1.0000000000000000
     6.3369540000000004    0.0000090000000000    3.6586200000000000
     2.1123259999999999    5.9745350000000004    3.6586200000000000
     0.0000000000000000    0.0000000000000000    7.3172400000000000
 Th  Be 
   2  26
Cartesian
  2.1123200000000000  1.4936360000000002  3.6586200000000000
  6.3369600000000004  4.4809080000000003 10.9758600000000008
  0.0000000000000000  0.0000000000000000  0.0000000000000000
  4.2246400000000000  2.9872720000000004  7.3172400000000000
  1.9588923925560000  0.3720428642700000  8.1443881268399991
  3.9615090450200001  3.3593953519100004  9.4272246919199993
  5.4428875271040003  1.2644098864319999  6.8616466858800003
  4.4391313012440001  4.7100943266780000  6.0343741659600001
  4.0101486987560007  1.2644496733220001  8.6001058340399990
  5.2283693495239998  4.7101193457140003  8.1443881268399991
  6.1835323925559997  3.3593148642699999  6.4900918731599999
  6.5514453012440006  1.7228313266780000  4.9414785168000002
  2.3754569549799998  5.6024116480900004  5.7686046919200002
  5.1187064728960001  1.7228711135680002 10.5202666858800011
  1.8978346987560000  4.2517126733220003  9.6930014831999998
  4.6411644846040003  0.3720586228060000  4.9414858340399999
  6.0738230450200001  0.3721323519100000  8.8658753080799997
  3.8081155153960000  5.6024853771940002  9.6929941659600001
  3.3305735271040002  4.2516728864320008  4.1142133141199997
  5.9204295153960000  2.6152223771940002  8.6000985167999993
  3.0063924728959996  4.7101341135680004  7.7728406313600003
  2.2657476074439997  2.6152291357299999  8.1443881268399991
  3.2209106504759997  1.2644246542860000  6.4900918731599999
  4.4877709549800002  2.6151486480900004  5.2072553080799997
  2.5288504846040003  3.3593216228060006  6.0343814831999998
  7.4455506504760010  4.2516966542860004  8.1443881268399991
  6.4903876074440010  5.6025011357300007  6.4900918731599999
  1.0037293495239998  1.7228473457140001  6.4900918731599999
