Lu Ni B 
 1.0000000000000000
     3.4057529999999998    0.0000000000000000    0.0000000000000000
     0.0000000000000000    5.6727910000000001   -0.6816150000000000
     0.0000000000000000    0.0153670000000000    5.7135759999999998
 Lu  Ni  B  
   2   3   6
Cartesian
  0.0000000000000000  4.1118172149829997  1.0829262335320000
  0.0000000000000000  1.5763407850169999  3.9490347664679999
  0.0000000000000000  4.3978448322300006  3.8904894756859996
  0.0000000000000000  1.2903131677699999  1.1414715243139999
  1.7028764999999999  0.0000000000000000  0.0000000000000000
  1.7028764999999999  3.4834450236740007  3.0815880122829999
  1.7028764999999999  2.2047129763260003  1.9503729877170000
  1.7028764999999999  5.2128305539810000  2.8974324379439995
  1.7028764999999999  0.4753274460190001  2.1345285620559999
  1.7028764999999999  3.5115922403649997  4.8205239283629995
  1.7028764999999999  2.1765657596349999  0.2114370716370000
