Er Pt
 1.0000000000000000
     4.7072890000000003    0.0000000000000000    0.0000000000000000
     0.0000000000000000    7.0407529999999996    0.0000000000000000
     0.0000000000000000    0.0000000000000000    8.6697509999999998
 Er  Pt 
   8   4
Cartesian
  3.5304667500000004  1.0092356165259999  7.9703708565809999
  1.1768222500000001  6.0320313584429996  0.6993367946640000
  3.5304667500000004  4.5290981415569993  5.0342036249130002
  1.1768222500000001  2.5111408834739999  3.6354866868299998
  3.5304761645779998  0.0647678868470000  2.8871484595139996
  1.1768316645780001  6.9769778593259995  5.7825591917310000
  3.5304761645779998  3.5841516406739999  1.4476923614819999
  1.1768316645780001  3.4556086131529997  7.2220326292649997
  3.5304573354220006  5.2187258164010002  7.8670881129179993
  1.1768128354220000  1.8219638168219998  0.8027842635960000
  3.5304573354220006  1.6984126831780000  5.1376510938449993
  1.1768128354220000  5.3424036835989996  3.5321952734159998
