Np
 1.0000000000000000
     4.6327059999999998    0.0000000000000000    0.0000000000000000
     0.0000000000000000    4.7661129999999998    0.0000000000000000
     0.0000000000000000    0.0000000000000000    6.5613770000000002
 Np 
   8
Cartesian
  1.1581764999999999  1.0535969397800000  0.3073677055650000
  3.4745295000000000  3.7125160602199996  6.2540092944349999
  3.4745295000000000  3.4366534397800002  2.9733207944349997
  1.1581764999999999  1.3294595602200001  3.5880562055650005
  1.1581764999999999  4.1334543942669999  2.0951198512470000
  3.4745295000000000  0.6326586057329999  4.4662571487529998
  3.4745295000000000  1.7503978942670000  1.1855686487529999
  1.1581764999999999  3.0157151057329998  5.3758083512470005
