Ca I 
 1.0000000000000000
     4.5289650000000004   -0.0000000000000000    0.0000000000000000
    -2.2644829999999998    3.9222000000000001    0.0000000000000000
     0.0000000000000000    0.0000000000000000    7.2098300000000002
 Ca  I  
   1   2
Cartesian
  0.0000000000000000  0.0000000000000000  0.0000000000000000
 -0.0000025978159998  2.6148013074000001  1.7613758886599999
  2.2644845978160002  1.3073986926000001  5.4484541113400002
