Pt N 
 1.0000000000000000
     3.2029700000000001    0.0000000000000000    0.0000000000000000
     0.0000000000000000    3.7602169999999999    0.0000000000000000
     0.0000000000000000    0.0000000000000000    4.8726349999999998
 Pt  N  
   2   4
Cartesian
  0.0000000000000000  0.0000000000000000  0.0000000000000000
  1.6014850000000000  1.8801085000000000  2.4363174999999999
  1.6014850000000000  1.3173807452990001  4.4577837287350004
  1.6014850000000000  2.4428362547010001  0.4148512712650000
  0.0000000000000000  0.5627277547010000  2.0214662287350000
  0.0000000000000000  3.1974892452989998  2.8511687712649998
