Sn Bi Te
 1.0000000000000000
    14.5119159999999994   -2.2195339999999999    0.0431090000000000
    14.5119159999999994    2.2195339999999999    0.0431090000000000
    14.1610759999999996    0.0000000000000000    3.8714110000000002
 Sn  Bi  Te 
   1   2   4
Cartesian
  0.0000000000000000  0.0000000000000000  0.0000000000000000
 24.8890171370879969 -0.0000000000000001  2.2809240673439999
 18.2958908629119996 -0.0000000000000000  1.6767049326560000
 37.5974286784199947  0.0000000000000000  3.4455711718350002
 30.6415491770440021  0.0000000000000001  2.8081079535470002
 12.5433588229559998  0.0000000000000000  1.1495210464530001
  5.5874793215800000  0.0000000000000000  0.5120578281650000
