Ti Zn Rh
 1.0000000000000000
    -0.0002260000000000    3.0268320000000002    3.0262289999999998
     3.0269140000000001   -0.0002380000000000    3.0262410000000002
     3.0270250000000001    3.0269550000000001   -0.0003490000000000
 Ti  Zn  Rh 
   1   1   2
Cartesian
  1.5134100873900000  1.5133933043700001  1.5130302506500000
  4.5402998853550001  4.5401647767249997  4.5390907489770003
  3.0267838649900001  6.0537658112000008  3.0258800021059997
  3.0268837427770001  3.0267987150410001  3.0260695762680001
