Ta Ga Fe
 1.0000000000000000
    -0.0000320000000000    2.9313889999999998    2.9313490000000000
     2.9313959999999999   -0.0000390000000000    2.9313549999999999
     2.9314070000000001    2.9314060000000000   -0.0000490000000000
 Ta  Ga  Fe 
   1   1   2
Cartesian
  4.3971632616849998  4.3970318232650003  4.3969296908000004
  1.4656370529500000  1.4656977943479998  1.4656754758320001
  5.8627795485530001  2.9313728628100000  2.9313177256229999
  2.9313767053839999  2.9314014510049997  2.9313656077390000
