Gd Cd
 1.0000000000000000
     3.7595869999999998    0.0000000000000000    0.0000000000000000
     0.0000000000000000    3.7595869999999998    0.0000000000000000
     0.0000000000000000    0.0000000000000000    3.7595869999999998
 Gd  Cd 
   1   1
Cartesian
  1.8797934999999999  1.8797934999999999  1.8797934999999999
  0.0000000000000000  0.0000000000000000  0.0000000000000000
