Lu Ge Au
 1.0000000000000000
     4.3863040000000000    0.0000000000000000    0.0000000000000000
    -2.1931520000000000    3.7986510000000000    0.0000000000000000
     0.0000000000000000    0.0000000000000000    7.1329779999999996
 Lu  Ge  Au 
   2   2   2
Cartesian
  0.0000000000000000  0.0000000000000000  3.5421156141739996
  0.0000000000000000  0.0000000000000000  7.1086046141739994
  2.1931541931520000  1.2662157337830000  5.6409087949379995
 -0.0000021931520001  2.5324352662170000  2.0744197949379997
 -0.0000021931520001  2.5324352662170000  4.9595310714879997
  2.1931541931520000  1.2662157337830000  1.3930420714879999
