Rb Zr F 
 1.0000000000000000
     6.1104719999999997    0.0000000000000000    0.0000000000000000
    -3.0552359999999998    5.2918240000000001    0.0000000000000000
     0.0000000000000000    0.0000000000000000    4.7628570000000003
 Rb  Zr  F  
   2   1   6
Cartesian
 -0.0000030552360003  3.5278844306080002  3.3170441290800001
  3.0552390552359996  1.7639395693919999  1.4458128709200000
  0.0000000000000000  0.0000000000000000  0.0000000000000000
  4.6469009122679994  0.8449931644959999  3.6604508816370003
  3.0552298895279995  3.6018482546560002  3.6604508816370003
  1.4635588667880000  0.8449931644959999  3.6604508816370003
 -1.5916649122680000  4.4468308355039996  1.1024061183630001
  0.0000061104720000  1.6899757453439999  1.1024061183630001
  1.5916771332120003  4.4468308355039996  1.1024061183630001
