Ba P  Ir
 1.0000000000000000
     3.8004479999999998    0.0000000000000000   -1.1381110000000001
    -0.3408260000000000    3.7851349999999999   -1.1381120000000000
     0.0230950000000000    0.0252680000000000    6.9915190000000003
 Ba  P   Ir 
   1   2   2
Cartesian
  0.0000000000000000  0.0000000000000000  0.0000000000000000
  2.2554689223730002  2.4676841488010002  0.6171896427659999
  1.2272480776270001  1.3427188511990000  4.0981063572340002
  2.7766769999999998  0.9589177500000000  2.3576482500000000
  0.7060400000000000  2.8514852499999996  2.3576477499999999
