Cs Na B  O 
 1.0000000000000000
     5.6782880000000002    0.0000000000000000    0.0000000000000000
     0.0000000000000000    5.8605489999999998    0.0000000000000000
     0.0000000000000000    0.0000000000000000    6.3264230000000001
 Cs  Na  B   O  
   2   4   2   6
Cartesian
  4.9591271465120004  2.9302744999999999  3.1632115000000001
  0.7191608534880001  0.0000000000000000  0.0000000000000000
  2.0441836800000002  2.9302744999999999  4.8625330027610003
  2.0441836800000002  2.9302744999999999  1.4638899972390000
  3.6341043200000001  0.0000000000000000  4.6271014972389999
  3.6341043200000001  0.0000000000000000  1.6993215027610000
  4.4357877329919999  2.9302744999999999  0.0000000000000000
  1.2425002670080001  0.0000000000000000  3.1632115000000001
  3.6979680251360003  1.7262540106950000  0.0000000000000000
  1.9803199748639999  1.2040204893049999  3.1632115000000001
  0.1497534894240000  2.9302744999999999  0.0000000000000000
  5.5285345105760006  0.0000000000000000  3.1632115000000001
  1.9803199748639999  4.6565285106949998  3.1632115000000001
  3.6979680251360003  4.1342949893049994  0.0000000000000000
