Zr Te
 1.0000000000000000
     5.3424810000000003    0.0000000000000000    1.8746590000000001
     2.6706710000000000    8.0596060000000005    0.9389560000000000
     0.0026730000000000   -0.0017230000000000    8.5423270000000002
 Zr  Te 
  12   4
Cartesian
  1.6248621058090003  0.1625204691090000  7.5295061768440004
  6.9422912063380000  6.5650775227470008 10.8051809299869994
  4.1601789038170010  1.4928054772529999  1.6338546805580001
  3.3043177840359998  7.8953625308910009  2.7433422126110001
  3.5666937473800000  5.3194927369070006  6.5683521129439999
  1.8786470934210000  5.0151893419059999  3.5631216617039998
  1.0240335884659999  3.0426936580939996  5.9986348251889998
  4.2197945707329998  2.7383902630930002  4.7071164001629997
  5.1558078536270004  0.2487472284880000  6.9053982202500004
  4.0219811578890008  4.8070620789689995  9.6890724921930005
  1.1827799293790000  3.2508209210310000  0.6804764324590000
  5.6710810591050000  7.8091357715120013  5.4369368550979997
  6.0774546208589992  5.9936773140929995  7.9362280660789999
  4.7814791616029995  5.4745859606239993  3.8672302580760003
  3.4804151707760003  2.5832970393760002  7.5750566608050001
  1.6923010467620003  2.0642056859070004  3.3333690150400002
