Re
 1.0000000000000000
     2.7838129999999999    0.0000000000000000    0.0000000000000000
    -1.3919060000000001    2.4108529999999999    0.0000000000000000
     0.0000000000000000    0.0000000000000000    4.4948180000000004
 Re 
   2
Cartesian
 -0.0000010585730001  1.6072361369510000  1.1237045000000001
  1.3919080585729999  0.8036168630489999  3.3711135000000003
