Cd In Rh
 1.0000000000000000
     0.0000000000000000    3.2020499999999998    3.2020499999999998
     3.2020499999999998    0.0000000000000000    3.2020499999999998
     3.2020499999999998    3.2020499999999998    0.0000000000000000
 Cd  In  Rh 
   1   1   2
Cartesian
  1.6010249999999999  1.6010249999999999  1.6010249999999999
  4.8030749999999998  4.8030749999999998  4.8030749999999998
  0.0000000000000000  0.0000000000000000  0.0000000000000000
  3.2020435959000002  3.2020435959000002  3.2020435959000002
