Cd In Te
 1.0000000000000000
     5.8066440000000004    0.0001080000000000   -2.5983770000000002
    -1.1627920000000000    5.6890720000000004   -2.5982789999999998
    -0.0196790000000000   -0.0242420000000000    7.7433209999999999
 Cd  In  Te 
   1   2   4
Cartesian
  0.0000000000000000  0.0000000000000000  0.0000000000000000
  2.3219260000000004  2.8445900000000002 -2.5983280000000000
  0.5697275000000001  4.2547100000000011  1.2733569999999999
  1.9419855124460002  2.0887185274640001  0.0880140868629996
 -0.1435862832340000  3.3439438021160006  3.8504363724010000
  3.4945816264300000  0.7611572739480000  3.6382681771540000
  3.9553721137940010  5.1360507075080006 -2.4833886365160001
