Y  B  H 
 1.0000000000000000
    10.8288360000000008    0.0000000000000000    0.0000000000000000
     0.0000000000000000   10.8288360000000008    0.0000000000000000
     0.0000000000000000    0.0000000000000000   10.8288360000000008
 Y   B   H  
   8  24  96
Cartesian
  8.4780148215960001  7.7652391784040002  3.0635968215960006
  7.7652391784040002  2.3508211784040003  3.0635968215960006
  3.0635968215960006  7.7652391784040002  2.3508211784040003
  2.3508211784040003  2.3508211784040003  2.3508211784040003
  2.3508211784040003  3.0635968215960006  7.7652391784040002
  3.0635968215960006  8.4780148215960001  7.7652391784040002
  8.4780148215960001  8.4780148215960001  8.4780148215960001
  7.7652391784040002  3.0635968215960006  8.4780148215960001
  2.7345409820640003  0.3538105586280000  7.4907606723120006
  2.6798770179360001 10.4750254413720008  2.0763426723120002
  2.7345409820640003  5.0606074413720004  2.0763426723120002
  5.0606074413720004  3.3380753276880002  8.1489589820640003
  8.7524933276880006  8.0942950179360000  5.7682285586279995
  0.3538105586280000  8.7524933276880006  8.1489589820640003
  8.0942950179360000 10.4750254413720008  3.3380753276880002
  0.3538105586280000  7.4907606723120006  2.7345409820640003
  8.1489589820640003  5.0606074413720004  3.3380753276880002
 10.4750254413720008  3.3380753276880002  8.0942950179360000
  2.6798770179360001  5.7682285586279995  7.4907606723120006
  5.7682285586279995  8.7524933276880006  8.0942950179360000
  7.4907606723120006  2.6798770179360001  5.7682285586279995
 10.4750254413720008  2.0763426723120002  2.6798770179360001
  2.0763426723120002  2.7345409820640003  5.0606074413720004
  8.0942950179360000  5.7682285586279995  8.7524933276880006
  2.0763426723120002  2.6798770179360001 10.4750254413720008
  5.7682285586279995  7.4907606723120006  2.6798770179360001
  3.3380753276880002  8.0942950179360000 10.4750254413720008
  3.3380753276880002  8.1489589820640003  5.0606074413720004
  7.4907606723120006  2.7345409820640003  0.3538105586280000
  5.0606074413720004  2.0763426723120002  2.7345409820640003
  8.7524933276880006  8.1489589820640003  0.3538105586280000
  8.1489589820640003  0.3538105586280000  8.7524933276880006
  2.9779948730159997  5.7816238287600008  1.1177199654120000
  3.6503356425840003  1.1569311805680000  7.5913822164240008
  9.9484516331999995  3.5339581420920001  9.1783806187319996
  3.5339581420920001  9.1783806187319996  9.9484516331999995
  8.9483761420920018  7.0648733812680007  0.8803843668000000
  8.0799684679079995  5.6691771957360011  2.2804337444040002
  0.8803843668000000  7.2948778579080003  1.6504553812680001
  7.8508411269840011  5.0472121712400000  9.7111160345880005
  7.8508411269840011  0.3672058287600001  4.2966980345880001
  1.7640823574160001  9.6719048194320010  2.1769642164240000
  9.9484516331999995  1.8804598579080001  3.7639626187320001
  7.5913822164240008  1.7640823574160001  6.5713491805680002
  7.2948778579080003  1.6504553812680001  0.8803843668000000
  0.8803843668000000  8.9483761420920018  7.0648733812680007
  4.5340336332000009  3.5339581420920001  7.0648733812680007
  2.6655504679080004  5.6691771957360011  3.1339842555959998
  3.1339842555959998  2.7488675320920000  0.2547591957360000
  1.1569311805680000  7.5913822164240008  3.6503356425840003
  3.7639626187320001  6.2948023668000008  7.2948778579080003
  8.5484022555960006  2.6655504679080004 10.5740768042640010
  3.1339842555959998  2.6655504679080004  5.6691771957360011
  9.7111160345880005  7.8508411269840011  5.0472121712400000
  4.2966980345880001  7.8508411269840011  0.3672058287600001
  8.6518717835760004  9.0647536425839998  1.1569311805680000
  6.5713491805680002  8.6518717835760004  7.1785003574160005
  8.1632855320920008  0.2547591957360000  2.2804337444040002
  5.1596588042640006  8.5484022555960006  2.7488675320920000
  5.6691771957360011  3.1339842555959998  2.6655504679080004
  1.6504553812680001  0.8803843668000000  7.2948778579080003
  1.7640823574160001  6.5713491805680002  7.5913822164240008
  2.6655504679080004 10.5740768042640010  8.5484022555960006
  1.6504553812680001  4.5340336332000009  1.8804598579080001
  5.7816238287600008  4.2966980345880001  8.3924128730160010
  2.1769642164240000  3.6503356425840003  4.2574868194320006
  2.7488675320920000  5.1596588042640006  8.5484022555960006
  7.5913822164240008  3.6503356425840003  1.1569311805680000
  7.0648733812680007  0.8803843668000000  8.9483761420920018
  9.0647536425839998  1.1569311805680000  8.6518717835760004
 10.4616301712400013  9.7111160345880005  8.3924128730160010
  3.5339581420920001  7.0648733812680007  4.5340336332000009
  8.3924128730160010  5.7816238287600008  4.2966980345880001
  8.1632855320920008  5.1596588042640006  7.6948517444040005
  5.6691771957360011  2.2804337444040002  8.0799684679079995
  6.2948023668000008  7.2948778579080003  3.7639626187320001
  7.1785003574160005  9.6719048194320010  3.2374537835760004
  2.7488675320920000  0.2547591957360000  3.1339842555959998
  5.7816238287600008  1.1177199654120000  2.9779948730159997
  5.0472121712400000  9.7111160345880005  7.8508411269840011
  6.5321379654120006  2.9779948730159997 10.4616301712400013
  7.6948517444040005  8.0799684679079995 10.5740768042640010
  9.6719048194320010  2.1769642164240000  1.7640823574160001
  2.4364231269840002  5.0472121712400000  6.5321379654120006
  7.1785003574160005  6.5713491805680002  8.6518717835760004
  0.3672058287600001  1.1177199654120000  2.4364231269840002
  1.1569311805680000  8.6518717835760004  9.0647536425839998
  9.1783806187319996  9.9484516331999995  3.5339581420920001
  6.5321379654120006  2.4364231269840002  5.0472121712400000
  1.1177199654120000  2.4364231269840002  0.3672058287600001
  8.3924128730160010 10.4616301712400013  9.7111160345880005
  7.6948517444040005  8.1632855320920008  5.1596588042640006
  9.1783806187319996  6.2948023668000008  8.9483761420920018
  4.2574868194320006  2.1769642164240000  3.6503356425840003
  8.6518717835760004  7.1785003574160005  6.5713491805680002
  4.5340336332000009  1.8804598579080001  1.6504553812680001
 10.4616301712400013  6.5321379654120006  2.9779948730159997
  0.2547591957360000  3.1339842555959998  2.7488675320920000
  0.2547591957360000  2.2804337444040002  8.1632855320920008
  2.1769642164240000  1.7640823574160001  9.6719048194320010
  4.2966980345880001  8.3924128730160010  5.7816238287600008
 10.5740768042640010  8.5484022555960006  2.6655504679080004
  8.0799684679079995 10.5740768042640010  7.6948517444040005
  7.0648733812680007  4.5340336332000009  3.5339581420920001
  6.2948023668000008  8.9483761420920018  9.1783806187319996
  3.2374537835760004  7.1785003574160005  9.6719048194320010
  1.1177199654120000  2.9779948730159997  5.7816238287600008
  3.2374537835760004  9.0647536425839998  4.2574868194320006
  8.9483761420920018  9.1783806187319996  6.2948023668000008
  8.5484022555960006  2.7488675320920000  5.1596588042640006
  5.0472121712400000  6.5321379654120006  2.4364231269840002
  2.2804337444040002  8.1632855320920008  0.2547591957360000
 10.5740768042640010  7.6948517444040005  8.0799684679079995
  6.5713491805680002  7.5913822164240008  1.7640823574160001
  2.4364231269840002  0.3672058287600001  1.1177199654120000
  2.2804337444040002  8.0799684679079995  5.6691771957360011
  3.7639626187320001  9.9484516331999995  1.8804598579080001
  4.2574868194320006  3.2374537835760004  9.0647536425839998
  9.6719048194320010  3.2374537835760004  7.1785003574160005
  5.1596588042640006  7.6948517444040005  8.1632855320920008
  2.9779948730159997 10.4616301712400013  6.5321379654120006
  9.0647536425839998  4.2574868194320006  3.2374537835760004
  1.8804598579080001  3.7639626187320001  9.9484516331999995
  7.2948778579080003  3.7639626187320001  6.2948023668000008
  9.7111160345880005  8.3924128730160010 10.4616301712400013
  1.8804598579080001  1.6504553812680001  4.5340336332000009
  3.6503356425840003  4.2574868194320006  2.1769642164240000
  0.3672058287600001  4.2966980345880001  7.8508411269840011
