Ca
 1.0000000000000000
     3.8987880000000001    0.0000000000000000    0.0000000000000000
    -1.9493940000000001    3.3764490000000000    0.0000000000000000
     0.0000000000000000    0.0000000000000000    6.4413700000000000
 Ca 
   2
Cartesian
 -0.0000019493940000  2.2509671254830002  1.6103425000000000
  1.9493959493940001  1.1254818745169999  4.8310275000000003
