Ca H  Br
 1.0000000000000000
     3.8372869999999999    0.0000000000000000    0.0000000000000000
     0.0000000000000000    3.8372869999999999    0.0000000000000000
     0.0000000000000000    0.0000000000000000    8.2788100000000000
 Ca  H   Br 
   2   2   2
Cartesian
  0.0000000000000000  1.9186434999999999  1.2979932258500000
  1.9186434999999999  0.0000000000000000  6.9808167741500000
  1.9186434999999999  1.9186434999999999  0.0000000000000000
  0.0000000000000000  0.0000000000000000  0.0000000000000000
  0.0000000000000000  1.9186434999999999  5.6365201639700002
  1.9186434999999999  0.0000000000000000  2.6422898360299998
