Na Pr Hg
 1.0000000000000000
     0.0000000000000000    3.7259099999999998    3.7259099999999998
     3.7259099999999998    0.0000000000000000    3.7259099999999998
     3.7259099999999998    3.7259099999999998    0.0000000000000000
 Na  Pr  Hg 
   1   1   2
Cartesian
  1.8629624518199996  1.8629624518199996  1.8629624518199996
  5.5888650000000002  5.5888650000000002  5.5888650000000002
  0.0000000000000000  0.0000000000000000  0.0000000000000000
  3.7259174518200000  3.7259174518200000  3.7259174518200000
