Ca Fe As
 1.0000000000000000
     0.0001060000000000   -0.0000420000000000    5.4880019999999998
     5.9021150000000002    2.7479279999999999    0.0001130000000000
     0.0018420000000000    5.4952069999999997   -0.0000410000000000
 Ca  Fe  As 
   2   4   4
Cartesian
  0.0010094057860000  2.7475825024930001  2.7439091567750000
  0.0018774093240000  5.4952124970279996 -0.0000245352340000
  2.9529732145340000  6.8691605006219998  1.3722739371619999
  2.9511488235519998  1.3740149313159997  4.1157232315299996
  2.9519989551820003  4.1214315869820002  4.1161472594840003
  2.9521171072149999  4.1215212887060000  1.3718553987369999
  4.4416223686879999  2.7474585045669997  2.7444486576309997
  4.4423248622560001  5.4949255953750002  5.4877651041090001
  1.4615729170739999  2.7482168539139997  0.0001113237120000
  1.4624288365559999  5.4956344917599997  2.7440204782460000
