Ti Tc Rh
 1.0000000000000000
     0.0000000000000000    3.0848360000000001    3.0848360000000001
     3.0848360000000001    0.0000000000000000    3.0848360000000001
     3.0848360000000001    3.0848360000000001    0.0000000000000000
 Ti  Tc  Rh 
   2   1   1
Cartesian
  0.0000000000000000  0.0000000000000000  0.0000000000000000
  3.0848298303280002  3.0848298303280002  3.0848298303280002
  4.6272478303279998  4.6272478303279998  4.6272478303279998
  1.5424180000000001  1.5424180000000001  1.5424180000000001
