Mg P  Pd
 1.0000000000000000
     3.9094370000000001    0.0000000000000000    0.0000000000000000
     0.0000000000000000    3.9094370000000001    0.0000000000000000
     0.0000000000000000    0.0000000000000000    6.9213540000000000
 Mg  P   Pd 
   1   1   5
Cartesian
  1.9547185000000000  1.9547185000000000  0.0000000000000000
  0.0000000000000000  0.0000000000000000  3.4606770000000000
  0.0000000000000000  1.9547185000000000  2.0511778646700001
  0.0000000000000000  1.9547185000000000  4.8701761353299995
  1.9547185000000000  0.0000000000000000  2.0511778646700001
  1.9547185000000000  0.0000000000000000  4.8701761353299995
  0.0000000000000000  0.0000000000000000  0.0000000000000000
