Nd Sn
 1.0000000000000000
     4.7625169999999999    0.0000000000000000    0.0000000000000000
     0.0000000000000000    4.7625169999999999    0.0000000000000000
     0.0000000000000000    0.0000000000000000    4.7625169999999999
 Nd  Sn 
   1   3
Cartesian
  0.0000000000000000  0.0000000000000000  0.0000000000000000
  2.3812584999999999  0.0000000000000000  2.3812584999999999
  0.0000000000000000  2.3812584999999999  2.3812584999999999
  2.3812584999999999  2.3812584999999999  0.0000000000000000
