Ni Mo P 
 1.0000000000000000
     5.8101870000000000    0.0000920000000000    0.0000000000000000
    -2.9050129999999998    5.0318100000000001    0.0000000000000000
     0.0000000000000000    0.0000000000000000    3.7348159999999999
 Ni  Mo  P  
   3   3   3
Cartesian
  2.1766667574119998  3.7700921906759999  0.0000000000000000
  1.4569392515330000  0.0000331332640000  0.0000000000000000
 -0.7284378194539999  1.2617565485439999  0.0000000000000000
 -1.7028169436959999  2.9495614820580003  1.8674080000000000
  3.4058037960909999  0.0001042469360000  1.8674080000000000
  1.2021842425920002  2.0822413028160001  1.8674080000000000
  0.0000203362180000  0.0000352233140000  1.8674080000000000
  2.9051464788259995  1.6773095290380000  0.0000000000000000
  0.0000217108260002  3.3545824071579999  0.0000000000000000
