Sm In
 1.0000000000000000
     4.9278500000000003    0.0000000000000000    0.0000000000000000
     0.0000000000000000    4.9278500000000003    0.0000000000000000
     0.0000000000000000    0.0000000000000000    4.9278500000000003
 Sm  In 
   3   1
Cartesian
  0.0000000000000000  2.4639250000000001  2.4639250000000001
  2.4639250000000001  2.4639250000000001  0.0000000000000000
  2.4639250000000001  0.0000000000000000  2.4639250000000001
  0.0000000000000000  0.0000000000000000  0.0000000000000000
