Rb Pd Cl
 1.0000000000000000
     6.0843230000000004    0.0000000000000000    3.5127839999999999
     2.0281080000000000    5.7363549999999996    3.5127839999999999
    -0.0000000000000000   -0.0000000000000000    7.0255720000000004
 Rb  Pd  Cl 
   2   1   6
Cartesian
  6.0843232499999997  4.3022662499999997 10.5383549999999993
  2.0281077500000002  1.4340887499999999  3.5127850000000000
  0.0000000000000000  0.0000000000000000  0.0000000000000000
  2.9801949534449999  4.3899005453349993  8.8892926634439995
  2.9801949534449999  4.3899005453349993  5.1618473365559998
  5.1322360465549997  1.3464544546649999  8.8892926634439995
  5.1322360465549997  1.3464544546649999  5.1618473365559998
  6.2082568583870001  4.3899005453349993  7.0255689388919995
  1.9041741416130000  1.3464544546649999  7.0255710611079998
