Li Ac Ge
 1.0000000000000000
     0.0000000000000000    3.9283130000000002    3.9283130000000002
     3.9283130000000002    0.0000000000000000    3.9283130000000002
     3.9283130000000002    3.9283130000000002    0.0000000000000000
 Li  Ac  Ge 
   1   2   1
Cartesian
  5.8924616433740002  5.8924616433740002  5.8924616433740002
  3.9283130000000002  3.9283130000000002  3.9283130000000002
  0.0000000000000000  0.0000000000000000  0.0000000000000000
  1.9641486433740001  1.9641486433740001  1.9641486433740001
