Tl Mo Se
 1.0000000000000000
     9.1516439999999992   -0.0043140000000000    0.0000000000000000
    -4.5720850000000004    7.9277139999999999    0.0000000000000000
     0.0000000000000000    0.0000000000000000    4.4983469999999999
 Tl  Mo  Se 
   2   6   6
Cartesian
  0.0024867587569993  5.2837073106760002  3.3737602500000001
  4.5770722412429992  2.6396926893239998  1.1245867500000000
  5.1111960835469983  6.4961129083980005  1.1245867500000000
  3.6093107319849995  6.7493450364680001  3.3737602500000001
 -0.5316370835470000  1.4272870916020000  3.3737602500000001
  0.9702482680149997  1.1740549635319999  1.1245867500000000
  7.6497586484379996  0.2489181280700000  1.1245867500000000
 -3.0701996484380008  7.6744818719300003  3.3737602500000001
  5.6277108713649984  5.0705210893219999  3.3737602500000001
 -1.5773435952620007  7.4090010863419993  1.1245867500000000
  6.1569025952619993  0.5143989136579999  3.3737602500000001
 -1.0481518713650002  2.8528789106780001  1.1245867500000000
  2.6329694666269989  5.5892340029800005  1.1245867500000000
  1.9465895333730001  2.3341659970199999  3.3737602500000001
