Ti Mn W 
 1.0000000000000000
     0.0000000000000000    2.9658690000000001    2.9658690000000001
     2.9658690000000001    0.0000000000000000    2.9658690000000001
     2.9658690000000001    2.9658690000000001    0.0000000000000000
 Ti  Mn  W  
   1   2   1
Cartesian
  2.9658690000000001  2.9658690000000001  2.9658690000000001
  1.4829345000000000  1.4829345000000000  1.4829345000000000
  4.4488035000000004  4.4488035000000004  4.4488035000000004
  0.0000000000000000  0.0000000000000000  0.0000000000000000
