Ta Ti Ru
 1.0000000000000000
    -0.0001950000000000    3.1166779999999998    3.1166779999999998
     3.1166779999999998   -0.0001950000000000    3.1166779999999998
     3.1166779999999998    3.1166779999999998   -0.0001950000000000
 Ta  Ti  Ru 
   1   1   2
Cartesian
  1.5582902499999998  1.5582902499999998  1.5582902500000000
  4.6748894494829996  4.6748894494829996  4.6748894494829996
  0.0000311658050000  0.0000311658050000  0.0000311658050000
  3.1165368678730001  3.1165368678730001  3.1165368678729997
