Ti Cu
 1.0000000000000000
     2.9407640000000002    0.0000000000000000    0.0000000000000000
     0.0000000000000000    2.9407640000000002    0.0000000000000000
     0.0000000000000000    0.0000000000000000   10.7439809999999998
 Ti  Cu 
   4   2
Cartesian
  1.4703820000000001  1.4703820000000001  9.0011138901419994
  1.4703820000000001  1.4703820000000001  1.7428671098580000
  0.0000000000000000  0.0000000000000000  3.6291233901420004
  0.0000000000000000  0.0000000000000000  7.1148576098579994
  0.0000000000000000  0.0000000000000000  0.0000000000000000
  1.4703820000000001  1.4703820000000001  5.3719904999999999
