Rb Na Sb Cl
 1.0000000000000000
     0.0000000000000000    5.4240139999999997    5.4240139999999997
     5.4240139999999997    0.0000000000000000    5.4240139999999997
     5.4240139999999997    5.4240139999999997    0.0000000000000000
 Rb  Na  Sb  Cl 
   2   1   1   6
Cartesian
  8.1360209999999995  8.1360209999999995  8.1360209999999995
  2.7120069999999998  2.7120069999999998  2.7120069999999998
  5.4240139999999997  5.4240139999999997  5.4240139999999997
  0.0000000000000000  0.0000000000000000  0.0000000000000000
  2.6584502857639998  5.4240139999999997  5.4240139999999997
  5.4240139999999997  5.4240139999999997  2.6584502857639998
  8.1895777142360000  5.4240139999999997  5.4240139999999997
  5.4240139999999997  2.6584502857639998  5.4240139999999997
  5.4240139999999997  8.1895777142360000  5.4240139999999997
  5.4240139999999997  5.4240139999999997  8.1895777142360000
