Ho B  Rh
 1.0000000000000000
     4.1658819999999999    0.0000000000000000    0.0000000000000000
     0.0000000000000000    4.1658819999999999    0.0000000000000000
     0.0000000000000000    0.0000000000000000    4.1658819999999999
 Ho  B   Rh 
   1   1   3
Cartesian
  0.0000000000000000  0.0000000000000000  0.0000000000000000
  2.0829409999999999  2.0829409999999999  2.0829409999999999
  0.0000000000000000  2.0829409999999999  2.0829409999999999
  2.0829409999999999  2.0829409999999999  0.0000000000000000
  2.0829409999999999  0.0000000000000000  2.0829409999999999
