Cr Ni As
 1.0000000000000000
     6.2052959999999997   -0.0001720000000000    0.0000000000000000
    -3.1027969999999998    5.3738450000000002    0.0000000000000000
     0.0000000000000000    0.0000000000000000    3.6436269999999999
 Cr  Ni  As 
   3   3   3
Cartesian
  1.2623323831239999  2.1864185755480001  1.8218135000000000
  0.5788578649450002  5.3736301019989998  1.8218135000000000
  4.3642700230899996  3.1881409898020001  1.8218135000000000
  2.3155160017570000  4.0105602381110002  0.0000000000000000
  5.4179612776399999  1.3628500552600000  0.0000000000000000
 -1.5286964525390001  5.3734950644110002  0.0000000000000000
  3.1026169541880009  1.7909878741840000  0.0000000000000000
 -0.0002730794360002  3.5824271896840001  0.0000000000000000
  3.1024090272310003  5.3735279110010001  1.8218135000000000
