Na Zn S 
 1.0000000000000000
     4.4366750000000001   -7.6847859999999999    0.0000000000000000
     4.4366659999999998    7.6847810000000001   -0.0000010000000000
    -0.0000000000000000   -0.0000000000000000    6.8611139999999997
 Na  Zn  S  
  12   2   8
Cartesian
  4.4366673297769994  5.4138813670490000  3.6941601476329997
  1.9665681740700001 -1.1355277724430000  0.2635695465650000
  6.9067785924630005 -1.1355228713969998  0.2635621287029999
  1.9665624075370001  1.1355178713970002  3.6941263988029998
  6.9067728259300001  1.1355227724430004  3.6941189809409996
  4.4366692335479998 -5.4138786822629994  0.2636038521270000
  4.4366663376810003 -0.4685206956420003  2.5091363647399998
  2.6241332044650001  3.6081196463400000  5.9395560814859998
  6.2492080065749995  3.6081099188789998  5.9395625340649998
  2.6241418667750005 -3.6081302884510000  2.5089995510010001
  6.2492166688760005 -3.6081246463450003  2.5089991424650000
  4.4366657889779999  0.4685156956470007  5.9396933037729998
  4.4366675633460000 -2.5616251775370005  5.1356875790630001
  4.4366645633130002  2.5616201775420007  1.7051302457259998
  4.4366777479510002 -4.8009096111739993  4.4024884993759992
  6.3759205845149998  1.4419230744990004  0.9719171524190000
  4.4366734366809997  2.5615740688360003  4.0733466595380001
  4.4366764366510001 -2.5615636992739992  0.6427899928680000
  4.4366676887149996  4.8009122959550004  0.9719308746470000
  2.4974204154940001 -1.4419434440660002  4.4024679160359996
  6.3759267098960004 -1.4419379447649998  4.4024743400529998
  2.4974098534290001  1.4419406295510004  0.9719175895150000
