Si Ru
 1.0000000000000000
     4.7444449999999998    0.0000000000000000    0.0000000000000000
     0.0000000000000000    4.7444449999999998    0.0000000000000000
     0.0000000000000000    0.0000000000000000    4.7444449999999998
 Si  Ru 
   4   4
Cartesian
  0.7714752236700000  1.6007472763300001  3.1436977236699999
  1.6007472763300001  3.1436977236699999  0.7714752236700000
  3.1436977236699999  0.7714752236700000  1.6007472763300001
  3.9729697763299998  3.9729697763299998  3.9729697763299998
  4.1316951838049993  2.9849723161949999  1.7594726838049999
  2.9849723161949999  1.7594726838049999  4.1316951838049993
  1.7594726838049999  4.1316951838049993  2.9849723161949999
  0.6127498161949999  0.6127498161949999  0.6127498161949999
