Dy Mg Hg
 1.0000000000000000
     0.0000000000000000    3.5551629999999999    3.5551629999999999
     3.5551629999999999    0.0000000000000000    3.5551629999999999
     3.5551629999999999    3.5551629999999999    0.0000000000000000
 Dy  Mg  Hg 
   1   1   2
Cartesian
  1.7775743896739999  1.7775743896739999  1.7775743896739999
  5.3327516103260004  5.3327516103260004  5.3327516103260004
  0.0000000000000000  0.0000000000000000  0.0000000000000000
  3.5551629999999999  3.5551629999999999  3.5551629999999999
