Tb Ti S  O 
 1.0000000000000000
     3.8050079999999999    0.0000000000000000    0.0000000000000000
     0.0000000000000000    3.8050079999999999    0.0000000000000000
    -1.9025040000000000   -1.9025040000000000   11.5262729999999998
 Tb  Ti  S   O  
   2   2   2   5
Cartesian
  1.9025040000000004  1.9025040000000004  7.6844739989159994
  0.0000000000000000  0.0000000000000000  3.8417990010840000
 -0.0000000000000000 -0.0000000000000000  9.7113460534199998
  1.9025040000000000  1.9025040000000000  1.8149269465799998
 -0.0000000000000001 -0.0000000000000001  6.7992331799699999
  1.9025040000000000  1.9025040000000000  4.7270398200299999
  0.0000000000000000  1.9025040000000000  9.2344580343180009
  1.9025040000000000  0.0000000000000000  9.2344580343180009
  1.9025039999999998  0.0000000000000000  2.2918149656820002
  0.0000000000000000  1.9025039999999998  2.2918149656820002
  1.9025040000000000  1.9025040000000000  0.0000000000000000
