Sn Au
 1.0000000000000000
     4.4185169999999996    0.0000000000000000    0.0000000000000000
    -2.2092589999999999    3.8265479999999998    0.0000000000000000
     0.0000000000000000    0.0000000000000000    5.6775450000000003
 Sn  Au 
   2   2
Cartesian
  2.2092605425919998  1.2755147244839999  4.2581587499999998
 -0.0000025425920000  2.5510332755160001  1.4193862500000001
  0.0000000000000000  0.0000000000000000  2.8387725000000001
  0.0000000000000000  0.0000000000000000  0.0000000000000000
