Tb Zn Ni
 1.0000000000000000
     3.8892739999999999    0.0000000000000000    1.6754599999999999
     1.1883760000000001    4.4379799999999996    2.5932499999999998
     0.0328550000000000   -0.0061110000000000    5.2755799999999997
 Tb  Zn  Ni 
   2   1   2
Cartesian
  3.9610915563649995  3.1109282852050000  6.8605951046499998
  1.1494134436349999  1.3209407147950001  2.6836948953499999
  0.0000000000000000  0.0000000000000000  0.0000000000000000
  2.2865696015590000  1.1825900165890000  5.3958430539299993
  2.8239353984410003  3.2492789834109996  4.1484469460700000
