Li Sn
 1.0000000000000000
     9.1003720000000001    0.0000000000000000   -2.6300669999999999
     0.0000000000000000    4.7305560000000000    0.0000000000000000
     0.0023330000000000    0.0000000000000000    8.5577699999999997
 Li  Sn 
  14   6
Cartesian
  2.5101006493820002  3.5479170000000000  4.4477845988369999
  6.5926043506180001  1.1826390000000000  1.4799184011630002
  7.9306773781429998  3.5479170000000000  6.2003468965590001
  1.1720276218570003  1.1826390000000000 -0.2726438965590000
  3.4394428514740003  3.5479170000000000 -0.9505274551080000
  5.6632621485260008  1.1826390000000000  6.8782304551079996
  6.1921334383229993  3.5479170000000000 -0.0733336592550000
  2.9105715616770000  1.1826390000000000  6.0010366592550000
  1.5126995088310000  3.5479170000000000  1.1625900279179999
  7.5900054911690003  1.1826390000000000  4.7651129720820000
  4.2256995855680000  3.5479170000000000  2.2042796238929996
  4.8770054144320003  1.1826390000000000  3.7234233761069992
  8.9782327722620003  3.5479170000000000  0.8322898672079999
  0.1244722277380000  1.1826390000000000  5.0954131327920003
  7.0522023098490001  3.5479170000000000  3.0565466829089996
  2.0505026901509997  1.1826390000000000  2.8711563170909997
  0.7711327691230000  3.5479170000000000  6.6676351989600002
  8.3315722308770006  1.1826390000000000 -0.7399321989599998
  5.1657892215750003  3.5479170000000000  5.3821797890699994
  3.9369157784250000  1.1826390000000000  0.5455232109299999
