Ba Sb
 1.0000000000000000
     4.4388969999999999    0.0000000000000000    0.0000000000000000
     0.0000000000000000    5.1252209999999998   -1.0267240000000000
     0.0000000000000000    0.0266380000000000    9.6421189999999992
 Ba  Sb 
   2   4
Cartesian
  1.1097242500000000  2.1407542186610002  2.3018501042749997
  3.3291727499999997  3.0111047813389997  6.3135448957249993
  1.1097242500000000  0.2296472695910000  5.7495786517629988
  3.3291727499999997  4.9222117304089998  2.8658163482369994
  1.1097242500000000  4.2627424037849995 -0.6465156648489999
  3.3291727499999997  0.8891165962149998  9.2619106648489993
