Ba Cu O 
 1.0000000000000000
     5.1450149999999999    0.0000000000000000   -2.5429670000000000
    -1.2568839999999999    4.9891310000000004   -2.5429670000000000
     0.0047090000000000    0.0060420000000000    6.4857889999999996
 Ba  Cu  O  
   2   4   4
Cartesian
  4.3483093749999995  0.6281728750000001  2.3213747499999995
 -0.4554693749999999  4.3670001250000006 -0.9215197500000001
  1.9464200000000000  2.4975865000000002  0.6999274999999998
  2.5725074999999999  0.0000000000000000 -1.2714835000000000
 -0.6260874999999999  2.4975865000000002  1.9714109999999998
  1.9440655000000000  2.4945655000000002 -2.5429670000000000
  2.0670442686859998  4.3028495462369998 -2.2941459197990000
  3.6698735186859994  3.0585877962370001  0.9487485802009996
  1.8257957313139999  0.6923234537630001  3.6940009197990000
  0.2229664813140001  1.9365852037630000  0.4511064197989998
