Ni P 
 1.0000000000000000
     5.4380750000000004    0.0000000000000000    0.0000000000000000
     0.0000000000000000    5.4380750000000004    0.0000000000000000
     0.0000000000000000    0.0000000000000000    5.4380750000000004
 Ni  P  
   4   8
Cartesian
  0.0000000000000000  2.7190375000000002  2.7190375000000002
  2.7190375000000002  2.7190375000000002  0.0000000000000000
  2.7190375000000002  0.0000000000000000  2.7190375000000002
  0.0000000000000000  0.0000000000000000  0.0000000000000000
  2.0921579663000003  0.6268795337000000  4.8112009043750001
  0.6268795337000000  4.8112009043750001  2.0921579663000003
  4.8112009043750001  2.0921579663000003  0.6268795337000000
  3.3459115956250005  3.3459115956250005  3.3459115956250005
  2.0921579663000003  2.0921579663000003  2.0921579663000003
  0.6268795337000000  3.3459115956250005  4.8112009043750001
  4.8112009043750001  0.6268795337000000  3.3459115956250005
  3.3459115956250005  4.8112009043750001  0.6268795337000000
