Ac Hg
 1.0000000000000000
     7.1295270000000004   -0.0001770000000000    0.0000000000000000
    -3.5649160000000002    6.1742619999999997    0.0000000000000000
     0.0000000000000000    0.0000000000000000    5.0871560000000002
 Ac  Hg 
   2   6
Cartesian
 -0.0004474536569999  4.1163153068609999  3.8153670000000002
  3.5650691481000001  2.0577635186999998  1.2717890000000001
  0.0002382400550000  1.9004723379549997  1.2717890000000001
  1.9188722877499997  5.2236427187799999  1.2717890000000001
 -1.9198932128240001  5.2245036187579998  1.2717890000000001
  3.5643727599449999  4.2736126620449992  3.8153670000000002
  1.6457351476390001  0.9504361071349999  3.8153670000000002
  5.4845149072670001  0.9495752068030000  3.8153670000000002
