Ac H 
 1.0000000000000000
     0.0000000000000000    2.9056910000000000    2.9056910000000000
     2.9056910000000000    0.0000000000000000    2.9056910000000000
     2.9056910000000000    2.9056910000000000    0.0000000000000000
 Ac  H  
   1   3
Cartesian
  4.3585364999999996  4.3585364999999996  4.3585364999999996
  0.0000000000000000  0.0000000000000000  0.0000000000000000
  2.9056910000000000  2.9056910000000000  2.9056910000000000
  1.4528513113819999  1.4528513113819999  1.4528513113819999
