Rb Gd O 
 1.0000000000000000
     6.5994789999999997   -1.7713650000000001   -0.0001860000000000
     6.5994789999999997    1.7713650000000001   -0.0001860000000000
     6.1241130000000004    0.0000000000000000    3.0308590000000000
 Rb  Gd  O  
   1   1   2
Cartesian
  0.0000000000000000  0.0000000000000000  0.0000000000000000
  9.6615354999999994  0.0000000000000000  1.5152435000000000
 14.9526174473619999 -0.0000000000000000  2.3450575113140002
  4.3704535526379997 -0.0000000000000000  0.6854294886860000
