Sm Cl O 
 1.0000000000000000
     3.9883530000000000    0.0000000000000000    0.0000000000000000
     0.0000000000000000    3.9883530000000000    0.0000000000000000
     0.0000000000000000    0.0000000000000000    6.7322129999999998
 Sm  Cl  O  
   2   2   2
Cartesian
  0.9970882500000000  0.9970882500000000  1.1583580332059999
  2.9912647500000000  2.9912647500000000  5.5738549667939994
  0.9970882500000000  0.9970882500000000  4.2267997354110003
  2.9912647500000000  2.9912647500000000  2.5054132645889999
  0.9970882500000000  2.9912647500000000  0.0000000000000000
  2.9912647500000000  0.9970882500000000  0.0000000000000000
