Te O 
 1.0000000000000000
     5.7445009999999996    0.0000000000000000    0.0000000000000000
     0.0000000000000000   12.2770620000000008    0.0000000000000000
     0.0000000000000000    0.0000000000000000    5.5834359999999998
 Te  O  
   8  16
Cartesian
  0.6967849932960000  4.7077990257060005  2.9542071544719999
  2.1754655067039996  7.5692629742940003  0.1624891544720000
  3.5690354932959996  1.4307319742940001  2.6292288455280000
  5.0477160067040003 10.8463300257060009  5.4209468455280003
  5.0477160067040003  7.5692629742940003  2.6292288455280000
  3.5690354932959996  4.7077990257060005  5.4209468455280003
  2.1754655067039996 10.8463300257060009  2.9542071544719999
  0.6967849932960000  1.4307319742940001  0.1624891544720000
  2.3698996320509997  4.0748550942959998  4.0347583566800003
  0.5023508679490000  8.2022069057040010  1.2430403566799999
  5.2421501320510000  2.0636759057040002  1.5486776433200000
  3.3746013679489999 10.2133860942960002  4.3403956433199999
  3.3746013679489999  8.2022069057040010  1.5486776433200000
  5.2421501320510000  4.0748550942959998  4.3403956433199999
  0.5023508679490000 10.2133860942960002  4.0347583566800003
  2.3698996320509997  2.0636759057040002  1.2430403566799999
  3.8010329106819998 11.9057790909960008  1.9836663917720001
  4.8157185893180001  0.3712829090040000  4.7753843917719996
  0.9287824106819998  6.5098139090040004  3.5997696082280002
  1.9434680893179999  5.7672480909960004  0.8080516082279999
  1.9434680893179999  0.3712829090040000  3.5997696082280002
  0.9287824106819998 11.9057790909960008  0.8080516082279999
  4.8157185893180001  5.7672480909960004  1.9836663917720001
  3.8010329106819998  6.5098139090040004  4.7753843917719996
