Pm Cu Sn
 1.0000000000000000
    -0.0024410000000000    3.7316180000000001    3.7033779999999998
     3.7246510000000002    0.0222500000000000    3.7255639999999999
     3.7186070000000000    3.7151900000000002   -0.0191530000000000
 Pm  Cu  Sn 
   2   1   1
Cartesian
  3.7168492545560001  7.4452814911400003  3.6846992992910002
  3.7199600153990002  3.7357838449699998  3.7042579470319996
  1.8598762976290000  1.8676589057460000  1.8526683684309999
  5.5806984976430005  5.6016595961459998  5.5572792201740002
