Th Cd
 1.0000000000000000
     5.0894610000000000    0.0000000000000000    0.0000000000000000
    -2.5447289999999998    4.4076019999999998    0.0000000000000000
     0.0000000000000000    0.0000000000000000    3.3896470000000001
 Th  Cd 
   1   2
Cartesian
  0.0000000000000000  0.0000000000000000  0.0000000000000000
 -0.0000015447300000  2.9384028025340001  1.6948235000000000
  2.5447335447300001  1.4691991974659999  1.6948235000000000
