Ba Fe P 
 1.0000000000000000
     3.6390259999999999    0.0000000000000000   -1.0731720000000000
    -0.3164840000000000    3.6252380000000000   -1.0731720000000000
     0.0118520000000000    0.0129310000000000    6.7465780000000004
 Ba  Fe  P  
   1   2   2
Cartesian
  0.0000000000000000  0.0000000000000000  0.0000000000000000
  0.6783195000000000  2.7253940000000001  2.3001170000000002
  2.6560745000000003  0.9127750000000000  2.3001170000000002
  2.2072779716720001  2.4083689999310001  0.7782940606179999
  1.1271160283280002  1.2298000000689999  3.8219399393820002
