Li Nb O 
 1.0000000000000000
     5.1539409999999997    0.0042030000000000    0.0017780000000000
    -2.5733600000000001   -4.8964889999999999   -0.0051810000000000
    -2.5775679999999999    0.5483310000000000  -17.0095449999999992
 Li  Nb  O  
   8   8  24
Cartesian
  0.0000097683319997 -3.9134363063189999 -1.2548461277670000
  2.5732748133089993 -2.5477146619949997 -5.5023084514279992
  0.0050384522220000 -0.7928494867229999 -3.3838114062849995
 -0.0042372702660005 -1.1888468368680001 -9.7541013819140012
  0.0105432796229999 -4.3201153900530000 -7.6339493873759992
  2.5702503995839998  0.1752962999070000 -14.0037248299049981
 -2.5736320289729999 -2.9659434760740000 -11.8912937101009977
  0.0084784220679997 -1.5983586923130002 -16.1356046636649992
  0.0007915159680000 -0.1549923374130000 -0.0501255415930000
  0.0025173177399997 -3.6876959108400000 -4.3039945948199998
  2.5794121212529997 -1.9191474192719997 -2.1753117521890002
 -2.5767742045630002 -2.3270389932630002 -8.5565179615120002
  0.0009137589989998 -0.5577194569979999 -6.4259291459569994
 -0.0024516509489999 -0.9661502847330000 -12.8073689790359992
  0.0006516433709995 -4.0925032054529993 -10.6824201155799994
 -2.5755049951380000 -2.7336212133419999 -14.9370360840199989
  1.8988897776629998 -0.1017910160880000 -3.0997933217349996
  1.6762959457159998 -0.9385962443639999 -0.4901094197599999
  4.1612694580780003 -0.5775833944020000 -1.6115404112399998
  0.9061504201719993 -2.7045641124210000 -2.6182020193650000
 -1.5790917381239999 -2.3478816904139999 -3.7401912512899997
  1.9019851712860001 -3.6326479155119999 -7.3532180459980001
  3.2597538854879993 -3.2290368177450000 -0.9773033859889999
  1.6795861924859998 -4.4681318267489996 -4.7454889688549997
 -0.9883074300650000 -4.1138099506680001 -5.8678663252429990
 -1.6710329387479999 -1.3441742357069999 -6.8704357391789994
  0.9966998580759998 -0.9836933068950000 -7.9887596441029993
 -0.6800496501440002 -2.2771225265039998 -11.6086214027920001
  0.6804919588629995 -1.8665119445699998 -5.2253857187849997
 -0.9009349354690003 -3.1104450365939997 -8.9983725560929990
  1.5835371844449997 -2.7509068186470000 -10.1172026154879990
  0.9020141348099997  0.0165508169280000 -11.1212533210819995
 -1.5837543595059997  0.3741164480190000 -12.2416601095829982
  1.8985942747979989 -0.9124381083120001 -15.8583790182459996
  3.2557800812410003 -0.5045652751650000 -9.4775962069700004
  1.6726161112819993 -1.7482237341899998 -13.2500391089520004
 -0.9951494526310003 -1.3928071061489997 -14.3708506202099997
 -4.2501691682390002 -3.5182180719870004 -15.3794328498560002
 -1.5806868991169998 -3.1608503340029999 -16.4987624224980003
 -1.8984879805070005 -4.0428360823050005 -13.7353032693700001
