Tl Au S 
 1.0000000000000000
     4.7970280000000001    0.0000000000000000    0.0000000000000000
     0.0000000000000000    7.5830380000000002    0.0000000000000000
     0.0000000000000000    0.0000000000000000   12.1776999999999997
 Tl  Au  S  
   4   8   6
Cartesian
  3.5285019156800002  0.1999495459840000  9.1332749999999994
  3.5285019156800002  3.5915694540160001  9.1332749999999994
  1.2685260843200001  7.3830884540160007  3.0444249999999999
  1.2685260843200001  3.9914685459839996  3.0444249999999999
  0.0000000000000000  3.7915190000000001  0.0000000000000000
  0.0000000000000000  0.0000000000000000  0.0000000000000000
  0.0000000000000000  0.0000000000000000  6.0888499999999999
  2.6598368973279998  1.8957595000000000  4.9667114781000006
  2.1371911026719999  5.6872784999999997  7.2109885218999992
  2.6598368973279998  1.8957595000000000  1.1221385219000000
  0.0000000000000000  3.7915190000000001  6.0888499999999999
  2.1371911026719999  5.6872784999999997 11.0555614780999996
  0.8384965092600001  5.6872784999999997  9.1332749999999994
  3.6078159766320002  5.6872784999999997  5.3995921800000000
  3.6078159766320002  5.6872784999999997  0.6892578199999999
  1.1892120233679999  1.8957595000000000 11.4884421799999998
  3.9585314907400000  1.8957595000000000  3.0444249999999999
  1.1892120233679999  1.8957595000000000  6.7781078199999998
