Nb Ru
 1.0000000000000000
     3.0717460000000001    0.0000000000000000    0.0000000000000000
     0.0000000000000000    3.0717460000000001    0.0000000000000000
     0.0000000000000000    0.0000000000000000    3.4296440000000001
 Nb  Ru 
   1   1
Cartesian
  0.0000000000000000  0.0000000000000000  0.0000000000000000
  1.5358730000000000  1.5358730000000000  1.7148220000000001
