Na Ti Ge O 
 1.0000000000000000
     6.7185439999999996    0.0000000000000000    0.0000000000000000
     0.0000000000000000    6.7185439999999996    0.0000000000000000
     0.0000000000000000    0.0000000000000000    5.2380599999999999
 Na  Ti  Ge  O  
   4   2   2  10
Cartesian
  5.0389079999999993  1.6796359999999999  0.0000000000000000
  5.0389079999999993  5.0389079999999993  0.0000000000000000
  1.6796359999999999  5.0389079999999993  0.0000000000000000
  1.6796359999999999  1.6796359999999999  0.0000000000000000
  3.3592719999999998  0.0000000000000000  2.9982079253400000
  0.0000000000000000  3.3592719999999998  2.2398520746599999
  3.3592719999999998  3.3592719999999998  2.6190300000000000
  0.0000000000000000  0.0000000000000000  2.6190300000000000
  1.4518907954879998  0.0000000000000000  3.6376860043199999
  5.2666532045120000  0.0000000000000000  3.6376860043199999
  3.3592719999999998  4.8111627954879994  3.6376860043199999
  3.3592719999999998  1.9073812045119998  3.6376860043199999
  0.0000000000000000  1.4518907954879998  1.6003739956800000
  4.8111627954879994  3.3592719999999998  1.6003739956800000
  1.9073812045119998  3.3592719999999998  1.6003739956800000
  0.0000000000000000  5.2666532045120000  1.6003739956800000
  0.0000000000000000  3.3592719999999998  3.9587790823200000
  3.3592719999999998  0.0000000000000000  1.2792809176800000
