Sn P 
 1.0000000000000000
     5.5464929999999999    0.0555720000000000    0.6490880000000000
     0.5839550000000000    5.5159469999999997    0.6490880000000000
     0.0611470000000000    0.0555720000000000    5.5840090000000000
 Sn  P  
   2   6
Cartesian
  4.6185707574899997  4.1974835147219993  5.1337108432700003
  1.5730242425099998  1.4296074852780001  1.7484741567300000
  1.2768569413029998  1.1604424995600000  4.3975443043809994
  1.5591361419349998  4.1086573129349988  1.7330373437719999
  4.6324588580650001  1.5184336870649999  5.1491476562280001
  4.9147380586970000  4.4666485004400007  2.4846406956189999
  1.9530406782630001  4.4666485004399998  5.1491476562280001
  4.2385543217369994  1.1604424995600000  1.7330373437719999
