Li Pm Pb
 1.0000000000000000
     0.0000000000000000    3.4719660000000001    3.4719660000000001
     3.4719660000000001    0.0000000000000000    3.4719660000000001
     3.4719660000000001    3.4719660000000001    0.0000000000000000
 Li  Pm  Pb 
   2   1   1
Cartesian
  0.0000000000000000  0.0000000000000000  0.0000000000000000
  3.4719590560680005  3.4719590560680005  3.4719590560680005
  5.2079490000000002  5.2079490000000002  5.2079490000000002
  1.7359830000000001  1.7359830000000001  1.7359830000000001
