Nb Au
 1.0000000000000000
     5.2563360000000001    0.0000000000000000    0.0000000000000000
     0.0000000000000000    5.2563360000000001    0.0000000000000000
     0.0000000000000000    0.0000000000000000    5.2563360000000001
 Nb  Au 
   6   2
Cartesian
  2.6281680000000001  1.3140840000000000  0.0000000000000000
  2.6281680000000001  3.9422519999999999  0.0000000000000000
  1.3140840000000000  0.0000000000000000  2.6281680000000001
  3.9422519999999999  0.0000000000000000  2.6281680000000001
  0.0000000000000000  2.6281680000000001  1.3140840000000000
  0.0000000000000000  2.6281680000000001  3.9422519999999999
  2.6281680000000001  2.6281680000000001  2.6281680000000001
  0.0000000000000000  0.0000000000000000  0.0000000000000000
