Sc Si Ru
 1.0000000000000000
     8.3989580000000004    0.0000000000000000  -14.5944640000000003
     0.0000000000000000    4.0839800000000004    0.0000000000000000
     0.0000270000000000    0.0000000000000000   10.1079609999999995
 Sc  Si  Ru 
   8   8   4
Cartesian
  0.6282154126650000  0.0000000000000000  1.5102928196270000
  5.6422867955780003  0.0000000000000000 -3.0684945159020001
  7.7707695873350007  0.0000000000000000 -5.9967958196270006
  2.7566982044220003  0.0000000000000000 -1.4180084840980003
  4.8276944126650001  2.0419900000000002 -5.7869391803730004
  1.4428077955780001  2.0419900000000002  4.2287374840980005
  3.5712905873350005  2.0419900000000002  1.3004361803729996
  6.9561772044220005  2.0419900000000002 -8.7152404840979987
  1.1226674534530001  2.0419900000000002 -0.4778560346070004
  0.6264639554460000  0.0000000000000000  6.1270656997899993
  7.2763175465470002  2.0419900000000002 -4.0086469653930008
  7.7725210445539998  0.0000000000000000 -10.6135686997899992
  5.3221464534530005  0.0000000000000000 -7.7750880346069993
  4.8259429554460009  2.0419900000000002 -1.1701663002100009
  3.0768385465470005  0.0000000000000000  3.2885850346069994
  3.5730420445540001  2.0419900000000002 -3.3163366997899999
  1.1833873959820000  2.0419900000000002  7.1560221649739999
  7.2155976040180008  2.0419900000000002 -11.6425251649739998
  5.3828663959820000  0.0000000000000000 -0.1412098350259991
  3.0161186040179997  0.0000000000000000 -4.3452931649739996
