Be C  N 
 1.0000000000000000
     0.0000000000000000    0.0000000000000000    4.2392789999999998
     4.3967739999999997    0.0000000000000000    0.0000000000000000
     0.0000000000000000    5.2885700000000000    0.0000000000000000
 Be  C   N  
   4   4   8
Cartesian
  2.5775779800819998  4.6274458643000003  4.2084509631120000
  1.8191960199179997  0.6611241357000001  2.0888114631120001
  4.0175830199179998  1.9831608643000000  2.0888114631120001
  0.3791909800820000  3.3054091356999997  4.2084509631120000
  2.4975962642480001  1.9829757643499999  4.2155136019260002
  1.8991777357519999  3.3055942356499997  2.0958741019259999
  4.0975647357520000  4.6272607643499999  2.0958741019259999
  0.2992092642480000  0.6613092356500000  4.2155136019260002
  2.4562402080039996  2.0981026446800000  1.4797330527869998
  1.9405337919960000  3.1904673553200000  3.5993725527869995
  4.1389207919960000  4.7423876446800000  3.5993725527869995
  0.2578532080040000  0.5461823553200000  1.4797330527869998
  2.6712600436999998  4.5089078563199996  1.6610597334540000
  1.7255139562999999  0.7796621436800000  3.7806992334539999
  3.9239009562999998  1.8646228563200000  3.7806992334539999
  0.4728730437000000  3.4239471436800000  1.6610597334540000
