Ca N 
 1.0000000000000000
     3.5438079999999998    0.0508030000000000    5.7503830000000002
     1.6679839999999999    3.1271369999999998    5.7503830000000002
     0.0833170000000000    0.0508030000000000    6.7541510000000002
 Ca  N  
   2   1
Cartesian
  3.8728850834719997  2.3615284601439996 13.3517923331359984
  1.4222239165280000  0.8672145398559999  4.9031246668640005
  0.0000000000000000  0.0000000000000000  0.0000000000000000
