Sm Cu Se
 1.0000000000000000
     6.6675760000000004    0.0345440000000000    0.0000000000000000
    -0.8403280000000000    7.0892150000000003    0.0000000000000000
     0.0000000000000000    0.0000000000000000    7.4080820000000003
 Sm  Cu  Se 
   4   4   8
Cartesian
  4.3697562281520002  2.1462834489599998  4.0401234560940003
  1.8776557718480000  1.4328680510400000  0.3360824560940000
  1.4574917718480001  4.9774755510400004  3.3679585439060000
  3.9495922281520000  5.6908909489599999  7.0719995439060002
 -0.0014400045920000  3.8704634954090000  6.2256632158160006
  5.8286880045920002  3.2532955045910001  1.1824187841840001
  0.4187239954080000  0.3258559954090000  4.8864597841839998
  5.4085240045919996  6.7979030045910003  2.5216222158160004
  2.7969494564319999  0.0302951677240000  5.3657256491740002
  2.3767854564319997  3.5749026677240003  5.7463973508260002
  3.4504625435680008  3.5488563322760003  1.6616846491740001
  3.0302985435680005  7.0934638322760000  2.0423563508260001
  5.4158475735920000  5.1430610362200007  4.5332128020960001
 -0.0087635735919999  5.5253054637799996  0.8291718020960001
  0.4114004264080000  1.9806979637800002  2.8748691979039998
  5.8360115735919997  1.5984535362200001  6.5789101979040003
