Ta Cr Ru
 1.0000000000000000
     0.0000000000000000    3.1224059999999998    3.1224059999999998
     3.1224059999999998    0.0000000000000000    3.1224059999999998
     3.1224059999999998    3.1224059999999998    0.0000000000000000
 Ta  Cr  Ru 
   2   1   1
Cartesian
  0.0000000000000000  0.0000000000000000  0.0000000000000000
  3.1224122448120002  3.1224122448120002  3.1224122448120002
  1.5612029999999999  1.5612029999999999  1.5612029999999999
  4.6836089999999997  4.6836089999999997  4.6836089999999997
