Hf Mn Ir
 1.0000000000000000
     0.0011090000000000    3.2017319999999998    3.2017080000000000
     3.2016879999999999    0.0011190000000000    3.2016990000000001
     3.2016879999999999    3.2017220000000002    0.0011220000000000
 Hf  Mn  Ir 
   2   1   1
Cartesian
  0.0001312769710000  0.0000864700630000  0.0000896700750000
  3.2021912508120001  3.2022000432350000  3.2021716426950002
  4.8032581131490000  4.8034329328689997  4.8033967322009996
  1.6011532613349997  1.6011432555449998  1.6011322555649998
