Ce B  Rh
 1.0000000000000000
     4.2114919999999998    0.0000000000000000    0.0000000000000000
     0.0000000000000000    4.2115070000000001    0.0000000000000000
     0.0000000000000000    0.0000000000000000    4.2114890000000003
 Ce  B   Rh 
   1   1   3
Cartesian
  0.0000000000000000  0.0000000000000000  0.0000000000000000
  2.1057459999999999  2.1057535000000001  2.1057445000000001
  0.0000000000000000  2.1057535000000001  2.1057445000000001
  2.1057459999999999  2.1057535000000001  0.0000000000000000
  2.1057459999999999  0.0000000000000000  2.1057445000000001
