Hf Fe Si
 1.0000000000000000
     5.0258260000000003    0.0000000000000000    0.0000000000000000
     0.0000000000000000    7.0247690000000000    0.0000000000000000
     0.0000000000000000    0.0000000000000000    7.4346009999999998
 Hf  Fe  Si 
   4   8   8
Cartesian
  3.7693695000000003  6.3718026719119996  5.5856603389060000
  1.2564565000000001  0.6529663280880000  1.8489406610940000
  3.7693695000000003  2.8594181719120000  1.8489406610940000
  1.2564565000000001  4.1653508280880001  5.5856603389060000
  3.7693695000000003  3.6324307774410003  6.6288909858269998
  1.2564565000000001  3.3923382225589997  0.8057100141729999
  3.7693695000000003  0.1200533022100000  0.8057100141729999
  1.2564565000000001  6.9047227225589998  6.6288909858269998
  0.0000000000000000  5.2685767500000003  2.9032637327069999
  2.5129130000000002  1.7561922500000000  4.5313372672929999
  0.0000000000000000  1.7561922500000000  4.5313372672929999
  2.5129130000000002  5.2685767500000003  2.9032637327069999
  3.7693695000000003  3.8545469484519996  4.3565274939799998
  1.2564565000000001  3.1702220515480004  3.0780735060200000
  3.7693695000000003  0.3421624484520000  3.0780735060200000
  1.2564565000000001  6.6826065515480000  4.3565274939799998
  0.0000000000000000  5.2685767500000003  0.4192891925970000
  2.5129130000000002  1.7561922500000000  7.0153118074029992
  0.0000000000000000  1.7561922500000000  7.0153118074029992
  2.5129130000000002  5.2685767500000003  0.4192891925970000
