Pr Si Os
 1.0000000000000000
     3.9330039999999999    0.0000000000000000   -1.5250880000000000
    -0.5913780000000000    3.8882900000000000   -1.5250880000000000
    -0.0211430000000000   -0.0246010000000000    5.7793749999999999
 Pr  Si  Os 
   1   2   2
Cartesian
  0.0000000000000000  0.0000000000000000  0.0000000000000000
  2.1188171600970001  2.4654393785669999 -0.3697369914609999
  1.2016658399030000  1.3982496214330000  3.0989359914610004
  0.5291460000000001  2.9039170000000003  1.3645995000000000
  2.7913369999999995  0.9597720000000000  1.3645995000000000
