Hf Al
 1.0000000000000000
     7.5742740000000000    0.0000000000000000    0.0000000000000000
     0.0000000000000000    7.5742740000000000    0.0000000000000000
     0.0000000000000000    0.0000000000000000    6.9027620000000001
 Hf  Al 
  12   8
Cartesian
  2.6207745467399999  2.6207745467399999  0.0000000000000000
  1.1663624532599999  6.4079115467400003  3.4513810000000000
  6.4079115467400003  1.1663624532599999  3.4513810000000000
  4.9534994532600001  4.9534994532600001  0.0000000000000000
  1.5410996594099999  6.0331743405899996  0.0000000000000000
  5.3282366594099999  5.3282366594099999  3.4513810000000000
  2.2460373405900000  2.2460373405900000  3.4513810000000000
  6.0331743405899996  1.5410996594099999  0.0000000000000000
  0.0000000000000000  3.7871370000000000  1.7256905000000000
  0.0000000000000000  3.7871370000000000  5.1770715000000003
  3.7871370000000000  0.0000000000000000  1.7256905000000000
  3.7871370000000000  0.0000000000000000  5.1770715000000003
  0.9186155249940000  0.9186155249940000  1.4407997067359999
  2.8685214750059997  4.7057525249939998  4.8921807067360001
  4.7057525249939998  2.8685214750059997  4.8921807067360001
  6.6556584750060006  6.6556584750060006  1.4407997067359999
  4.7057525249939998  2.8685214750059997  2.0105812932639999
  2.8685214750059997  4.7057525249939998  2.0105812932639999
  0.9186155249940000  0.9186155249940000  5.4619622932639995
  6.6556584750060006  6.6556584750060006  5.4619622932639995
