Zn Rh
 1.0000000000000000
    -1.8336460000000001    1.8336460000000001    4.0204519999999997
     1.8336460000000001   -1.8336460000000001    4.0204519999999997
     1.8336460000000001    1.8336460000000001   -4.0204519999999997
 Zn  Rh 
   3   1
Cartesian
  0.0000000000000000  1.8336460000000001  2.0102340409039994
  1.8336460000000003 -0.0000000000000001  2.0102340409040003
  0.0000000000000000  0.0000000000000000  4.0204519999999997
  0.0000000000000000  0.0000000000000000  0.0000000000000000
