Hf Si
 1.0000000000000000
     6.5832759999999997    0.0000000000000000    0.0000000000000000
     0.0000000000000000    6.5832759999999997    0.0000000000000000
     0.0000000000000000    0.0000000000000000    5.1930470000000000
 Hf  Si 
   8   4
Cartesian
  1.0329357542279998  2.2587022457719996  2.5965235000000000
  2.2587022457719996  5.5503402457719995  2.5965235000000000
  2.2587022457719996  1.0329357542279998  0.0000000000000000
  1.0329357542279998  4.3245737542280001  0.0000000000000000
  4.3245737542280001  5.5503402457719995  0.0000000000000000
  5.5503402457719995  2.2587022457719996  0.0000000000000000
  5.5503402457719995  4.3245737542280001  2.5965235000000000
  4.3245737542280001  1.0329357542279998  2.5965235000000000
  0.0000000000000000  0.0000000000000000  3.8947852500000000
  0.0000000000000000  0.0000000000000000  1.2982617500000000
  3.2916379999999998  3.2916379999999998  1.2982617500000000
  3.2916379999999998  3.2916379999999998  3.8947852500000000
