Ca Ag N 
 1.0000000000000000
    -4.8955430000000000    4.8955399999999996    4.8955399999999996
     4.8955399999999996   -4.8955440000000001    4.8955409999999997
     4.8955399999999996    4.8955409999999997   -4.8955430000000000
 Ca  Ag  N  
   6  16   1
Cartesian
 -2.3932366843999997  4.8955392332899992  4.8955394888599990
  4.8955392332899992 -2.3932374288300000  4.8955402332899993
 -0.0000022332900005  7.2887744288300000 -0.0000022332900003
  4.8955377667099986  4.8955380222799993  2.3932314288300001
  4.8955392332899992  4.8955399777199995 -2.3932364288299999
  2.3932306843999998  4.8955377667099995  4.8955385111399998
  2.4477684999999996  2.4477684999999996  2.4477689999999992
  7.3433084999999991  2.4477669999999994  2.4477679999999999
  2.4477669999999994  7.3433089999999996  2.4477674999999994
  2.4477669999999994  2.4477664999999993  7.3433094999999984
  0.0000028136689995  3.3972932108429998  3.3972935578220005
  1.4982398117429996  4.8955406530209995 -1.4982428117430000
  3.3972932108429998  0.0000024666909993  3.3972939047999997
  3.3972932108429998  3.3972935578210000  0.0000031606479996
  1.4982398117429996 -1.4982434647640002  4.8955406530209995
 -0.0000030000000009  6.3937801177849991  3.3972975352360000
 -0.0000030000000007  3.3972968822149996  6.3937804647639993
  1.4982437891569997  1.4982434421789996  4.8955348393519991
  3.3972971882569993 -0.0000036530210008  6.3937808117429995
  3.3972971882569993  6.3937804647639993 -0.0000026530210002
  1.4982437891569997  4.8955345333089992  1.4982440952000000
  4.8955341863309991  1.4982437891569997  1.4982444421780001
  9.7910799999999991 -0.0000030000000004 -0.0000020000000003
