Hf Pd
 1.0000000000000000
    -0.0000000000000000   -3.9943059999999999    0.0000000000000000
     5.8621480000000004    1.9971540000000001    0.0000000000000000
     0.0000000000000000    0.0000000000000000    3.9885989999999998
 Hf  Pd 
   1   5
Cartesian
  0.0000000000000000  0.0000000000000000  0.0000000000000000
  1.9159610037280002 -1.9971566674699996  0.0000000000000000
  3.9461928584200003  0.0000026703180001  0.0000000000000000
  0.0000000000000000 -1.9971530000000000  1.9942915228019999
  1.9442927650120001  0.0000023288220000  1.9942915228019999
  3.9178552349880005 -1.9971543288219995  1.9942915228019999
