Ta Pd
 1.0000000000000000
     3.2874319999999999    0.0000000000000000    0.0000000000000000
     0.0000000000000000    3.2874319999999999    0.0000000000000000
     0.0000000000000000    0.0000000000000000    6.0833880000000002
 Ta  Pd 
   2   2
Cartesian
  2.4655740000000002  2.4655740000000002  5.2001773966080007
  0.8218580000000000  0.8218580000000000  0.8832106033920001
  2.4655740000000002  2.4655740000000002  2.2451412586679997
  0.8218580000000000  0.8218580000000000  3.8382467413320005
