Tm Ta Ru
 1.0000000000000000
     0.0000000000000000    3.2313839999999998    3.2313839999999998
     3.2313839999999998    0.0000000000000000    3.2313839999999998
     3.2313839999999998    3.2313839999999998    0.0000000000000000
 Tm  Ta  Ru 
   1   1   2
Cartesian
  4.8470759999999995  4.8470759999999995  4.8470759999999995
  1.6156984627679998  1.6156984627679998  1.6156984627679998
  0.0000000000000000  0.0000000000000000  0.0000000000000000
  3.2313904627680001  3.2313904627680001  3.2313904627680001
