Ga Pt
 1.0000000000000000
     3.6349420000000001    0.0000000000000000    2.0986349999999998
     1.2116469999999999    3.4270559999999999    2.0986349999999998
     0.0000000000000000    0.0000000000000000    4.1972699999999996
 Ga  Pt 
   2   1
Cartesian
  1.2116472500000000  0.8567640000000000  2.0986349999999998
  3.6349417499999999  2.5702919999999998  6.2959049999999994
  0.0000000000000000  0.0000000000000000  0.0000000000000000
