Li Cd Sb
 1.0000000000000000
     6.8183740000000004    0.0000000000000000    0.0000000000000000
     0.0000000000000000    6.8183740000000004    0.0000000000000000
     0.0000000000000000    0.0000000000000000    6.8183740000000004
 Li  Cd  Sb 
   8   4   4
Cartesian
  1.7045935000000001  5.1137805000000007  5.1137805000000007
  5.1137805000000007  1.7045935000000001  1.7045935000000001
  1.7045935000000001  1.7045935000000001  1.7045935000000001
  5.1137805000000007  5.1137805000000007  5.1137805000000007
  5.1137805000000007  5.1137805000000007  1.7045935000000001
  1.7045935000000001  1.7045935000000001  5.1137805000000007
  5.1137805000000007  1.7045935000000001  5.1137805000000007
  1.7045935000000001  5.1137805000000007  1.7045935000000001
  0.0000000000000000  0.0000000000000000  0.0000000000000000
  0.0000000000000000  3.4091870000000002  3.4091870000000002
  3.4091870000000002  0.0000000000000000  3.4091870000000002
  3.4091870000000002  3.4091870000000002  0.0000000000000000
  0.0000000000000000  3.4091870000000002  0.0000000000000000
  0.0000000000000000  0.0000000000000000  3.4091870000000002
  3.4091870000000002  3.4091870000000002  3.4091870000000002
  3.4091870000000002  0.0000000000000000  0.0000000000000000
