In P  Pd
 1.0000000000000000
     3.9530059999999998    0.0000000000000000    0.0000000000000000
     0.0000000000000000    3.9530059999999998    0.0000000000000000
     0.0000000000000000    0.0000000000000000    6.9702409999999997
 In  P   Pd 
   1   1   5
Cartesian
  1.9765029999999999  1.9765029999999999  0.0000000000000000
  0.0000000000000000  0.0000000000000000  3.4851204999999998
  0.0000000000000000  1.9765029999999999  2.0845620949060000
  0.0000000000000000  1.9765029999999999  4.8856789050939993
  1.9765029999999999  0.0000000000000000  2.0845620949060000
  1.9765029999999999  0.0000000000000000  4.8856789050939993
  0.0000000000000000  0.0000000000000000  0.0000000000000000
