Th Mn Ge
 1.0000000000000000
    -2.0780910000000001    2.0780910000000001    5.4901609999999996
     2.0780910000000001   -2.0780910000000001    5.4901609999999996
     2.0780910000000001    2.0780910000000001   -5.4901609999999996
 Th  Mn  Ge 
   1   2   2
Cartesian
  0.0000000000000000  0.0000000000000000  0.0000000000000000
  0.0000000000000002  2.0780909999999997  2.7450804999999998
  2.0780910000000001  0.0000000000000000  2.7450804999999998
  0.0000000000000001 -0.0000000000000001  6.7705543877760004
  0.0000000000000000 -0.0000000000000000  4.2097676122239998
