Nb Ge
 1.0000000000000000
     4.9888539999999999    0.0000000000000000    0.0000000000000000
    -2.4944280000000001    4.3204739999999999    0.0000000000000000
     0.0000000000000000    0.0000000000000000    6.7843530000000003
 Nb  Ge 
   3   6
Cartesian
 -1.2472140000000000  2.1602370000000000  1.1307277614510001
  1.2472129999999999  2.1602370000000000  5.6536252385490000
  2.4944269999999999  0.0000000000000000  3.3921765000000001
  2.4944338095960004  2.9106385266899997  3.3921765000000001
 -1.2734856420080001  3.6155627440560001  5.6536252385490000
  1.2734690017579999  3.6155627440560001  1.1307277614510001
 -0.0000078095960001  1.4098354733100000  3.3921765000000001
  3.7679116420080003  0.7049112559439999  5.6536252385490000
  1.2209569982420001  0.7049112559439999  1.1307277614510001
