Ca Pb F 
 1.0000000000000000
     5.2872029999999999    0.0000000000000000    3.0525679999999999
     1.7624010000000001    4.9848229999999996    3.0525679999999999
     0.0000000000000000    0.0000000000000000    6.1051370000000000
 Ca  Pb  F  
   1   1   6
Cartesian
  3.5248020000000002  2.4924114999999998  6.1051365000000004
  0.0000000000000000  0.0000000000000000  0.0000000000000000
  2.6079340285620001  3.7890586739369998  7.6931986313029999
  2.6079340285620001  3.7890586739369998  4.5170743686970001
  4.4416699714380004  1.1957643260630000  4.5170743686970001
  5.3585379428760005  3.7890586739369998  6.1051362398810003
  1.6910660571239999  1.1957643260630000  6.1051367601189996
  4.4416699714380004  1.1957643260630000  7.6931986313029999
