I 
 1.0000000000000000
     2.3016660000000000   -4.5704260000000003    0.0000000000000000
     2.3016660000000000    4.5704260000000003    0.0000000000000000
     0.0000000000000000    0.0000000000000000    9.8324789999999993
 I  
   4
Cartesian
  3.0329835448439999 -0.0000000000000000  1.2039182261969998
  1.5703484551560001  0.0000000000000000  8.6285607738030006
  3.8720144551560001  0.0000000000000000  6.1201577261969993
  0.7313175448440000 -0.0000000000000000  3.7123212738029996
