Ho Cu
 1.0000000000000000
     3.4184939999999999    0.0000000000000000    0.0000000000000000
     0.0000000000000000    3.4184939999999999    0.0000000000000000
     0.0000000000000000    0.0000000000000000    3.4184939999999999
 Ho  Cu 
   1   1
Cartesian
  1.7092470000000000  1.7092470000000000  1.7092470000000000
  0.0000000000000000  0.0000000000000000  0.0000000000000000
