Al Cu Au
 1.0000000000000000
     0.0000000000000000    3.1142859999999999    3.1142859999999999
     3.1142859999999999    0.0000000000000000    3.1142859999999999
     3.1142859999999999    3.1142859999999999    0.0000000000000000
 Al  Cu  Au 
   1   1   2
Cartesian
  1.5571429999999999  1.5571429999999999  1.5571429999999999
  4.6714289999999998  4.6714289999999998  4.6714289999999998
  3.1142859999999999  3.1142859999999999  3.1142859999999999
  0.0000000000000000  0.0000000000000000  0.0000000000000000
