Ce Co Si
 1.0000000000000000
     3.7538659999999999    0.0000000000000000   -1.4060950000000001
    -0.5266840000000000    3.7167340000000002   -1.4060950000000001
    -0.0696530000000000   -0.0802180000000000    5.5279610000000003
 Ce  Co  Si 
   1   2   2
Cartesian
  0.0000000000000000  0.0000000000000000  0.0000000000000000
  0.5086269999999999  2.7474414999999999  1.3578855000000001
  2.6489020000000001  0.8890745000000001  1.3578855000000001
  2.0309144231769998  2.3389971986200000 -0.2919683918929999
  1.1266145768229998  1.2975188013800001  3.0077393918930002
