Li Ru W 
 1.0000000000000000
     0.0000000000000000    3.0061580000000001    3.0061580000000001
     3.0061580000000001    0.0000000000000000    3.0061580000000001
     3.0061580000000001    3.0061580000000001    0.0000000000000000
 Li  Ru  W  
   1   2   1
Cartesian
  3.0061580000000001  3.0061580000000001  3.0061580000000001
  1.5030790000000001  1.5030790000000001  1.5030790000000001
  4.5092370000000006  4.5092370000000006  4.5092370000000006
  0.0000000000000000  0.0000000000000000  0.0000000000000000
