Ti Fe Te
 1.0000000000000000
     3.5810629999999999   -0.0000020000000000    2.0675279999999998
     1.1936860000000000    3.3762590000000001    2.0675279999999998
     0.0000000000000000    0.0000000000000000    4.1350550000000004
 Ti  Fe  Te 
   1   1   1
Cartesian
  2.3873745000000000  1.6881285000000001  4.1350555000000000
  1.1936872500000000  0.8440642500000001  2.0675277500000000
  0.0000000000000000  0.0000000000000000  0.0000000000000000
