Er Ag Sn
 1.0000000000000000
     4.6727790000000002   -0.0000000000000000    0.0000000000000000
    -2.3363900000000002    4.0467459999999997    0.0000000000000000
     0.0000000000000000    0.0000000000000000    7.3559010000000002
 Er  Ag  Sn 
   2   2   2
Cartesian
  0.0000000000000000  0.0000000000000000  1.7996211796500001
  0.0000000000000000  0.0000000000000000  5.4775716796500005
 -0.0000026697230001  2.6978320155819997  0.4680780483330000
  2.3363916697230005  1.3489139844179998  4.1460285483330006
 -0.0000026697230001  2.6978320155819997  3.4184048891160002
  2.3363916697230005  1.3489139844179998  7.0963553891160007
