Pr B  C 
 1.0000000000000000
     3.8927060000000000    0.0000000000000000    0.0000000000000000
     0.0000000000000000    5.3878190000000004    0.0000000000000000
     0.0000000000000000    0.0000000000000000    5.3878190000000004
 Pr  B   C  
   2   4   4
Cartesian
  0.0000000000000000  2.6939095000000002  2.6939095000000002
  0.0000000000000000  0.0000000000000000  0.0000000000000000
  1.9463530000000000  3.4363078556480002  0.7423983556480001
  1.9463530000000000  4.6454206443519999  3.4363078556480002
  1.9463530000000000  1.9515165321710002  4.6454206443519999
  1.9463530000000000  0.7423983556480001  1.9515165321710002
  1.9463530000000000  3.5602923464759999  4.5214361535240002
  1.9463530000000000  4.5214361535240002  1.8275266535240000
  1.9463530000000000  0.8663828464760001  3.5602923464759999
  1.9463530000000000  1.8275266535240000  0.8663828464760001
