Pt S 
 1.0000000000000000
     3.5487419999999998    0.0000000000000000    0.0000000000000000
    -1.7743709999999999    3.0733009999999998    0.0000000000000000
     0.0000000000000000    0.0000000000000000    5.5970670000000000
 Pt  S  
   1   2
Cartesian
  0.0000000000000000  0.0000000000000000  0.0000000000000000
  1.7743727743710003  1.0244326422329999  4.3638316454880002
 -0.0000017743710000  2.0488683577669997  1.2332353545120001
