Th Ni Sn
 1.0000000000000000
     4.0177990000000001    0.0000000000000000    2.3196770000000000
     1.3392670000000000    3.7880170000000000    2.3196770000000000
    -0.0000000000000000    0.0000000000000000    4.6393550000000001
 Th  Ni  Sn 
   1   1   1
Cartesian
  4.0177994999999997  2.8410127500000000  6.9590317499999994
  0.0000000000000000  0.0000000000000000  0.0000000000000000
  1.3392664999999999  0.9470042500000000  2.3196772499999998
