Ti H 
 1.0000000000000000
     2.7238310000000001    0.0332750000000000   -1.4312630000000000
    -1.7378840000000000    2.5303529999999999   -0.2143600000000000
     0.0228530000000000   -0.0332750000000000    3.0768890000000000
 Ti  H  
   1   2
Cartesian
  0.0000000000000000  0.0000000000000000  0.0000000000000000
  0.9445842500000000  0.6242694999999999  1.5384452500000001
  0.0642157500000001  1.9060835000000000 -0.1071792499999999
