Ca Pd O 
 1.0000000000000000
     5.7679070000000001    0.0000000000000000    0.0000000000000000
     0.0000000000000000    5.7679070000000001    0.0000000000000000
     0.0000000000000000    0.0000000000000000    5.7679070000000001
 Ca  Pd  O  
   2   6   8
Cartesian
  2.8839535000000001  2.8839535000000001  2.8839535000000001
  0.0000000000000000  0.0000000000000000  0.0000000000000000
  0.0000000000000000  2.8839535000000001  1.4419767500000000
  0.0000000000000000  2.8839535000000001  4.3259302499999999
  2.8839535000000001  4.3259302499999999  0.0000000000000000
  2.8839535000000001  1.4419767500000000  0.0000000000000000
  4.3259302499999999  0.0000000000000000  2.8839535000000001
  1.4419767500000000  0.0000000000000000  2.8839535000000001
  1.4419767500000000  1.4419767500000000  1.4419767500000000
  4.3259302499999999  1.4419767500000000  4.3259302499999999
  4.3259302499999999  4.3259302499999999  1.4419767500000000
  1.4419767500000000  4.3259302499999999  4.3259302499999999
  4.3259302499999999  4.3259302499999999  4.3259302499999999
  1.4419767500000000  4.3259302499999999  1.4419767500000000
  1.4419767500000000  1.4419767500000000  4.3259302499999999
  4.3259302499999999  1.4419767500000000  1.4419767500000000
