Lu Cd Ag
 1.0000000000000000
     0.0000000000000000    3.5864250000000002    3.5864250000000002
     3.5864250000000002    0.0000000000000000    3.5864250000000002
     3.5864250000000002    3.5864250000000002    0.0000000000000000
 Lu  Cd  Ag 
   2   1   1
Cartesian
  0.0000000000000000  0.0000000000000000  0.0000000000000000
  3.5864178271500005  3.5864178271500005  3.5864178271500005
  5.3796375000000003  5.3796375000000003  5.3796375000000003
  1.7932196728499998  1.7932196728499998  1.7932196728499998
