Ca Be N 
 1.0000000000000000
     4.6977950000000002   -0.0048780000000000   -2.2632050000000001
    -2.8423929999999999    4.3172550000000003   -0.6881220000000000
    -0.0032120000000000    0.0048780000000000    5.2145339999999996
 Ca  Be  N  
   2   4   4
Cartesian
 -2.1342037500000002  3.2415997500000002  3.3948089999999995
 -0.7114012500000000  1.0805332500000000  1.1316029999999999
  3.1748166049000002  0.5448257101800000  1.4756647526799995
  0.5657868724600001  2.7058922101800000  2.9931289409599993
 -1.3226266048999999  3.7724292898200003  0.7875422473199998
  1.2864031275400003  1.6113627898200000 -0.7299219409600002
  1.8664989110980001  0.7302665459340000  0.4760969276479998
  2.0368838620749998  2.8864550508120002 -1.4756608981110002
 -0.1846938620750000  1.4307999491880001  3.7388678981109997
 -0.0143089110979999  3.5869884540660002  1.7871100723519997
