Be Ir Pt
 1.0000000000000000
     0.0000000000000000    2.8045339999999999    2.8045339999999999
     2.8045339999999999    0.0000000000000000    2.8045339999999999
     2.8045339999999999    2.8045339999999999    0.0000000000000000
 Be  Ir  Pt 
   2   1   1
Cartesian
  2.8045339999999999  2.8045339999999999  2.8045339999999999
  0.0000000000000000  0.0000000000000000  0.0000000000000000
  1.4022726090679998  1.4022726090679998  1.4022726090679998
  4.2068009999999996  4.2068009999999996  4.2068009999999996
