Mn Cr Se
 1.0000000000000000
     0.0000000000000000    3.7052350000000001    0.0000000000000000
    -0.0295510000000000    0.0000000000000000    6.4135369999999998
     6.1046969999999998   -1.8526170000000000   -3.1711429999999998
 Mn  Cr  Se 
   1   2   4
Cartesian
  0.0000000000000000  0.0000000000000000  0.0000000000000000
  3.1458034889189999  0.0000002583090000  0.0964446927750000
  2.9293425110809999  1.8526177416909999  3.1459493072250004
  1.5854520487579999 -0.0000035742710000  2.1078021411419998
  4.4896939512419998  1.8526215742709999  1.1345918588580002
  4.4342623540330006 -0.0000014893730000 -2.1447447893270000
  1.6408836755180001  1.8526194893729999  5.3871323757900003
