Mn Al Ni
 1.0000000000000000
     3.5305110000000002   -0.0000000000000000    2.0383410000000000
     1.1768360000000000    3.3285969999999998    2.0383410000000000
     0.0000000000000000    0.0000000000000000    4.0766819999999999
 Mn  Al  Ni 
   1   1   2
Cartesian
  2.3536735000000002  1.6642984999999999  4.0766819999999999
  0.0000000000000000  0.0000000000000000  0.0000000000000000
  1.1768367500000001  0.8321492500000000  2.0383410000000000
  3.5305102499999998  2.4964477499999997  6.1150229999999999
