Th O 
 1.0000000000000000
     3.4298730000000002   -0.0000000000000000    1.9802379999999999
     1.1432899999999999    3.2337159999999998    1.9802379999999999
     0.0000000000000000    0.0000000000000000    3.9604759999999999
 Th  O  
   1   2
Cartesian
  0.0000000000000000  0.0000000000000000  0.0000000000000000
  1.1432907500000000  0.8084290000000000  1.9802379999999999
  3.4298722499999998  2.4252870000000000  5.9407139999999998
