Na Pb
 1.0000000000000000
     4.8973940000000002    0.0000000000000000    0.0000000000000000
     0.0000000000000000    4.8973940000000002    0.0000000000000000
     0.0000000000000000    0.0000000000000000    4.8973940000000002
 Na  Pb 
   1   3
Cartesian
  0.0000000000000000  0.0000000000000000  0.0000000000000000
  0.0000000000000000  2.4486970000000001  2.4486970000000001
  2.4486970000000001  2.4486970000000001  0.0000000000000000
  2.4486970000000001  0.0000000000000000  2.4486970000000001
