Tb Ni B  C 
 1.0000000000000000
    -1.7832570000000001    1.7832570000000001    5.1489669999999998
     1.7832570000000001   -1.7832570000000001    5.1489669999999998
     1.7832570000000001    1.7832570000000001   -5.1489669999999998
 Tb  Ni  B   C  
   1   2   2   1
Cartesian
  0.0000000000000000  0.0000000000000000  0.0000000000000000
 -0.0000000000000001  1.7832570000000003  2.5744834999999999
  1.7832570000000001  0.0000000000000000  2.5744834999999999
 -0.0000000000000000  0.0000000000000000  3.6568478530699999
 -0.0000000000000001  0.0000000000000001  6.6410861469299993
  0.0000000000000000  0.0000000000000000  5.1489669999999998
