Ca Ga Pt
 1.0000000000000000
     4.4429040000000004    0.0000000000000000    0.0000000000000000
     0.0000000000000000    7.1128660000000004    0.0000000000000000
     0.0000000000000000    0.0000000000000000    7.5461970000000003
 Ca  Ga  Pt 
   4   4   4
Cartesian
  3.3321780000000003  7.0308617678859999  2.3568056084490001
  1.1107260000000001  0.0820042321140000  5.1893913915510002
  3.3321780000000003  3.4744287678860002  1.4162928915510000
  1.1107260000000001  3.6384372321140002  6.1299041084489998
  3.3321780000000003  5.9475153731580006  6.9770326374720000
  1.1107260000000001  1.1653506268420002  0.5691643625280001
  3.3321780000000003  2.3910823731580000  4.3422628625280009
  1.1107260000000001  4.7217836268419999  3.2039341374720003
  3.3321780000000003  5.0126642819120004  4.5587708006550001
  1.1107260000000001  2.1002017180879999  2.9874261993450002
  3.3321780000000003  1.4562312819120000  6.7605246993450008
  1.1107260000000001  5.6566347180880001  0.7856723006550000
