Ca Mg Fe H 
 1.0000000000000000
     6.6852890000000000    0.0000000000000000    0.0000000000000000
     0.0000000000000000    6.6852890000000000    0.0000000000000000
     0.0000000000000000    0.0000000000000000    6.6852890000000000
 Ca  Mg  Fe  H  
   4   4   3  22
Cartesian
  1.9463483541709998  1.9463483541709998  4.7389406458289995
  1.9463483541709998  4.7389406458289995  1.9463483541709998
  4.7389406458289995  1.9463483541709998  1.9463483541709998
  4.7389406458289995  4.7389406458289995  4.7389406458289995
  5.2649258137709998  5.2649258137709998  1.4203631862290000
  5.2649258137709998  1.4203631862290000  5.2649258137709998
  1.4203631862290000  5.2649258137709998  5.2649258137709998
  1.4203631862290000  1.4203631862290000  1.4203631862290000
  0.0000000000000000  0.0000000000000000  3.3426445000000000
  0.0000000000000000  3.3426445000000000  0.0000000000000000
  3.3426445000000000  0.0000000000000000  0.0000000000000000
  0.0000000000000000  3.3426445000000000  1.5815254481520000
  3.3426445000000000  5.1037635518480000  0.0000000000000000
  5.1037635518480000  0.0000000000000000  3.3426445000000000
  0.0000000000000000  5.1037635518480000  3.3426445000000000
  3.3426445000000000  0.0000000000000000  1.5815254481520000
  5.1037635518480000  3.3426445000000000  0.0000000000000000
  0.0000000000000000  3.3426445000000000  5.1037635518480000
  3.3426445000000000  1.5815254481520000  0.0000000000000000
  0.0000000000000000  1.5815254481520000  3.3426445000000000
  3.3426445000000000  0.0000000000000000  5.1037635518480000
  1.5815254481520000  0.0000000000000000  3.3426445000000000
  1.5815254481520000  3.3426445000000000  0.0000000000000000
  0.0000000000000000  0.0000000000000000  1.7636527763790002
  0.0000000000000000  4.9216362236210003  0.0000000000000000
  4.9216362236210003  0.0000000000000000  0.0000000000000000
  0.0000000000000000  0.0000000000000000  4.9216362236210003
  0.0000000000000000  1.7636527763790002  0.0000000000000000
  1.7636527763790002  0.0000000000000000  0.0000000000000000
  4.1937954396129999  4.1937954396129999  2.4914935603870001
  4.1937954396129999  2.4914935603870001  4.1937954396129999
  2.4914935603870001  4.1937954396129999  4.1937954396129999
  2.4914935603870001  2.4914935603870001  2.4914935603870001
