Cr Pd
 1.0000000000000000
     3.8909750000000001    0.0000000000000000    0.0000000000000000
     0.0000000000000000    3.8908090000000000    0.0000000000000000
     0.0000000000000000    0.0000000000000000    3.8908700000000001
 Cr  Pd 
   1   3
Cartesian
  0.0000000000000000  0.0000000000000000  0.0000000000000000
  0.0000000000000000  1.9454045000000000  1.9454350000000000
  1.9454875000000000  0.0000000000000000  1.9454350000000000
  1.9454875000000000  1.9454045000000000  0.0000000000000000
