Sc Ti Ru
 1.0000000000000000
     0.0000000000000000    3.1291880000000001    3.1291880000000001
     3.1291880000000001    0.0000000000000000    3.1291880000000001
     3.1291880000000001    3.1291880000000001    0.0000000000000000
 Sc  Ti  Ru 
   1   1   2
Cartesian
  1.5646002583759999  1.5646002583759999  1.5646002583759999
  4.6937820000000006  4.6937820000000006  4.6937820000000006
  0.0000000000000000  0.0000000000000000  0.0000000000000000
  3.1291942583760002  3.1291942583760002  3.1291942583760002
