Al V  Ru
 1.0000000000000000
    -0.0000020000000000    2.9841319999999998    2.9841319999999998
     2.9841319999999998   -0.0000020000000000    2.9841319999999998
     2.9841319999999998    2.9841319999999998   -0.0000020000000000
 Al  V   Ru 
   1   1   2
Cartesian
  1.4920595317379999  1.4920595317379999  1.4920595317380001
  4.4761964999999995  4.4761964999999995  4.4761965000000004
  0.0000000000000000  0.0000000000000000  0.0000000000000000
  2.9841369682619998  2.9841369682619998  2.9841369682620003
