Al Mo
 1.0000000000000000
     2.4768580000000000   -1.4300150000000000    8.7612360000000002
     0.0000000000000000    2.8600289999999999    8.7612360000000002
    -2.4768580000000000   -1.4300150000000000    8.7612360000000002
 Al  Mo 
  10   2
Cartesian
  0.0000000000000000 -0.0000006692370001 17.5900298907960000
 -0.7633924041800002 -1.4300152500000001 15.3321629999999995
  0.7633924041799999  1.4300142499999999 10.9515450000000012
 -0.0000000000000000 -0.0000008307630000 21.8355321092039993
 -1.6201252020900001 -0.0538905193800001 10.9515449999999994
 -0.0000000000000000 -0.0000003307630000  8.6936781092039990
  1.6201252020900001  0.0538895193799998 15.3321630000000013
  0.0000000000000000 -0.0000001692370000  4.4481758907959996
  0.8567327979100000 -1.3761249806200000 10.9515450000000012
 -0.8567327979099999  1.3761239806200001 15.3321630000000013
  0.0000000000000000 -0.0000005000000001 13.1418540000000004
  0.0000000000000000  0.0000000000000000  0.0000000000000000
