Ti Fe Si
 1.0000000000000000
     0.0004290000000000    2.8234509999999999    2.8234509999999999
     2.8234509999999999    0.0004290000000000    2.8234509999999999
     2.8234509999999999    2.8234509999999999    0.0004290000000000
 Ti  Fe  Si 
   1   2   1
Cartesian
  4.2354530713519996  4.2354530713519996  4.2354530713519996
  5.6473309999999994  5.6473309999999994  5.6473309999999994
  2.8236654999999997  2.8236654999999997  2.8236654999999997
  1.4118609866549998  1.4118609866549998  1.4118609866549998
