Na Se O 
 1.0000000000000000
     5.7310619999999997    0.0108020000000000   -1.3248830000000000
    -3.1343450000000002    4.7980280000000004   -1.3248830000000000
    -0.0008710000000000   -0.0016140000000000    6.9570299999999996
 Na  Se  O  
   4   2   8
Cartesian
 -1.4507116714550004  3.8883627296900003  0.4143744999999999
  0.7652045785449998  2.6907492296900002  3.8928894999999999
  1.8306414214550000  2.1164667703100002  0.4143744999999999
  4.0465576714550000  0.9188532703100001  3.8928894999999999
 -2.0268223750000001  4.1984142500000008  3.8928894999999999
  4.6226683749999991  0.6088017500000000  0.4143744999999999
  2.2277915699860000  3.5836322488740007  2.1583241099909993
  0.8208096704469997  0.9780585452320001  5.6274548900090000
  3.9566796037670002  1.4840872644860001 -0.8223197318540000
  0.3680544300139998  1.2235837511260002  2.1489398900089998
  3.5255050020729999  0.6855997423940001  1.6510687318539996
 -0.9296590020730002  4.1216162576060009  2.6561952681459995
 -1.3608336037670004  3.3231287355140005  5.1295837318539999
  1.7750363295529996  3.8291574547680001 -1.3201908900090000
