Na Ni N 
 1.0000000000000000
     3.4417770000000001    0.0000000000000000    0.0000000000000000
     0.0000000000000000    5.7426170000000001    0.0000000000000000
     0.0000000000000000    0.0000000000000000    8.8706230000000001
 Na  Ni  N  
   4   4   4
Cartesian
  0.8604442500000000  0.3859268328680000  5.8808327415879997
  0.8604442500000000  2.4853816671320001  1.4455212415879999
  2.5813327500000001  5.3566901671320002  2.9897902584120000
  2.5813327500000001  3.2572353328680004  7.4251017584120005
  0.8604442500000000  3.5126956501130002  4.8863915501730002
  0.8604442500000000  5.1012298498869999  0.4510800501730000
  2.5813327500000001  2.2299213498870003  3.9842314498270004
  2.5813327500000001  0.6413871501130000  8.4195429498270009
  0.8604442500000000  1.1165714790120000  8.2546291976339994
  0.8604442500000000  1.7547370209880000  3.8193176976340002
  2.5813327500000001  4.6260455209879998  0.6159938023660001
  2.5813327500000001  3.9878799790120003  5.0513053023659999
