Be Au
 1.0000000000000000
     6.1219970000000004    0.0000000000000000    0.0000000000000000
     0.0000000000000000    6.1219970000000004    0.0000000000000000
     0.0000000000000000    0.0000000000000000    6.1219970000000004
 Be  Au 
  20   4
Cartesian
  0.7630395840830000  3.8240380840830004  5.3589574159169997
  4.5914977500000003  1.5304992500000001  1.5304992500000001
  0.7630395840830000  5.3589574159169997  3.8240380840830004
  2.2979589159170000  3.8240380840830004  3.8240380840830004
  2.2979589159170000  5.3589574159169997  5.3589574159169997
  0.7630395840830000  0.7630395840830000  2.2979589159170000
  4.5914977500000003  4.5914977500000003  4.5914977500000003
  0.7630395840830000  2.2979589159170000  0.7630395840830000
  2.2979589159170000  0.7630395840830000  0.7630395840830000
  2.2979589159170000  2.2979589159170000  2.2979589159170000
  3.8240380840830004  3.8240380840830004  2.2979589159170000
  1.5304992500000001  1.5304992500000001  4.5914977500000003
  3.8240380840830004  5.3589574159169997  0.7630395840830000
  5.3589574159169997  3.8240380840830004  0.7630395840830000
  5.3589574159169997  5.3589574159169997  2.2979589159170000
  3.8240380840830004  0.7630395840830000  5.3589574159169997
  1.5304992500000001  4.5914977500000003  1.5304992500000001
  3.8240380840830004  2.2979589159170000  3.8240380840830004
  5.3589574159169997  0.7630395840830000  3.8240380840830004
  5.3589574159169997  2.2979589159170000  5.3589574159169997
  0.0000000000000000  0.0000000000000000  0.0000000000000000
  0.0000000000000000  3.0609985000000002  3.0609985000000002
  3.0609985000000002  0.0000000000000000  3.0609985000000002
  3.0609985000000002  3.0609985000000002  0.0000000000000000
