Sr Sn N  O 
 1.0000000000000000
     0.0000000000000000    5.2179799999999998    5.2179799999999998
     5.2179799999999998    0.0000000000000000    5.2179799999999998
     5.2179799999999998    5.2179799999999998    0.0000000000000000
 Sr  Sn  N   O  
   6   2   1   1
Cartesian
  7.8482176145600002  5.2179799999999998  5.2179799999999998
  5.2179799999999998  2.5877423854399999  5.2179799999999998
  5.2179799999999998  7.8482176145600002  5.2179799999999998
  5.2179799999999998  5.2179799999999998  7.8482176145600002
  5.2179799999999998  5.2179799999999998  2.5877423854399999
  2.5877423854399999  5.2179799999999998  5.2179799999999998
  2.6089899999999999  2.6089899999999999  2.6089899999999999
  7.8269699999999993  7.8269699999999993  7.8269699999999993
  0.0000000000000000  0.0000000000000000  0.0000000000000000
  5.2179799999999998  5.2179799999999998  5.2179799999999998
