Sc Si Pt
 1.0000000000000000
     3.7197600000000000    0.0000000000000000    0.0000000000000000
     0.0000000000000000    9.9115559999999991    0.0000000000000000
     0.0000000000000000    0.0000000000000000    7.0292599999999998
 Sc  Si  Pt 
   4   4   8
Cartesian
  0.0000000000000000  9.4257014364359986  1.7573150000000000
  0.0000000000000000  0.4858545635640000  5.2719449999999997
  1.8598800000000000  4.4699234364359999  1.7573150000000000
  1.8598800000000000  5.4416325635640002  5.2719449999999997
  0.0000000000000000  2.3018300307719999  1.7573150000000000
  0.0000000000000000  7.6097259692279993  5.2719449999999997
  1.8598800000000000  7.2576080307719995  1.7573150000000000
  1.8598800000000000  2.6539479692279997  5.2719449999999997
  1.8598800000000000  8.5394497451399989  3.8515916366199998
  1.8598800000000000  1.3721062548599998  3.1776683633800000
  1.8598800000000000  1.3721062548599998  0.3369616366200000
  1.8598800000000000  8.5394497451399989  6.6922983633799999
  0.0000000000000000  3.5836717451399998  3.8515916366199998
  0.0000000000000000  6.3278842548599989  3.1776683633800000
  0.0000000000000000  6.3278842548599989  0.3369616366200000
  0.0000000000000000  3.5836717451399998  6.6922983633799999
