Li Si N 
 1.0000000000000000
     4.7777180000000001    0.0000000000000000    0.0000000000000000
     0.0000000000000000    4.5808119999999999   -2.6310050000000000
     0.0000000000000000    0.0003520000000000    5.3039170000000002
 Li  Si  N  
   2   4   6
Cartesian
  0.0118630737940000  3.0100653076359998 -1.7288412785150000
  2.4007220737940003  1.5707466923639999 -0.9021637214850000
  0.0616516730720000  4.5712260232639998  0.9198853797770004
  2.4505106730720003  0.0099379767360000  1.7530266202230000
  2.4505106730720003  3.0719583213480002  1.7809948992420002
  0.0616516730720000  1.5092056786519998  0.8919171007580001
  1.7885626218899999  4.3127997872080002  0.7272956361459999
  4.1774216218899998  0.2683642127920000  1.9456163638540001
  4.4589534327580003  1.2589124962759999 -0.7230606871149999
  2.0700944327580002  3.3218995037239996 -1.9079443128850000
  1.7885626218899999  1.5453296891600001  1.2121868860339999
  4.1774216218899998  3.0358343108399999  1.4607251139660000
