Mg Cr N 
 1.0000000000000000
     5.7613709999999996   -0.0221250000000000    0.0001970000000000
    -2.9003359999999998    5.0230360000000003   -0.0003920000000000
    -0.0001710000000000    0.0002950000000000    4.8943729999999999
 Mg  Cr  N  
   4   2   6
Cartesian
  0.9025153689460000  1.6633234215440000  2.2900938169520000
  3.8696690312049995  0.0278032603450000  2.2903440037950000
  1.9583259168199993  3.3380209737180007  4.7372085575699998
 -1.0089197346320000  4.9734913756720003  4.7370660467159995
 -1.9492933230429998  3.3759927529690001  2.3385322635189998
  4.8100909207430007  1.6253476348710001  4.7860213017210000
  0.7549023356040001  1.6694866298600000  4.4244608911079997
  3.9380502482979995  0.1586599849660000  4.4246768690060003
  2.1058715273209998  3.3318153868110003  1.9771986744370000
 -1.0772275136820002  4.8426669064600008  1.9770316404760000
  3.9385153572200005  3.1348126962619998  4.1616604839099995
 -1.0776827596550000  1.8664474579970001  1.7143336346550000
