Li Sb
 1.0000000000000000
     4.6927640000000004    0.0000000000000000    0.0000000000000000
    -2.3463810000000000    4.0640530000000004    0.0000000000000000
     0.0000000000000000    0.0000000000000000    8.3498900000000003
 Li  Sb 
   6   2
Cartesian
 -0.0000016797149999  2.7093700213510004  0.7327111973900000
  2.3463846797150003  1.3546829786490000  4.9076561973900006
  0.0000000000000000  0.0000000000000000  6.2624174999999997
  0.0000000000000000  0.0000000000000000  2.0874725000000001
 -0.0000016797149999  2.7093700213510004  3.4422338026100001
  2.3463846797150003  1.3546829786490000  7.6171788026099998
  2.3463846797150003  1.3546829786490000  2.0874725000000001
 -0.0000016797149999  2.7093700213510004  6.2624174999999997
