Li Si
 1.0000000000000000
     9.3553010000000008   -0.0000010000000000    0.0000000000000000
     0.0000010000000000    9.3553010000000008    0.0000000000000000
     0.0000000000000000    0.0000000000000000    5.7371119999999998
 Li  Si 
  16  16
Cartesian
  3.4101015980980005  7.7704003824780008  4.6190349278799996
  8.6013766175220017  5.7489250980980007  0.3162009278800000
  0.7539258824780001  8.2840254019020012  0.3162009278800000
  5.9452009019020000  6.2625501175220002  4.6190349278799996
  1.2675504019020001  6.2625506175220007  3.9866330721199996
  5.4315763824780010  8.2840249019020007  2.5523550721199997
  3.9237261175220004  5.7489255980980003  2.5523550721199997
  8.0877520980980009  7.7703998824780003  3.9866330721199996
  8.0877515980980004  3.0927493824780004  1.7504789278800001
  3.9237256175220003  1.0712750980980001  3.1847569278800001
  5.4315758824780005  3.6063744019020003  3.1847569278800001
  1.2675499019020000  1.5849001175220001  1.7504789278800001
  5.9452004019020004  1.5848996175220003  1.1180770721200000
  0.7539253824780001  3.6063749019020004  5.4209110721200000
  8.6013761175220012  1.0712745980980001  5.4209110721200000
  3.4101010980980004  3.0927498824780000  1.1180770721200000
  2.7805553579400004  8.0513869153060007  1.9796995007280001
  3.6427390846940000  0.4417288579400001  0.5454215007280000
  1.0349124153060001  8.9135716420600009  3.4139775007279995
  1.8970961420600001  1.3039135846940002  4.8482555007279995
  1.8970966420600002  5.9815640846939999  0.8888564992720001
  1.0349119153060000  4.2359211420600005  2.3231344992719998
  3.6427395846940001  5.1193793579399998  5.1916904992720001
  2.7805548579400003  3.3737364153060003  3.7574124992720002
  7.4582053579399998  3.3737359153060007  4.8482555007279995
  8.3203900846940009  5.1193788579400001  3.4139775007279995
  5.7125624153060013  4.2359206420600000  0.5454215007280000
  6.5747471420600014  5.9815635846940003  1.9796995007280001
  6.5747466420600009  1.3039130846940001  3.7574124992720002
  5.7125629153060009  8.9135711420600003  5.1916904992720001
  8.3203895846940004  0.4417283579400000  2.3231344992719998
  7.4582058579400003  8.0513864153060002  0.8888564992720001
