Sc Pb C 
 1.0000000000000000
     4.5540719999999997    0.0000000000000000    0.0000000000000000
     0.0000000000000000    4.5540719999999997    0.0000000000000000
     0.0000000000000000    0.0000000000000000    4.5540719999999997
 Sc  Pb  C  
   3   1   1
Cartesian
  0.0000000000000000  2.2770359999999998  2.2770359999999998
  2.2770359999999998  2.2770359999999998  0.0000000000000000
  2.2770359999999998  0.0000000000000000  2.2770359999999998
  0.0000000000000000  0.0000000000000000  0.0000000000000000
  2.2770359999999998  2.2770359999999998  2.2770359999999998
