Pr Ga
 1.0000000000000000
     4.2573720000000002    0.0000000000000000    0.0000000000000000
    -2.1286860000000001    3.6869920000000000    0.0000000000000000
     0.0000000000000000    0.0000000000000000    4.3807000000000000
 Pr  Ga 
   1   2
Cartesian
  0.0000000000000000  0.0000000000000000  0.0000000000000000
  2.1286881286860000  1.2289961043360000  2.1903500000000000
 -0.0000021286860001  2.4579958956640002  2.1903500000000000
