Nd P 
 1.0000000000000000
     3.6182430000000001    0.0000000000000000    2.0889929999999999
     1.2060810000000000    3.4113140000000000    2.0889929999999999
    -0.0000000000000000   -0.0000000000000000    4.1779880000000000
 Nd  P  
   1   1
Cartesian
  0.0000000000000000  0.0000000000000000  0.0000000000000000
  2.4121619999999999  1.7056570000000000  4.1779869999999999
