Li Ga Rh
 1.0000000000000000
     3.6785559999999999    0.0000000000000000    2.1238150000000000
     1.2261860000000000    3.4681760000000001    2.1238150000000000
     0.0000000000000000    0.0000000000000000    4.2476310000000002
 Li  Ga  Rh 
   1   2   1
Cartesian
  2.4523709999999999  1.7340880000000001  4.2476304999999996
  1.2261854999999999  0.8670440000000000  2.1238152499999998
  3.6785565000000000  2.6011320000000002  6.3714457499999995
  0.0000000000000000  0.0000000000000000  0.0000000000000000
