Sb Pt
 1.0000000000000000
     6.5533710000000003    0.0000000000000000    0.0000000000000000
     0.0000000000000000    6.5533710000000003   -0.0000010000000000
     0.0000000000000000   -0.0000010000000000    6.5533710000000003
 Sb  Pt 
   8   4
Cartesian
  2.4555219002160000  0.8211627250880000  5.7322072749120005
  0.8211635997840000  5.7322070255200011  2.4555210255200000
  5.7322074002160006  2.4555217749120000  0.8211632250880000
  4.0978490997839998  4.0978484744800001  4.0978484744800001
  2.4555219002160000  2.4555215255200000  2.4555215255200000
  0.8211635997840000  4.0978482250879997  5.7322067749120000
  5.7322074002160006  0.8211629744800000  4.0978489744799997
  4.0978490997839998  5.7322072749120005  0.8211627250880000
  0.0000000000000000  3.2766850000000001  3.2766850000000001
  3.2766855000000001  3.2766855000000001 -0.0000005000000000
  3.2766855000000001 -0.0000005000000000  3.2766855000000001
  0.0000000000000000  0.0000000000000000  0.0000000000000000
