Mg Si Pt
 1.0000000000000000
     4.3103520000000000    0.0000000000000000    0.0000000000000000
    -2.1551760000000000    3.7328739999999998    0.0000000000000000
     0.0000000000000000    0.0000000000000000    8.5576080000000001
 Mg  Si  Pt 
   4   2   2
Cartesian
 -0.0000021551760002  2.4885839109579999  4.9983619110720001
  2.1551781551759999  1.2442900890419999  0.7195579110720001
  2.1551781551759999  1.2442900890419999  3.5592460889280000
 -0.0000021551760002  2.4885839109579999  7.8380500889280000
  0.0000000000000000  0.0000000000000000  6.4182059999999996
  0.0000000000000000  0.0000000000000000  2.1394020000000000
  2.1551781551759999  1.2442900890419999  6.4182059999999996
 -0.0000021551760002  2.4885839109579999  2.1394020000000000
