Al Fe Mo
 1.0000000000000000
     5.8546269999999998    0.0000000000000000    0.0000000000000000
     0.0000000000000000    5.8546269999999998    0.0000000000000000
     0.0000000000000000    0.0000000000000000    5.8546269999999998
 Al  Fe  Mo 
   4   8   4
Cartesian
  0.0000000000000000  0.0000000000000000  0.0000000000000000
  0.0000000000000000  2.9273134999999999  2.9273134999999999
  2.9273134999999999  0.0000000000000000  2.9273134999999999
  2.9273134999999999  2.9273134999999999  0.0000000000000000
  4.3909702499999996  4.3909702499999996  1.4636567500000000
  1.4636567500000000  1.4636567500000000  4.3909702499999996
  4.3909702499999996  1.4636567500000000  4.3909702499999996
  1.4636567500000000  4.3909702499999996  1.4636567500000000
  1.4636567500000000  4.3909702499999996  4.3909702499999996
  4.3909702499999996  1.4636567500000000  1.4636567500000000
  1.4636567500000000  1.4636567500000000  1.4636567500000000
  4.3909702499999996  4.3909702499999996  4.3909702499999996
  2.9273134999999999  0.0000000000000000  0.0000000000000000
  2.9273134999999999  2.9273134999999999  2.9273134999999999
  0.0000000000000000  0.0000000000000000  2.9273134999999999
  0.0000000000000000  2.9273134999999999  0.0000000000000000
