As Pd
 1.0000000000000000
     6.0277750000000001    0.0000000000000000    0.0000000000000000
     0.0000000000000000    6.0277750000000001    0.0000000000000000
     0.0000000000000000    0.0000000000000000    6.0277750000000001
 As  Pd 
   8   4
Cartesian
  2.3155878495750000  0.6982996504250001  5.3294753495749996
  0.6982996504250001  5.3294753495749996  2.3155878495750000
  5.3294753495749996  2.3155878495750000  0.6982996504250001
  3.7121871504250001  3.7121871504250001  3.7121871504250001
  2.3155878495750000  2.3155878495750000  2.3155878495750000
  0.6982996504250001  3.7121871504250001  5.3294753495749996
  5.3294753495749996  0.6982996504250001  3.7121871504250001
  3.7121871504250001  5.3294753495749996  0.6982996504250001
  0.0000000000000000  3.0138875000000001  3.0138875000000001
  3.0138875000000001  3.0138875000000001  0.0000000000000000
  3.0138875000000001  0.0000000000000000  3.0138875000000001
  0.0000000000000000  0.0000000000000000  0.0000000000000000
