Sm Al
 1.0000000000000000
     6.4112499999999999    0.0000000000000000    0.0000000000000000
    -3.2056239999999998    5.5523049999999996    0.0000000000000000
     0.0000000000000000    0.0000000000000000    4.5926559999999998
 Sm  Al 
   2   6
Cartesian
  3.2056253333340003  1.8507720348700001  1.1481594073440000
  0.0000038722920004  3.7015385174350000  3.4444919999999999
  5.0487248804300000  0.7866505723999999  3.4444919999999999
 -0.0000029222619998  1.5733178017149998  1.1481594073440000
  1.8431038026960009  4.7656599799049992  1.1481594073440000
 -1.8431020860539997  4.7656599799049992  1.1481594073440000
  3.2056257166380000  3.9789927505899998  3.4444919999999999
  1.3625254029299998  0.7866505723999999  3.4444919999999999
