Sc Ge
 1.0000000000000000
     3.7749540000000001    0.0000000000000000    0.0000000000000000
     0.0000000000000000    3.7250280000000000   -1.4838430000000000
     0.0000000000000000    0.0063460000000000    5.4342889999999997
 Sc  Ge 
   2   2
Cartesian
  2.8312154999999999  0.5118698200639999  1.2854504127610000
  0.9437385000000000  3.2195041799360000  2.6649955872389999
  2.8312154999999999  1.5339723642160001  3.8522624615089995
  0.9437385000000000  2.1974016357840003  0.0981835384909998
