Nd Mg Zn
 1.0000000000000000
     0.0000000000000000    3.4662860000000002    3.4662860000000002
     3.4662860000000002    0.0000000000000000    3.4662860000000002
     3.4662860000000002    3.4662860000000002    0.0000000000000000
 Nd  Mg  Zn 
   1   1   2
Cartesian
  5.1994290000000003  5.1994290000000003  5.1994290000000003
  1.7331430000000001  1.7331430000000001  1.7331430000000001
  0.0000000000000000  0.0000000000000000  0.0000000000000000
  3.4662790674280002  3.4662790674280002  3.4662790674280002
