Zr Be
 1.0000000000000000
     4.5670050000000000    0.0000000000000000    0.0000000000000000
    -2.2835019999999999    3.9551440000000002    0.0000000000000000
     0.0000000000000000    0.0000000000000000    3.4630220000000000
 Zr  Be 
   1   5
Cartesian
  0.0000000000000000  0.0000000000000000  0.0000000000000000
 -0.0000019501690000  2.6367639850480002  0.0000000000000000
  2.2835049501689997  1.3183800149520000  0.0000000000000000
  2.2835025000000000  0.0000000000000000  1.7315110000000000
  1.1417515000000000  1.9775720000000001  1.7315110000000000
 -1.1417510000000000  1.9775720000000001  1.7315110000000000
