Ta Zn Co
 1.0000000000000000
     0.0000000000000000    2.9378869999999999    2.9378869999999999
     2.9378869999999999    0.0000000000000000    2.9378869999999999
     2.9378869999999999    2.9378869999999999    0.0000000000000000
 Ta  Zn  Co 
   1   1   2
Cartesian
  1.4689435000000000  1.4689435000000000  1.4689435000000000
  4.4068304999999999  4.4068304999999999  4.4068304999999999
  2.9378811242260001  2.9378811242260001  2.9378811242260001
  0.0000000000000000  0.0000000000000000  0.0000000000000000
