Al Ni
 1.0000000000000000
     4.8208099999999998    0.0000000000000000    0.0000000000000000
     0.0000000000000000    6.6201230000000004    0.0000000000000000
     0.0000000000000000    0.0000000000000000    7.3850110000000004
 Al  Ni 
  12   4
Cartesian
  4.4161512085999997  0.0487241052800000  1.8462527500000001
  1.7543506087200000  1.1336960637500002  3.2845501073490002
  1.7543506087200000  1.1336960637500002  0.4079553926510000
  4.1647556087200002  2.1763654362500002  4.1004608926510002
  0.6560543912799999  4.4437575637500002  3.2845501073490002
  3.0664593912800000  5.4864269362500000  6.9770556073490004
  0.6560543912799999  4.4437575637500002  0.4079553926510000
  3.0664593912800000  5.4864269362500000  4.1004608926510002
  4.1647556087200002  2.1763654362500002  6.9770556073490004
  2.8150637914000001  3.3587856052800005  1.8462527500000001
  0.4046587914000000  6.5713988947200006  5.5387582500000008
  2.0057462085999997  3.2613373947200004  5.5387582500000008
  2.1364865757999998  5.7613871249319999  1.8462527500000001
  0.2739184242000000  2.4513256249320001  1.8462527500000001
  2.6843234242000000  0.8587358750680001  5.5387582500000008
  4.5468915758000001  4.1687973750680003  5.5387582500000008
