Na P 
 1.0000000000000000
     9.8079610000000006    0.0000000000000000    0.0000000000000000
     0.0000000000000000   10.4482769999999991    0.0000000000000000
     0.0000000000000000    0.0000000000000000   12.4508060000000000
 Na  P  
  12  44
Cartesian
  0.0000000000000000  7.8362077499999998  3.1564909847019997
  4.9039805000000003  2.6120692499999998  3.0689120152980003
  0.0000000000000000  2.6120692499999998  9.2943150152980003
  4.9039805000000003  7.8362077499999998  9.3818939847019998
  7.4156914245290002  0.8136595713749999  0.0568130277780000
  2.5117109245290004  9.6346174286249990  6.1685899722220006
  7.2962500754710007  6.0377980713749997  6.1685899722220006
  2.3922695754709999  4.4104789286249995  0.0568130277780000
  2.3922695754709999  9.6346174286249990 12.3939929722219997
  7.2962500754710007  0.8136595713749999  6.2822160277779995
  2.5117109245290004  4.4104789286249995  6.2822160277779995
  7.4156914245290002  6.0377980713749997 12.3939929722219997
  0.0000000000000000  7.8362077499999998  6.1782393468720000
  4.9039805000000003  2.6120692499999998  0.0471636531280000
  0.0000000000000000  2.6120692499999998  6.2725666531280000
  4.9039805000000003  7.8362077499999998 12.4036423468719992
  6.7878544170360007  2.7177640201319999  9.5513992575860005
  1.8838739170360002  7.7305129798679992  9.1248097424139996
  7.9240870829640002  7.9419025201319995  9.1248097424139996
  3.0201065829639999  2.5063744798679997  9.5513992575860005
  3.0201065829639999  7.7305129798679992  2.8994067424140000
  7.9240870829640002  2.7177640201319999  3.3259962575860000
  1.8838739170360002  2.5063744798679997  3.3259962575860000
  6.7878544170360007  7.9419025201319995  2.8994067424140000
  5.8923777697749999  0.6919684891559998  9.9462143158459995
  0.9883972697750001  9.7563085108439989  8.7299946841540006
  8.8195637302250010  5.9161069891559990  8.7299946841540006
  3.9155832302250002  4.5321700108439993  9.9462143158459995
  3.9155832302250002  9.7563085108439989  2.5045916841540001
  8.8195637302250010  0.6919684891559998  3.7208113158460003
  0.9883972697750001  4.5321700108439993  3.7208113158460003
  5.8923777697749999  5.9161069891559990  2.5045916841540001
  5.7382358546990000  3.9929448831509995 11.0563406296120004
  0.8342553546990000  6.4553321168489992  7.6198683703880006
  8.9737056453010009  9.2170833831509995  7.6198683703880006
  4.0697251453010006  1.2311936168489999 11.0563406296120004
  4.0697251453010006  6.4553321168489992  1.3944653703880001
  8.9737056453010009  3.9929448831509995  4.8309376296120004
  0.8342553546990000  1.2311936168489999  4.8309376296120004
  5.7382358546990000  9.2170833831509995  1.3944653703880001
  5.7668947167410005  3.2998793249099996  7.6368512697719995
  0.8629044087800001  7.1483976750899991 11.0393577302279997
  8.9450467832590004  8.5240178249100005 11.0393577302279997
  4.0410760912199999  1.9242591750899998  7.6368512697719995
  4.0410760912199999  7.1483976750899991  4.8139547302279997
  8.9450467832590004  3.2998793249099996  1.4114482697720001
  0.8629044087800001  1.9242591750899998  1.4114482697720001
  5.7668947167410005  8.5240178249100005  4.8139547302279997
  0.1883324671220000 10.3799243718659984 10.6355656408420014
  5.0923129671220009  0.0683526281340000  8.0406433591579987
  4.7156480328780006  5.1557858718659997  8.0406433591579987
  9.6196285328780000  5.2924911281340004 10.6355656408420014
  9.6196285328780000  0.0683526281340000  1.8152403591580000
  4.7156480328780006 10.3799243718659984  4.4101626408419996
  5.0923129671220009  5.2924911281340004  4.4101626408419996
  0.1883324671220000  5.1557858718659997  1.8152403591580000
