Sc Ag Os
 1.0000000000000000
     0.0000000000000000    3.2929020000000002    3.2929020000000002
     3.2929020000000002    0.0000000000000000    3.2929020000000002
     3.2929020000000002    3.2929020000000002    0.0000000000000000
 Sc  Ag  Os 
   2   1   1
Cartesian
  0.0000000000000000  0.0000000000000000  0.0000000000000000
  3.2929020000000002  3.2929020000000002  3.2929020000000002
  1.6464444141960002  1.6464444141960002  1.6464444141960002
  4.9393530000000005  4.9393530000000005  4.9393530000000005
