Bi I  O 
 1.0000000000000000
     4.0042140000000002    0.0000000000000000    0.0000000000000000
     0.0000000000000000    4.0042140000000002    0.0000000000000000
     0.0000000000000000    0.0000000000000000    9.6048170000000006
 Bi  I   O  
   2   2   2
Cartesian
  3.0031604999999999  3.0031604999999999  8.3877810331130007
  1.0010535000000000  1.0010535000000000  1.2170359668869999
  1.0010535000000000  1.0010535000000000  6.5359819203300011
  3.0031604999999999  3.0031604999999999  3.0688350796700004
  3.0031604999999999  1.0010535000000000  0.0000000000000000
  1.0010535000000000  3.0031604999999999  0.0000000000000000
