Ca Cl O 
 1.0000000000000000
    10.4166749999999997    0.0000000000000000    0.0000000000000000
     0.0000000000000000    6.9765569999999997   -0.0063930000000000
     0.0000000000000000    4.9637580000000003    7.0779880000000004
 Ca  Cl  O  
   4   8  24
Cartesian
  9.3297366304499985  6.6247997683530002  6.9869355520730005
  4.1213991304499995  7.7973942316470000  3.6236534479270004
  6.2952758695500002  4.1429207683530000  3.4479415520729999
  1.0869383695499999  5.3155152316469998  0.0846594479270000
  2.1112204389749998  6.8315667364469999  6.4709178598370007
  7.3195579389749996  7.5906272635530003  4.1396711401630002
  0.6816047119500001  7.6005121595879999  2.9285766600680003
  5.8899422119499993  1.8579238404120000  0.6040243399320000
  4.5267327880500003 10.0823911595880009  6.4675706600679996
  9.7350702880500002  4.3398028404120002  4.1430183399320004
  3.0971170610250001  4.3496877364469997  2.9319238598370001
  8.3054545610249999  5.1087482635530002  0.6006771401630001
  1.2239488958250000  5.6877025470030000  6.8364971193630000
  9.5818201654499990  5.6811402049500002  4.7805844194600002
  6.3316821486749992  6.4537086365250005  4.2294004835950005
  2.6077729195499999  6.5780339360940001  5.1093979634640005
  7.8161104195499993  7.8441600639060001  5.5011910365360004
  7.1947974224999998  1.1634945472080001  0.7997137403280000
  4.8840351572250000  1.0738242601679999  1.3644440550079999
  1.1233446486750001  7.9684853634750006  6.3811885164050004
 10.0923726572250008  8.3846117398319997  2.1681569449920000
  1.9864599224999999  8.2949414527920009  2.7328872596720002
  4.3734826654500001  8.7410537950500000  5.8300045805399998
  6.4322863958249998  8.7344914529970001  3.7740918806370001
  3.9843886041749998  3.2058235470029999  3.2975031193630002
  6.0431923345500005  3.1992612049500004  1.2415904194600003
  8.4302150774999998  3.6453735472080004  4.3387077403280010
  0.3243023427750000  3.5557032601679999  4.9034380550080003
  9.2933303513250003  3.9718296365249999  0.6904064835950000
  5.5326398427749997 10.8664907398320008  5.7071509449920006
  3.2218775774999999 10.7768204527920002  6.2718812596719999
  2.6005645804499999  4.0961549360939999  1.5704039634640001
  7.8089020804500002  5.3622810639059999  1.9621970365360002
  4.0849928513249996  5.4866063634750004  2.8421945164049998
  0.8348548345499999  6.2591747950499999  2.2910105805400001
  9.1927261041749997  6.2526124529970000  0.2350978806370000
