Rb W  Br
 1.0000000000000000
     0.0000000000000000    5.2879180000000003    5.2878990000000003
     5.2879160000000001    0.0000000000000000    5.2878990000000003
     5.2879160000000001    5.2879180000000003    0.0000000000000000
 Rb  W   Br 
   2   1   6
Cartesian
  7.9318740000000005  7.9318770000000001  7.9318485000000010
  2.6439580000000000  2.6439590000000002  2.6439495000000002
  0.0000000000000000  0.0000000000000000  0.0000000000000000
  5.2879160000000001  8.0323791695080011  5.2878990000000003
  5.2879160000000001  5.2879180000000003  2.5434476916060000
  5.2879160000000001  5.2879180000000003  8.0323503083940011
  5.2879160000000001  2.5434568304920000  5.2878990000000003
  8.0323761314960009  5.2879180000000003  5.2878990000000003
  2.5434558685040001  5.2879180000000003  5.2878990000000003
