Th S 
 1.0000000000000000
     4.3061210000000001    0.0000000000000000    0.0000000000000000
     0.0000000000000000    7.2885140000000002    0.0000010000000000
     0.0000020000000000    0.0000010000000000    8.6423860000000001
 Th  S  
   4   8
Cartesian
  3.2295925153859999  5.4706793174389992  7.6285743760869993
  1.0765304846160000  1.8178283940480000  1.0138212662980000
  3.2295919846139998  1.8264220520530001  5.3350056250910001
  1.0765310153859999  5.4620856594329998  3.3073813749080001
  3.2295926087079998  1.0169599992599998  8.0318361381730004
  1.0765303912999999  6.2715185581739998  0.6105854313660001
  3.2295918912919999  4.6612166405520004  4.9317436408850002
  1.0765311087020000  2.6272619168750002  3.7106174319520000
  3.2295914204420000  0.2037798981470000  2.8971093052649999
  1.0765315795600001  7.0847715444240000  5.7452863371260001
  3.2295910795579998  3.8480440162189997  1.4240842506540001
  1.0765319204420001  3.4405147148649999  7.2183027493520004
