Eu Ir
 1.0000000000000000
     0.0000000000000000    3.8170679999999999    3.8170679999999999
     3.8170679999999999    0.0000000000000000    3.8170679999999999
     3.8170679999999999    3.8170679999999999    0.0000000000000000
 Eu  Ir 
   2   4
Cartesian
  1.9085340000000000  1.9085340000000000  1.9085340000000000
  0.0000000000000000  0.0000000000000000  0.0000000000000000
  2.8628010000000002  4.7713349999999997  2.8628009999999997
  2.8628009999999997  2.8628009999999997  4.7713349999999997
  4.7713349999999997  2.8628010000000002  2.8628010000000002
  4.7713349999999997  4.7713349999999997  4.7713349999999997
