Ba Cl
 1.0000000000000000
     4.5164660000000003    0.0000000000000000    2.6075819999999998
     1.5054890000000001    4.2581619999999996    2.6075819999999998
     0.0000000000000000    0.0000000000000000    5.2151639999999997
 Ba  Cl 
   1   2
Cartesian
  0.0000000000000000  0.0000000000000000  0.0000000000000000
  4.5164662499999997  3.1936214999999999  7.8227459999999995
  1.5054887500000000  1.0645404999999999  2.6075819999999998
