Cr Si Te
 1.0000000000000000
     7.5203030000000002   -3.4152399999999998   -0.0841280000000000
     7.5202850000000003    3.4152830000000001   -0.0840570000000000
     6.0333119999999996   -0.0000430000000000    5.6413690000000001
 Cr  Si  Te 
   2   2   6
Cartesian
 14.0391582193000009  0.0000000000000003  3.6461640294079998
  7.0347417807000001  0.0000000000000002  1.8270199705920003
  1.1000997278000000  0.0000000000000000  0.2857111511680000
 19.9738002721999983  0.0000000000000001  5.1874728488319999
  9.1990340978840006  0.9611991566020001  0.3404366196180000
  8.2421098975380005  1.2366394717720000  4.0249686240600004
  8.6606092143780007 -2.1978386283739999  2.4135819414100004
 12.4132907856220012  2.1978386283740003  3.0596020585899999
 12.8317901024619996 -1.2366394717719997  1.4482153759400000
 11.8748659021159995 -0.9611991566019997  5.1327473803819998
