Sr Br F 
 1.0000000000000000
     4.2239290000000000    0.0000000000000000    0.0000000000000000
     0.0000000000000000    4.2239290000000000    0.0000000000000000
     0.0000000000000000    0.0000000000000000    7.3815949999999999
 Sr  Br  F  
   2   2   2
Cartesian
  3.1679467500000000  3.1679467500000000  6.0167528476900003
  1.0559822500000000  1.0559822500000000  1.3648421523100001
  1.0559822500000000  1.0559822500000000  4.7903156016300006
  3.1679467500000000  3.1679467500000000  2.5912793983700002
  1.0559822500000000  3.1679467500000000  0.0000000000000000
  3.1679467500000000  1.0559822500000000  0.0000000000000000
