Bi Pd
 1.0000000000000000
     4.2803880000000003    0.0000000000000000    0.0000000000000000
    -2.1401940000000002    3.7079149999999998    0.0000000000000000
     0.0000000000000000    0.0000000000000000    5.6977989999999998
 Bi  Pd 
   2   2
Cartesian
  0.0000042803879999  2.4715033274200002  1.4244497500000000
  2.1401897196120001  1.2364116725800001  4.2733492499999999
  0.0000000000000000  0.0000000000000000  2.8488994999999999
  0.0000000000000000  0.0000000000000000  0.0000000000000000
