Zr Cu Si
 1.0000000000000000
     6.3360000000000003    0.0000000000000000    0.0000000000000000
    -3.1680009999999998    5.4871379999999998    0.0000000000000000
     0.0000000000000000    0.0000000000000000    3.9880270000000002
 Zr  Cu  Si 
   3   4   2
Cartesian
 -1.8675207494949999  3.2346404153099999  1.9940135000000001
  1.3004794294950004  2.2524975846899999  1.9940135000000001
  3.7350403200000000  0.0000000000000000  1.9940135000000001
  0.0000000000000000  0.0000000000000000  1.9940135000000001
  1.5596380800000003  0.0000000000000000  0.0000000000000000
  2.3881802061550004  4.1364515456099999  0.0000000000000000
 -0.7798192861550000  1.3506864543900001  0.0000000000000000
  3.1680028346669999  1.8290441709540000  0.0000000000000000
 -0.0000038346670000  3.6580938290459999  0.0000000000000000
