La Br
 1.0000000000000000
     8.0539559999999994    0.0001190000000000    0.0000000000000000
    -4.0270799999999998    6.9748700000000001    0.0000000000000000
     0.0000000000000000    0.0000000000000000    4.5103470000000003
 La  Br 
   2   6
Cartesian
  4.0269480270119997  2.3250336750830001  3.3827602500000005
 -0.0000720270120003  4.6499553249170003  1.1275867500000001
  2.1208976230320005  4.8838351243779998  3.3827602500000005
  4.8848791997279983  4.2787868790520003  1.1275867500000001
  1.9059783769679999  2.0911538756220001  1.1275867500000001
 -0.8580031997280001  2.6962021209480000  3.3827602500000005
 -1.2630984233039997  6.3698217546739997  3.3827602500000005
  5.2899744233039989  0.6051672453260000  1.1275867500000001
