Nb Ni P 
 1.0000000000000000
     3.5888070000000001    0.0000000000000000    0.0000000000000000
     0.0000000000000000    6.1307859999999996    0.0000000000000000
     0.0000000000000000    0.0000000000000000    7.0734170000000001
 Nb  Ni  P  
   4   4   4
Cartesian
  0.8972017500000000  3.1918956383240000  2.3564522862140000
  0.8972017500000000  0.1265026383240000  1.1802562137860000
  2.6916052500000003  6.0042833616759994  5.8931607862140005
  2.6916052500000003  2.9388903616760000  4.7169647137860000
  2.6916052500000003  2.1414161111539998  0.4843875961600000
  0.8972017500000000  0.9239768888460000  4.0210960961600000
  2.6916052500000003  5.2068091111539996  3.0523209038400001
  0.8972017500000000  3.9893698888459999  6.5890294038400006
  0.8972017500000000  4.8131268189499998  4.3872586005819993
  0.8972017500000000  1.7477338189500000  6.2228668994180003
  2.6916052500000003  1.3176591810500000  2.6861583994179998
  2.6916052500000003  4.3830521810500001  0.8505501005820001
