Ga Ag
 1.0000000000000000
     7.7331490000000001    0.0000000000000000    0.0000000000000000
    -3.8665750000000001    6.6971049999999996    0.0000000000000000
     0.0000000000000000    0.0000000000000000    2.9120979999999999
 Ga  Ag 
   3   6
Cartesian
  3.8665781999080000  2.2323661009649998  0.0000000000000000
 -0.0000041999080003  4.4647388990349999  0.0000000000000000
  0.0000000000000000  0.0000000000000000  1.4560489999999999
  2.3583320516360002  0.0000000000000000  0.0000000000000000
  2.6874081266639998  4.6547290707799993  0.0000000000000000
 -1.1791661783000000  2.0423759292199999  0.0000000000000000
 -2.4673427055750001  4.2735633397050004  1.4560489999999999
  1.3992357991199997  2.4235483573999996  1.4560489999999999
  4.9346847730290007  0.0000000000000000  1.4560489999999999
