Be Pd
 1.0000000000000000
     2.9000080000000001    0.0000000000000000    0.0000000000000000
     0.0000000000000000    9.6746649999999992    0.0000000000000000
     0.0000000000000000    0.0000000000000000    7.6855159999999998
 Be  Pd 
   4  12
Cartesian
  1.4500040000000001  2.3803932752599999  5.7641369999999998
  1.4500040000000001  7.2942717247399989  1.9213789999999999
  0.0000000000000000  7.2177257752599999  5.7641369999999998
  0.0000000000000000  2.4569392247400001  1.9213789999999999
  1.4500040000000001  9.0144658603999996  5.7641369999999998
  1.4500040000000001  0.6601991395999999  1.9213789999999999
  0.0000000000000000  1.3199532446100000  7.2133870666039996
  0.0000000000000000  8.3547117553899994  0.4721289333960000
  0.0000000000000000  8.3547117553899994  3.3706290666039997
  0.0000000000000000  1.3199532446100000  4.3148869333960000
  0.0000000000000000  4.1771333603999992  5.7641369999999998
  0.0000000000000000  5.4975316395999991  1.9213789999999999
  1.4500040000000001  6.1572857446100002  7.2133870666039996
  1.4500040000000001  3.5173792553899998  0.4721289333960000
  1.4500040000000001  3.5173792553899998  3.3706290666039997
  1.4500040000000001  6.1572857446100002  4.3148869333960000
