Fe Sn
 1.0000000000000000
     2.6662669999999999   -1.5393699999999999    6.6128530000000003
     0.0000000000000000    3.0787390000000001    6.6128530000000003
    -2.6662669999999999   -1.5393699999999999    6.6128530000000003
 Fe  Sn 
   6   4
Cartesian
 -0.0000000000000001  1.4710364940820000 10.9723366631320012
  1.2739557039350000 -0.7355190766629999 10.9723366631320030
 -1.2739557039350000 -0.7355190766629998 10.9723366631320012
  1.2739557039350000  0.7355180766630003  8.8662223368680007
 -0.0000000000000000 -1.4710374940819999  8.8662223368680007
 -1.2739557039350000  0.7355180766630003  8.8662223368680007
 -0.0000000000000001 -0.0000008939609997 17.7348980421990028
 -0.0000000000000000 -0.0000001060389999  2.1036609578009999
 -0.0000000000000001 -0.0000006694429999 13.2807844526370005
 -0.0000000000000000 -0.0000003305569999  6.5577745473630005
