Sc Cu Ir
 1.0000000000000000
     0.0015240000000000    3.2273820000000000    3.2271939999999999
     3.2290709999999998    0.0007890000000000    3.2279279999999999
     3.2290980000000000    3.2281430000000002    0.0007620000000000
 Sc  Cu  Ir 
   2   1   1
Cartesian
  3.2290851140340000  3.2281881803600005  0.0008329951640000
  3.2298626134860000  3.2281053656930001  3.2278742327359997
  1.6149103306140000  1.6140655873720000  1.6139580882319999
  4.8447665224800005  4.8422419539470001  4.8419097721000002
