Tm Mg
 1.0000000000000000
     3.7469700000000001    0.0000000000000000    0.0000000000000000
     0.0000000000000000    3.7469700000000001    0.0000000000000000
     0.0000000000000000    0.0000000000000000    3.7469700000000001
 Tm  Mg 
   1   1
Cartesian
  1.8734850000000001  1.8734850000000001  1.8734850000000001
  0.0000000000000000  0.0000000000000000  0.0000000000000000
