Sc H  Cl
 1.0000000000000000
     9.2866400000000002   -1.7476270000000000    0.0032270000000000
     9.2866400000000002    1.7476270000000000    0.0032270000000000
     8.9567139999999998    0.0000000000000000    3.0121709999999999
 Sc  H   Cl 
   2   2   2
Cartesian
 24.1887612182020000 -0.0000000000000001  2.6522635396249998
  3.3412327817980003  0.0000000000000000  0.3663614603750000
 22.1991410218280016 -0.0000000000000000  2.4341044922499999
  5.3308529781720004 -0.0000000000000000  0.5845205077500000
 10.9102192121819996  0.0000000000000000  1.1962901433749999
 16.6197747878180024 -0.0000000000000000  1.8223348566250002
