Ca Sn
 1.0000000000000000
     4.5085150000000001    0.0000000000000000   -1.7257520000000000
     0.0000000000000000    4.3832100000000001    0.0000000000000000
    -0.1974270000000000    0.0000000000000000    6.2363249999999999
 Ca  Sn 
   2   2
Cartesian
  0.5484042914660000  3.2874075000000000  1.4327074493990000
  3.7626837085339999  1.0958025000000000  3.0778655506010004
  1.7098555356329999  3.2874075000000000  4.4669803943939996
  2.6012324643670000  1.0958025000000000  0.0435926056060001
