Ti Tc Os
 1.0000000000000000
     0.0000000000000000    3.0876640000000002    3.0876640000000002
     3.0876640000000002    0.0000000000000000    3.0876640000000002
     3.0876640000000002    3.0876640000000002    0.0000000000000000
 Ti  Tc  Os 
   2   1   1
Cartesian
  0.0000000000000000  0.0000000000000000  0.0000000000000000
  3.0876640000000002  3.0876640000000002  3.0876640000000002
  4.6314960000000003  4.6314960000000003  4.6314960000000003
  1.5438320000000001  1.5438320000000001  1.5438320000000001
