Al Os
 1.0000000000000000
     3.1314280000000001    0.0000000000000000    0.0000000000000000
     0.0000000000000000    3.1314280000000001    0.0000000000000000
     0.0000000000000000    0.0000000000000000   14.2423979999999997
 Al  Os 
   6   4
Cartesian
  0.0000000000000000  0.0000000000000000  0.0000000000000000
  0.0000000000000000  0.0000000000000000  2.7919942495320003
  0.0000000000000000  0.0000000000000000 11.4504037504679985
  1.5657140000000001  1.5657140000000001  7.1211989999999998
  1.5657140000000001  1.5657140000000001  9.9131932495320001
  1.5657140000000001  1.5657140000000001  4.3292047504680005
  1.5657140000000001  1.5657140000000001 12.7163677814940002
  1.5657140000000001  1.5657140000000001  1.5260302185060000
  0.0000000000000000  0.0000000000000000  5.5951687814940003
  0.0000000000000000  0.0000000000000000  8.6472292185060002
