Zr Sb Ru
 1.0000000000000000
     3.8681610000000002    0.0000000000000000    2.2332839999999998
     1.2893870000000001    3.6469369999999999    2.2332839999999998
     0.0000000000000000    0.0000000000000000    4.4665670000000004
 Zr  Sb  Ru 
   1   1   1
Cartesian
  0.0000000000000000  0.0000000000000000  0.0000000000000000
  2.5787740000000001  1.8234684999999999  4.4665675000000000
  1.2893870000000001  0.9117342500000000  2.2332837500000000
