Rb U  O 
 1.0000000000000000
     4.3283699999999996    0.0000000000000000    0.0000000000000000
     0.0000000000000000    4.3283730000000000    0.0000000000000000
     0.0000000000000000    0.0000000000000000    4.3283730000000000
 Rb  U   O  
   1   1   3
Cartesian
  2.1641849999999998  2.1641865000000000  2.1641865000000000
  0.0000000000000000  0.0000000000000000  0.0000000000000000
  0.0000000000000000  2.1641865000000000  0.0000000000000000
  0.0000000000000000  0.0000000000000000  2.1641865000000000
  2.1641849999999998  0.0000000000000000  0.0000000000000000
