Rb Pr Se
 1.0000000000000000
     8.0720609999999997   -2.1999930000000001   -0.0049220000000000
     8.0720609999999997    2.1999930000000001   -0.0049220000000000
     7.4747599999999998    0.0000000000000000    3.7584730000000000
 Rb  Pr  Se 
   1   1   2
Cartesian
  0.0000000000000000  0.0000000000000000  0.0000000000000000
 11.8094409999999996  0.0000000000000000  1.8743144999999999
  5.5367619373219998  0.0000000000000000  0.8787573588090000
 18.0821200626780012 -0.0000000000000000  2.8698716411910001
