Dy B  Ru
 1.0000000000000000
     5.4725120000000000    0.0000000000000000    0.0000000000000000
    -2.7362560000000000    4.7393349999999996    0.0000000000000000
     0.0000000000000000    0.0000000000000000    3.0210219999999999
 Dy  B   Ru 
   1   2   3
Cartesian
  0.0000000000000000  0.0000000000000000  0.0000000000000000
 -0.0000027362560002  3.1595582464449996  0.0000000000000000
  2.7362587362560000  1.5797767535549998  0.0000000000000000
  2.7362560000000000  0.0000000000000000  1.5105109999999999
  1.3681280000000000  2.3696674999999998  1.5105109999999999
 -1.3681280000000000  2.3696674999999998  1.5105109999999999
