Co P 
 1.0000000000000000
     3.4471870000000000    0.0000000000000000    0.0000000000000000
     0.0000000000000000    5.7345220000000001    0.0000880000000000
     0.0000000000000000   -0.0001630000000000    6.4360239999999997
 Co  P  
   8   4
Cartesian
  2.5853902500000001  0.2126852347830000  2.1346457807279999
  0.8617967500000000  5.5218458039740002  4.3013439374559992
  2.5853902500000001  3.0796804000480003  1.0833716918640000
  0.8617967500000000  2.6546728611920001  5.3529076446719994
  0.8617967500000000  2.0607328018229998  2.7995154196879999
  2.5853902500000001  3.6736089913510002  3.6367253005280000
  0.8617967500000000  4.9279222083630003  0.4186038270560000
  2.5853902500000001  0.8064310589079999  6.0174373765919995
  0.8617967500000000  4.2457268776310002  2.4323480364159997
  2.5853902500000001  1.4885977204529999  4.0035580102879997
  0.8617967500000000  1.3785419879870000  0.7856601685919999
  2.5853902500000001  4.3557137883349997  5.6505419341599996
