Nb P  C 
 1.0000000000000000
     3.3203160000000000    0.0000000000000000    0.0000000000000000
    -1.6601580000000000    2.8754780000000002    0.0000000000000000
     0.0000000000000000    0.0000000000000000   11.5853760000000001
 Nb  P   C  
   4   2   2
Cartesian
 -0.0000016601580000  1.9169862918260001  4.6345211320319999
  1.6601596601580000  0.9584917081740001 10.4272091320320008
  1.6601596601580000  0.9584917081740001  6.9508548679679993
 -0.0000016601580000  1.9169862918260001  1.1581668679679999
  1.6601596601580000  0.9584917081740001  2.8963440000000000
 -0.0000016601580000  1.9169862918260001  8.6890320000000010
  0.0000000000000000  0.0000000000000000  5.7926880000000001
  0.0000000000000000  0.0000000000000000  0.0000000000000000
