Ga Ni
 1.0000000000000000
     4.0108990000000002    0.0000000000000000    0.0000000000000000
    -2.0054479999999999    3.4735390000000002    0.0000000000000000
     0.0000000000000000    0.0000000000000000    4.8648809999999996
 Ga  Ni 
   3   2
Cartesian
  2.0054520054490004  1.1578451754870001  1.7515566201209998
 -0.0000010054489999  2.3156938245130001  3.1133243798789993
  0.0000000000000000  0.0000000000000000  0.0000000000000000
  2.0054520054490004  1.1578451754870001  4.1719273503599998
 -0.0000010054489999  2.3156938245130001  0.6929536496399999
