Hf Br N 
 1.0000000000000000
     3.5582349999999998    0.0000000000000000    0.0000000000000000
     0.0000000000000000    4.1040310000000000    0.0000000000000000
     0.0000000000000000    0.0000000000000000    8.9051659999999995
 Hf  Br  N  
   2   2   2
Cartesian
  2.6686762499999999  1.0260077500000000  0.8556706854420000
  0.8895587500000000  3.0780232500000002  8.0494953145579995
  2.6686762499999999  3.0780232500000002  5.9763726697579989
  0.8895587500000000  1.0260077500000000  2.9287933302419997
  2.6686762499999999  3.0780232500000002  0.3032030919680000
  0.8895587500000000  1.0260077500000000  8.6019629080320001
