Li Mg P 
 1.0000000000000000
     4.2266969999999997    0.0000000000000000    0.0000000000000000
     2.1133479999999998    3.6604269999999999    0.0000000000000000
     2.1133479999999998    1.2201430000000000    3.4510839999999998
 Li  Mg  P  
   1   1   1
Cartesian
  6.3400447499999997  3.6604274999999999  2.5883129999999999
  2.1133482500000000  1.2201424999999999  0.8627710000000000
  0.0000000000000000  0.0000000000000000  0.0000000000000000
