Mn Sn
 1.0000000000000000
     6.6461519999999998    0.0000000000000000    0.0000000000000000
     0.0000000000000000    6.6461519999999998    0.0000000000000000
     0.0000000000000000    0.0000000000000000    5.4203599999999996
 Mn  Sn 
   4   8
Cartesian
  0.0000000000000000  0.0000000000000000  1.3550899999999999
  0.0000000000000000  0.0000000000000000  4.0652699999999999
  3.3230759999999999  3.3230759999999999  4.0652699999999999
  3.3230759999999999  3.3230759999999999  1.3550899999999999
  5.5527802421759995  2.2297042421760001  0.0000000000000000
  1.0933717578239999  2.2297042421760001  2.7101799999999998
  2.2297042421760001  1.0933717578239999  0.0000000000000000
  1.0933717578239999  4.4164477578239998  0.0000000000000000
  2.2297042421760001  5.5527802421759995  2.7101799999999998
  4.4164477578239998  5.5527802421759995  0.0000000000000000
  5.5527802421759995  4.4164477578239998  2.7101799999999998
  4.4164477578239998  1.0933717578239999  2.7101799999999998
