Ti Pd O 
 1.0000000000000000
     0.0007420000000000    5.6765749999999997    0.0002410000000000
     2.8377669999999999   -2.8377409999999998    4.2613519999999996
     5.6766129999999997    0.0007400000000000   -0.0002320000000000
 Ti  Pd  O  
   6   2   2
Cartesian
  3.9826274974730000  1.1451698287229997  4.2614615355560002
  4.5315851840770005 -1.6930716178729999  4.2610245341089996
  2.8384995605320000  2.8386407333310002  2.1310927989759998
  3.9835197853419997  4.5326399390779999  0.0003364663460000
  4.5325030183910000  1.6944126874259997 -0.0000962739540000
  5.6766196009589995  0.0009304278350002  2.1302639394309995
  2.8384265975999998  0.0002595802769999  2.1302861670710000
  5.6766897265289993  2.8393200955580000  2.1310748334019998
  2.8385317501969998  2.8388566665470001  4.2605616956189998
  2.8386774555129999  2.8386291598379998  0.0010358032120000
