Li Cu Sn
 1.0000000000000000
     3.8206410000000002    0.0000000000000000    2.2058490000000002
     1.2735470000000000    3.6021350000000001    2.2058490000000002
     0.0000000000000000    0.0000000000000000    4.4116960000000001
 Li  Cu  Sn 
   2   1   1
Cartesian
  2.5470940000000000  1.8010675000000000  4.4116970000000002
  1.2735470000000000  0.9005337500000000  2.2058485000000001
  3.8206410000000002  2.7016012500000000  6.6175455000000003
  0.0000000000000000  0.0000000000000000  0.0000000000000000
