Ca Zn Ge
 1.0000000000000000
     4.2562129999999998    0.0000000000000000    0.0000000000000000
    -2.1281059999999998    3.6859890000000002    0.0000000000000000
     0.0000000000000000    0.0000000000000000    8.2870950000000008
 Ca  Zn  Ge 
   2   2   2
Cartesian
  0.0000000000000000  0.0000000000000000  0.0000000000000000
  0.0000000000000000  0.0000000000000000  4.1435475000000004
 -0.0000017947729999  2.4573272286630004  2.0717737500000002
  2.1281087947730000  1.2286617713370001  6.2153212500000006
 -0.0000017947729999  2.4573272286630004  6.2153212500000006
  2.1281087947730000  1.2286617713370001  2.0717737500000002
