Er Si Os
 1.0000000000000000
     3.8740850000000000    0.0000000000000000   -1.5235350000000001
    -0.5991500000000000    3.8274729999999999   -1.5235350000000001
    -0.0361690000000000   -0.0422690000000000    5.5953580000000001
 Er  Si  Os 
   1   2   2
Cartesian
  0.0000000000000000  0.0000000000000000  0.0000000000000000
  2.0500388559279998  2.3959163584400005 -0.4744379476960004
  1.1887238691370001  1.3892838140869999  3.0227289947660001
  0.5010742500000001  2.8494702500000000  1.2741439999999999
  2.7376917499999998  0.9357337500000000  1.2741439999999999
