Al Cu S 
 1.0000000000000000
     4.8124589999999996    0.0000000000000000   -2.1887569999999998
    -0.9954700000000000    4.7083760000000003   -2.1887569999999998
     0.0230950000000000    0.0284890000000000    6.4357800000000003
 Al  Cu  S  
   2   2   4
Cartesian
  1.9084944999999998  2.3541880000000002 -2.1887569999999998
  3.3720242499999995  1.1913385000000001  1.0291330000000003
  0.4680597499999999  3.5455265000000002  1.0291330000000003
  0.0000000000000000  0.0000000000000000  0.0000000000000000
  3.3110375447899996  4.1269512500000003 -2.2056425871699998
  2.8935169457000001  0.6437669734400000  3.1695300871700005
  1.4717462052099997  1.7727632500000001 -0.0483599128299999
  0.0038673043000000  2.9302485265599998  3.2010044128300006
