Li Au
 1.0000000000000000
     3.8049420000000000    0.0000000000000000    2.1967840000000001
     1.2683139999999999    3.5873349999999999    2.1967840000000001
     0.0000000000000000    0.0000000000000000    4.3935690000000003
 Li  Au 
   3   1
Cartesian
  3.8049420000000000  2.6905012500000001  6.5903527500000001
  2.5366279999999999  1.7936675000000000  4.3935685000000007
  1.2683139999999999  0.8968337500000000  2.1967842500000003
  0.0000000000000000  0.0000000000000000  0.0000000000000000
