La Pd O 
 1.0000000000000000
     5.6229079999999998    0.0000000000000000    0.0000000000000000
     0.0000000000000000    6.7039499999999999    0.0001090000000000
     0.0000000000000000   -0.0001090000000000    6.7039499999999999
 La  Pd  O  
   4   4  10
Cartesian
  2.8114539999999999  0.7183685931350000  4.9400518770620003
  0.0000000000000000  4.9399428770620002  5.9855814068649993
  2.8114539999999999  5.9854724068649992  1.7640071229379999
  0.0000000000000000  1.7638981229380000  0.7184775931349999
  0.0000000000000000  2.0752836734489999  3.9874694597890001
  2.8114539999999999  2.7164805402110002  2.0753926734490000
  0.0000000000000000  4.6285573265509994  2.7165895402109999
  2.8114539999999999  3.9873604597890000  4.6286663265509995
  1.4489502937959999  5.3554660621079995  3.9881864835579997
  4.2604042937960003  2.7157635164420002  5.3555750621079996
  4.1739577062039999  1.3483749378920000  2.7158725164420003
  1.4489502937959999  1.3483749378920000  2.7158725164420003
  4.2171810000000001  0.0000000000000000  0.0000000000000000
  4.2604042937960003  3.9880774835579995  1.3484839378919999
  1.3625037062040000  3.9880774835579995  1.3484839378919999
  4.1739577062039999  5.3554660621079995  3.9881864835579997
  1.4057269999999999  0.0000000000000000  0.0000000000000000
  1.3625037062040000  2.7157635164420002  5.3555750621079996
