Fe Sn
 1.0000000000000000
     3.8130549999999999    0.0000000000000000    0.0000000000000000
     0.0000000000000000    3.8130549999999999    0.0000000000000000
     0.0000000000000000    0.0000000000000000    3.8130549999999999
 Fe  Sn 
   3   1
Cartesian
  0.0000000000000000  1.9065274999999999  1.9065274999999999
  1.9065274999999999  1.9065274999999999  0.0000000000000000
  1.9065274999999999  0.0000000000000000  1.9065274999999999
  0.0000000000000000  0.0000000000000000  0.0000000000000000
