Hf Co Tc
 1.0000000000000000
     0.0000000000000000    3.1992039999999999    3.1992029999999998
     3.1992060000000002   -0.0000000000000000    3.1992039999999999
     3.1992039999999999    3.1992050000000001    0.0000010000000000
 Hf  Co  Tc 
   2   1   1
Cartesian
  0.0000000000000000  0.0000000000000000  0.0000000000000000
  3.1992113984100001  3.1992108984090004  3.1992103984080003
  1.5996025000000000  1.5996022500000000  1.5996020000000000
  4.7988075000000006  4.7988067499999998  4.7988059999999990
