Ca Al Sb
 1.0000000000000000
     4.4833790000000002    0.0000000000000000    0.0000000000000000
     0.0000000000000000   12.1160840000000007    0.0000000000000000
     0.0000000000000000    0.0000000000000000   14.1092390000000005
 Ca  Al  Sb 
  10   4  12
Cartesian
  2.2416895000000001  1.1230155937920001 10.5503809915960005
  2.2416895000000001  4.9350264062080003  3.4957614915960002
  2.2416895000000001  3.9469839881760000  7.2360078765839999
  2.2416895000000001 10.9930684062080015  3.5588580084040005
  2.2416895000000001  6.0580420000000004  0.0000000000000000
  2.2416895000000001  0.0000000000000000  7.0546195000000003
  2.2416895000000001  2.1110580118240003  0.1813883765840000
  2.2416895000000001 10.0050259881760013 13.9278506234160009
  2.2416895000000001  8.1691000118239998  6.8732311234160006
  2.2416895000000001  7.1810575937920005 10.6134775084040012
  0.0000000000000000  2.0406635637839998  2.9793069072399998
  0.0000000000000000 10.0754204362160014 11.1299320927600007
  0.0000000000000000  8.0987055637839998  4.0753125927599996
  0.0000000000000000  4.0173784362160001 10.0339264072400010
  0.0000000000000000 10.2118960063920010  5.7263334128230001
  0.0000000000000000  1.9041879936080002  8.3829055871769995
  0.0000000000000000  7.9622299936080010 12.7809529128230004
  0.0000000000000000  4.1538540063919998  1.3282860871770001
  2.2416895000000001  4.1131924284880004 11.5760662299400003
  2.2416895000000001  8.0028915715120004  2.5331727700600002
  2.2416895000000001 10.1712344284880007  9.5877922700600013
  2.2416895000000001  1.9448495715120000  4.5214467299400001
  0.0000000000000000  6.3464169152840002  8.4583335788710006
  0.0000000000000000  5.7696670847160005  5.6509054211290000
  0.0000000000000000  0.2883749152840000 12.7055249211289993
  0.0000000000000000 11.8277090847160018  1.4037140788709999
