Ti Ga
 1.0000000000000000
     3.9764320000000000    0.0000000000000000    0.0000000000000000
     0.0000000000000000    6.2427970000000004    0.0016980000000000
     0.0000000000000000   -0.0016980000000000    6.2427970000000004
 Ti  Ga 
   4   6
Cartesian
  1.9882160000000000  4.3463202533830003  5.4496960258940002
  1.9882160000000000  0.7931009741060001  4.3480182533830005
  1.9882160000000000  5.4479980258940000  1.8964767466170003
  1.9882160000000000  1.8947787466170001  0.7947989741060001
  0.0000000000000000  2.4695106744099999  5.1051262494350000
  0.0000000000000000  5.1034282494350007  3.7732863255900000
  0.0000000000000000  3.7715883255899998  1.1393687505650001
  0.0000000000000000  1.1376707505650001  2.4712086744100001
  1.9882160000000000  3.1205495000000001  3.1222475000000003
  0.0000000000000000  0.0000000000000000  0.0000000000000000
