Sr N  Cl
 1.0000000000000000
     3.7706550000000001    0.0106300000000000    6.3544549999999997
     1.7515160000000001    3.3391820000000001    6.3544549999999997
     0.0175230000000000    0.0106300000000000    7.3889519999999997
 Sr  N   Cl 
   2   1   1
Cartesian
  4.2633429627060000  2.5861928027580001 15.4672944973380009
  1.2763510372939999  0.7742491972419999  4.6305675026619992
  2.7698469999999999  1.6802210000000000 10.0489309999999996
  0.0000000000000000  0.0000000000000000  0.0000000000000000
