Ca Al Cu
 1.0000000000000000
     8.8496249999999996    0.0000000000000000    0.0000000000000000
     0.0000000000000000    8.8496249999999996    0.0000000000000000
     0.0000000000000000    0.0000000000000000    5.1604039999999998
 Ca  Al  Cu 
   2  16   8
Cartesian
  0.0000000000000000  0.0000000000000000  0.0000000000000000
  4.4248124999999998  4.4248124999999998  2.5802019999999999
  0.0000000000000000  3.0790057781249995  0.0000000000000000
  5.7706192218749992  0.0000000000000000  0.0000000000000000
  3.0790057781249995  0.0000000000000000  0.0000000000000000
  0.0000000000000000  5.7706192218749992  0.0000000000000000
  0.0000000000000000  6.9013889058749998  2.5802019999999999
  1.9482360941250001  0.0000000000000000  2.5802019999999999
  6.9013889058749998  0.0000000000000000  2.5802019999999999
  0.0000000000000000  1.9482360941250001  2.5802019999999999
  4.4248124999999998  7.5038182781250002  2.5802019999999999
  1.3458067218749998  4.4248124999999998  2.5802019999999999
  7.5038182781250002  4.4248124999999998  2.5802019999999999
  4.4248124999999998  1.3458067218749998  2.5802019999999999
  4.4248124999999998  2.4765764058749999  0.0000000000000000
  6.3730485941249997  4.4248124999999998  0.0000000000000000
  2.4765764058749999  4.4248124999999998  0.0000000000000000
  4.4248124999999998  6.3730485941249997  0.0000000000000000
  2.2124062499999999  6.6372187499999997  3.8703029999999998
  2.2124062499999999  2.2124062499999999  3.8703029999999998
  2.2124062499999999  2.2124062499999999  1.2901009999999999
  2.2124062499999999  6.6372187499999997  1.2901009999999999
  6.6372187499999997  2.2124062499999999  1.2901009999999999
  6.6372187499999997  6.6372187499999997  1.2901009999999999
  6.6372187499999997  6.6372187499999997  3.8703029999999998
  6.6372187499999997  2.2124062499999999  3.8703029999999998
