Ba Cu P 
 1.0000000000000000
     4.1982660000000003    0.0000000000000000    0.0000000000000000
    -2.0991330000000001    3.6358060000000001    0.0000000000000000
     0.0000000000000000    0.0000000000000000    9.2505970000000008
 Ba  Cu  P  
   2   2   2
Cartesian
  0.0000000000000000  0.0000000000000000  4.6252985000000004
  0.0000000000000000  0.0000000000000000  0.0000000000000000
 -0.0000020991330000  2.4238718786020002  6.9379477500000011
  2.0991350991330004  1.2119341213979999  2.3126492500000002
  2.0991350991330004  1.2119341213979999  6.9379477500000011
 -0.0000020991330000  2.4238718786020002  2.3126492500000002
