Be Ga Rh
 1.0000000000000000
    -0.0000280000000000    2.8984740000000002    2.8984740000000002
     2.8984740000000002   -0.0000280000000000    2.8984740000000002
     2.8984740000000002    2.8984740000000002   -0.0000280000000000
 Be  Ga  Rh 
   1   1   2
Cartesian
  1.4492357969199998  1.4492357969199998  1.4492357969200000
  4.3476900000000001  4.3476900000000001  4.3476900000000001
  5.7969200000000001  5.7969200000000001  5.7969200000000001
  2.8984542030800005  2.8984542030800005  2.8984542030800005
