Zr Al Ni
 1.0000000000000000
     3.8578220000000001    0.0000000000000000   -1.0353619999999999
    -0.2778700000000000    3.8478029999999999   -1.0353619999999999
     0.0162260000000000    0.0174400000000000    7.7653770000000000
 Zr  Al  Ni 
   1   5   2
Cartesian
  0.0000000000000000  0.0000000000000000  0.0000000000000000
  1.7899760000000000  1.9239014999999999 -1.0353619999999999
  2.4643884821320001  0.5755417491389999  1.4775396269900003
  0.3965424821320000  2.4994432491389995  1.4775396269900003
  1.1317895178680000  3.2897012508610000  4.2171133730100001
  3.1996355178680003  1.3657997508610000  4.2171133730100001
  0.8659257342100000  0.9307140418070000  3.2264825658929999
  2.7302522657899999  2.9345289581929999  2.4681704341070003
