Hf Ta B 
 1.0000000000000000
     1.5570690000000000   -2.6969240000000001    0.0000000000000000
     1.5570690000000000    2.6969240000000001    0.0000000000000000
     0.0000000000000000    0.0000000000000000    6.7678310000000002
 Hf  Ta  B  
   1   1   4
Cartesian
  0.0000000000000000  0.0000000000000000  0.0000000000000000
  0.0000000000000000  0.0000000000000000  3.3839155000000001
  1.5570690000000000 -0.8989764646160001  5.0382508774710004
  1.5570690000000000 -0.8989764646160001  1.7295801225290000
  1.5570690000000000  0.8989764646160001  5.0382508774710004
  1.5570690000000000  0.8989764646160001  1.7295801225290000
