Ti Sn
 1.0000000000000000
     4.1676799999999998    0.0000000000000000    0.0000000000000000
     0.0000000000000000    4.1676799999999998    0.0000000000000000
     0.0000000000000000    0.0000000000000000    4.1676799999999998
 Ti  Sn 
   3   1
Cartesian
  2.0838399999999999  2.0838399999999999  0.0000000000000000
  2.0838399999999999  0.0000000000000000  2.0838399999999999
  0.0000000000000000  2.0838399999999999  2.0838399999999999
  0.0000000000000000  0.0000000000000000  0.0000000000000000
