Te Pt
 1.0000000000000000
     3.9504440000000001    0.0030950000000000    0.6634130000000000
     1.9192830000000001    3.4528799999999999    0.6634130000000000
    -0.0805440000000000   -0.0474220000000000   12.5265439999999995
 Te  Pt 
   4   3
Cartesian
  5.5463941348270005  3.2656033376329998  3.2447279416019996
  0.2427888651730000  0.1429496623670000 10.6086420583979990
  4.6219744474650000  2.7213242631890000  8.7289134710780001
  1.1672085525350000  0.6872287368109999  5.1244565289219999
  3.7914692560240004  2.2323394586520000  1.6101565262560000
  2.8945915000000002  1.7042765000000000  6.9266850000000000
  1.9977137439760000  1.1762135413479999 12.2432134737439995
