Na Te
 1.0000000000000000
     4.4494740000000004    0.0000000000000000    2.5689050000000000
     1.4831580000000000    4.1950019999999997    2.5689050000000000
     0.0000000000000000    0.0000000000000000    5.1378079999999997
 Na  Te 
   2   1
Cartesian
  1.4831580000000000  1.0487504999999999  2.5689044999999999
  4.4494740000000004  3.1462515000000000  7.7067134999999993
  0.0000000000000000  0.0000000000000000  0.0000000000000000
