Zr Ga
 1.0000000000000000
     5.3714979999999999   -0.0002280000000000   -1.0206270000000000
    -2.9428079999999999    4.4936489999999996   -1.0206270000000000
     0.0027810000000000    0.0051470000000000    7.4257949999999999
 Zr  Ga 
   4   6
Cartesian
 -1.6133985112480000  3.3958162778139998  5.7671226059910001
  3.9755605842640001  0.9745004995479999 -0.3243221755769999
 -2.5123462296740002  3.8783747752439997  2.0542240853640004
  0.7173357312700001  2.7388939835209998  3.3885753244229999
  1.4462654654800002  2.6757962581319998 -1.2155504269680000
  3.5262324654800001  1.5549005081320000  2.4973470730320000
  2.3295525284499998  0.7375070777430000  4.7431509986610001
 -0.0121104385220002  3.5500813258160000  0.7372319797739998
  1.4180032649359999  1.2268737990559999  1.0302534986609999
 -0.3149144893140000  0.8140085983799999  5.4707564797739998
