Li Ti P  O 
 1.0000000000000000
     6.3733670000000000    0.0000000000000000    0.0000000000000000
     0.0000000000000000    7.2145650000000003    0.0000000000000000
     0.0000000000000000    0.0000000000000000    7.3364419999999999
 Li  Ti  P   O  
   4   4   4  20
Cartesian
  0.0000000000000000  0.0000000000000000  0.0000000000000000
  3.1866835000000000  3.6072825000000002  3.6682210000000000
  0.0000000000000000  3.6072825000000002  3.6682210000000000
  3.1866835000000000  0.0000000000000000  0.0000000000000000
  4.7800252499999996  2.0107425528900000  6.1326272415460004
  1.5933417500000000  5.2038224471100003  1.2038147584540000
  1.5933417500000000  5.6180250528900002  4.8720357584539995
  4.7800252499999996  1.5965399471099999  2.4644062415460000
  1.5933417500000000  2.6708463921300001  6.4123731114479998
  4.7800252499999996  4.5437186078699998  0.9240688885520001
  4.7800252499999996  6.2781288921300007  4.5922898885520000
  1.5933417500000000  0.9364361078700000  2.7441521114479999
  6.0119779709990002  5.3775708160050000  4.6104549189439998
  3.5480725290009998  5.4442766839950005  0.9422339189439999
  0.3613890290010000  1.7702883160050003  6.3942080810560000
  2.8252944709989998  1.8369941839949999  2.7259870810560001
  0.3613890290010000  1.8369941839949999  2.7259870810560001
  3.5480725290009998  5.3775708160050000  4.6104549189439998
  6.0119779709990002  5.4442766839950005  0.9422339189439999
  2.8252944709989998  1.7702883160050003  6.3942080810560000
  4.7800252499999996  1.1210568262200000  0.7958792374860000
  1.5933417500000000  6.0935081737800001  6.5405627625139999
  1.5933417500000000  4.7283393262200004  2.8723417625140000
  4.7800252499999996  2.4862256737799999  4.4641002374859999
  4.7800252499999996  7.1973221896500004  5.8246360699439998
  1.5933417500000000  0.0172428103500000  1.5118059300560001
  1.5933417500000000  3.5900396896500002  5.1800269300560000
  4.7800252499999996  3.6245253103500001  2.1564150699440003
  1.5933417500000000  3.4957020377100001  0.3627136924800000
  4.7800252499999996  3.7188629622900002  6.9737283075200001
  4.7800252499999996  7.1029845377100003  3.3055073075200001
  1.5933417500000000  0.1115804622900000  4.0309346924799998
