Ca Cu P 
 1.0000000000000000
     4.0140180000000001    0.0000000000000000    0.0000000000000000
    -2.0070090000000000    3.4762409999999999    0.0000000000000000
     0.0000000000000000    0.0000000000000000    7.8937850000000003
 Ca  Cu  P  
   2   2   2
Cartesian
  0.0000000000000000  0.0000000000000000  3.9468925000000001
  0.0000000000000000  0.0000000000000000  0.0000000000000000
 -0.0000020070090000  2.3174951587470001  5.9203387500000000
  2.0070110070090004  1.1587458412529998  1.9734462500000001
  2.0070110070090004  1.1587458412529998  5.9203387500000000
 -0.0000020070090000  2.3174951587470001  1.9734462500000001
