Ti Cu
 1.0000000000000000
     3.1369870000000000    0.0000000000000000    0.0000000000000000
     0.0000000000000000    3.1369870000000000    0.0000000000000000
     0.0000000000000000    0.0000000000000000   14.2538800000000005
 Ti  Cu 
   4   6
Cartesian
  1.5684935000000000  1.5684935000000000 12.7597027751200010
  1.5684935000000000  1.5684935000000000  1.4941772248800000
  0.0000000000000000  0.0000000000000000  5.6327627751200007
  0.0000000000000000  0.0000000000000000  8.6211172248800008
  0.0000000000000000  0.0000000000000000  2.9264213411599997
  0.0000000000000000  0.0000000000000000 11.3274586588399995
  0.0000000000000000  0.0000000000000000  0.0000000000000000
  1.5684935000000000  1.5684935000000000 10.0533613411600005
  1.5684935000000000  1.5684935000000000  4.2005186588400001
  1.5684935000000000  1.5684935000000000  7.1269400000000003
