Mg Ga Ag
 1.0000000000000000
     0.0000800000000000    3.2398870000000000    3.2398870000000000
     3.2398870000000000    0.0000800000000000    3.2398870000000000
     3.2398870000000000    3.2398870000000000    0.0000800000000000
 Mg  Ga  Ag 
   1   1   2
Cartesian
  4.8598840201459996  4.8598840201459996  4.8598840201460005
  1.6199570201460001  1.6199570201460001  1.6199570201459998
  3.2399269999999998  3.2399269999999998  3.2399269999999998
  0.0000064798540000  0.0000064798540000  0.0000064798540000
