Sc Co Ru
 1.0000000000000000
     0.0000000000000000    3.1554169999999999    3.1554169999999999
     3.1554169999999999    0.0000000000000000    3.1554169999999999
     3.1554169999999999    3.1554169999999999    0.0000000000000000
 Sc  Co  Ru 
   2   1   1
Cartesian
  0.0000000000000000  0.0000000000000000  0.0000000000000000
  3.1554106891660001  3.1554106891660001  3.1554106891660001
  1.5777085000000000  1.5777085000000000  1.5777085000000000
  4.7331254999999999  4.7331254999999999  4.7331254999999999
