Cu Cl
 1.0000000000000000
     3.1784620000000001    0.0000000000000000    0.9131800000000000
     1.5777930000000000    3.4644249999999999    0.4963990000000000
    -0.0609630000000000    0.0413950000000000    6.2003480000000000
 Cu  Cl 
   1   2
Cartesian
  0.0000000000000000  0.0000000000000000  0.0000000000000000
  1.2133137709349999  0.7780319893350000  1.7650220418300000
  3.4819782290650001  2.7277880106649999  5.8449049581699999
