Er Ga Co
 1.0000000000000000
     4.1563600000000003    0.0000000000000000    0.0000000000000000
     0.0000000000000000    4.1563580000000000    0.0000000000000000
     0.0000000000000000    0.0000000000000000    6.7195169999999997
 Er  Ga  Co 
   1   5   1
Cartesian
  0.0000000000000000  0.0000000000000000  0.0000000000000000
  0.0000000000000000  2.0781790000000000  2.0838431730060001
  0.0000000000000000  2.0781790000000000  4.6356738269940001
  2.0781800000000001  0.0000000000000000  2.0838431730060001
  2.0781800000000001  0.0000000000000000  4.6356738269940001
  2.0781800000000001  2.0781790000000000  0.0000000000000000
  0.0000000000000000  0.0000000000000000  3.3597584999999999
