Li Nd Tl
 1.0000000000000000
     0.0000000000000000    3.4822929999999999    3.4822929999999999
     3.4822929999999999    0.0000000000000000    3.4822929999999999
     3.4822929999999999    3.4822929999999999    0.0000000000000000
 Li  Nd  Tl 
   2   1   1
Cartesian
  0.0000000000000000  0.0000000000000000  0.0000000000000000
  3.4822929999999999  3.4822929999999999  3.4822929999999999
  1.7411464999999999  1.7411464999999999  1.7411464999999999
  5.2234464645859999  5.2234464645859999  5.2234464645859999
