Sr Al Si
 1.0000000000000000
     4.1183940000000003   -0.0000670000000000   -0.8558560000000000
    -0.2427820000000000    4.7006639999999997   -1.1690659999999999
    -0.0480770000000000    0.0121900000000000   10.1148579999999999
 Sr  Al  Si 
   3   2   2
Cartesian
  2.0591970000000002 -0.0000335000000000 -0.4279280000000000
  3.1285219926290004  3.8382885048569997  4.7207032916339999
  0.6990130073709999  0.8744984951429999  3.3692327083659999
  0.1310309588390000  2.6658456660400001  0.6338406377440000
  3.6965040411610004  2.0469413339600000  7.4560953622559998
  2.4620084360570003  3.0058554625549996  1.5129277409999999
  1.3655265639430001  1.7069315374450000  6.5770082590000003
