Al Cr B 
 1.0000000000000000
     2.8111000000000002    0.0000000000000000   -0.7458170000000000
     0.0000000000000000    2.9093130000000000    0.0000000000000000
     0.0029970000000000    0.0000000000000000    5.6819360000000003
 Al  Cr  B  
   1   2   2
Cartesian
  2.8140829145300001  0.0000000000000000  4.9360659097250004
  0.9912086093700000  1.4546565000000000  3.7360157420250002
  1.8228799423450002  1.4546565000000000  1.2000770857460001
  0.5776366794120000  0.0000000000000000  2.1772116874570000
  2.2364856714369998  0.0000000000000000  2.7589971931020005
