La Te
 1.0000000000000000
     3.9769070000000002    0.0000000000000000    2.2960680000000000
     1.3256360000000000    3.7494630000000000    2.2960680000000000
     0.0000000000000000    0.0000000000000000    4.5921360000000000
 La  Te 
   1   1
Cartesian
  0.0000000000000000  0.0000000000000000  0.0000000000000000
  2.6512715000000000  1.8747315000000000  4.5921360000000000
