Ga Cu Te
 1.0000000000000000
     5.4927140000000003    0.0000000000000000   -2.4768050000000001
    -1.1168549999999999    5.3779700000000004   -2.4768050000000001
     0.0181590000000000    0.0223160000000000    7.3691630000000004
 Ga  Cu  Te 
   2   2   4
Cartesian
  2.1879295000000001  2.6889850000000002 -2.4768050000000001
  3.8494012500000006  1.3556505000000001  1.2077765000000000
  0.0000000000000000  0.0000000000000000  0.0000000000000000
  0.5446167500000002  4.0446355000000001  1.2077765000000000
  1.5827985301180001  2.0223177500000000  0.0129547754649999
 -0.0105725411149999  3.4393470216100002  3.6410007245350000
  3.3197052911150000  0.6276044783900000  3.6975362754650001
  3.8961047198820005  4.7113027500000006 -2.5203857754649999
