Be Pd Rh
 1.0000000000000000
     0.0000000000000000    2.7847810000000002    2.7847810000000002
     2.7847810000000002    0.0000000000000000    2.7847810000000002
     2.7847810000000002    2.7847810000000002    0.0000000000000000
 Be  Pd  Rh 
   2   1   1
Cartesian
  2.7847810000000002  2.7847810000000002  2.7847810000000002
  0.0000000000000000  0.0000000000000000  0.0000000000000000
  1.3923905000000001  1.3923905000000001  1.3923905000000001
  4.1771715000000000  4.1771715000000000  4.1771715000000000
