Pd O 
 1.0000000000000000
     3.0536040000000000    0.0000000000000000    0.0000000000000000
     0.0000000000000000    3.0536040000000000    0.0000000000000000
     0.0000000000000000    0.0000000000000000    5.3712569999999999
 Pd  O  
   2   2
Cartesian
  1.5268020000000000  0.0000000000000000  2.6856285000000000
  0.0000000000000000  1.5268020000000000  0.0000000000000000
  0.0000000000000000  0.0000000000000000  4.0284427500000000
  0.0000000000000000  0.0000000000000000  1.3428142500000000
