Li In Ge
 1.0000000000000000
     3.8656549999999998    0.0000000000000000    2.2318370000000001
     1.2885519999999999    3.6445740000000000    2.2318370000000001
     0.0000000000000000    0.0000000000000000    4.4636740000000001
 Li  In  Ge 
   1   1   1
Cartesian
  0.0000000000000000  0.0000000000000000  0.0000000000000000
  2.5771034999999998  1.8222870000000000  4.4636740000000001
  1.2885517499999999  0.9111435000000000  2.2318370000000001
