Cs Cd F 
 1.0000000000000000
     4.4868110000000003    0.0000000000000000    0.0000000000000000
     0.0000000000000000    4.4868110000000003    0.0000000000000000
     0.0000000000000000    0.0000000000000000    4.4868110000000003
 Cs  Cd  F  
   1   1   3
Cartesian
  0.0000000000000000  0.0000000000000000  0.0000000000000000
  2.2434055000000002  2.2434055000000002  2.2434055000000002
  0.0000000000000000  2.2434055000000002  2.2434055000000002
  2.2434055000000002  0.0000000000000000  2.2434055000000002
  2.2434055000000002  2.2434055000000002  0.0000000000000000
