Ca As Cl
 1.0000000000000000
     5.7561749999999998    0.0000000000000000    0.0000000000000000
     0.0000000000000000    5.7561749999999998    0.0000000000000000
     0.0000000000000000    0.0000000000000000    5.7561749999999998
 Ca  As  Cl 
   3   1   3
Cartesian
  2.8780874999999999  0.0000000000000000  0.0000000000000000
  0.0000000000000000  2.8780874999999999  0.0000000000000000
  0.0000000000000000  0.0000000000000000  2.8780874999999999
  0.0000000000000000  0.0000000000000000  0.0000000000000000
  2.8780874999999999  0.0000000000000000  2.8780874999999999
  2.8780874999999999  2.8780874999999999  0.0000000000000000
  0.0000000000000000  2.8780874999999999  2.8780874999999999
