Si O 
 1.0000000000000000
     5.0280930000000001    0.0000000000000000    0.0000000000000000
     0.0000000000000000    5.0280930000000001    0.0000000000000000
     0.0000000000000000    0.0000000000000000    7.3775839999999997
 Si  O  
   4   8
Cartesian
  0.0000000000000000  2.5140465000000001  1.8443959999999999
  2.5140465000000001  2.5140465000000001  3.6887919999999998
  2.5140465000000001  0.0000000000000000  5.5331880000000000
  0.0000000000000000  0.0000000000000000  0.0000000000000000
  0.4596481496880000  1.2570232500000000  0.9221980000000000
  3.7710697500000001  2.0543983503120002  2.7665940000000000
  1.2570232500000000  2.9736946496880003  2.7665940000000000
  4.5684448503119999  3.7710697500000001  0.9221980000000000
  2.9736946496880003  3.7710697500000001  4.6109900000000001
  1.2570232500000000  4.5684448503119999  6.4553859999999998
  3.7710697500000001  0.4596481496880000  6.4553859999999998
  2.0543983503120002  1.2570232500000000  4.6109900000000001
