Nb Zn O 
 1.0000000000000000
     5.0557439999999998    0.0000000000000000    0.0000000000000000
     0.0000000000000000    5.7645689999999998    0.0000000000000000
     0.0000000000000000    0.0000000000000000   14.2852669999999993
 Nb  Zn  O  
   8   4  24
Cartesian
  3.7825762114560000  3.9470580399899999  9.4207193137569991
  1.2547042114560001  4.6997954600099998 12.0071811862429989
  3.8010397885439997  3.9470580399899999  4.8645476862430002
  1.2731677885439998  4.6997954600099998  2.2780858137569999
  3.7825762114560000  1.0647735399900000 12.0071811862429989
  1.2547042114560001  1.8175109600100001  9.4207193137569991
  3.8010397885439997  1.0647735399900000  2.2780858137569999
  1.2731677885439998  1.8175109600100001  4.8645476862430002
  3.7918079999999996  3.8641289503560001  0.0000000000000000
  1.2639359999999999  4.7827245496439996  7.1426334999999996
  1.2639359999999999  1.9004400496440002  0.0000000000000000
  3.7918079999999996  0.9818444503560000  7.1426334999999996
  4.6530236559359999  2.1791223733800003 10.6330527829790000
  2.1251516559360000  0.7031621266200000 10.7948477170209998
  2.9305923440639998  2.1791223733800003  3.6522142170209992
  0.4027203440640000  0.7031621266200000  3.4904192829789999
  0.4027203440640000  3.5854466266199996  3.6522142170209992
  2.9305923440639998  5.0614068733800002  3.4904192829789999
  2.1251516559360000  3.5854466266199996 10.6330527829790000
  4.6530236559359999  5.0614068733800002 10.7948477170209998
  4.6249137192959999  2.2229388623489998  1.1270504252319999
  2.0970417192960000  0.6593456376510000  6.0155830747679992
  2.9587022807039998  2.2229388623489998 13.1582165747679998
  0.4308302807040000  0.6593456376510000  8.2696839252319982
  4.6825593123839999  5.1583208074079998  1.3561003963100000
  2.1546873123840000  3.4885326925919999  5.7865331036899992
  2.9010566876160002  5.1583208074079998 12.9291666036899997
  0.3731846876160000  3.4885326925919999  8.4987338963099983
  0.3731846876160000  0.6062481925920000 12.9291666036899997
  2.9010566876160002  2.2760363074079999  8.4987338963099983
  2.1546873123840000  0.6062481925920000  1.3561003963100000
  4.6825593123839999  2.2760363074079999  5.7865331036899992
  4.6249137192959999  5.1052233623490002  6.0155830747679992
  2.0970417192960000  3.5416301376510000  1.1270504252319999
  2.9587022807039998  5.1052233623490002  8.2696839252319982
  0.4308302807040000  3.5416301376510000 13.1582165747679998
