Sr Ge N 
 1.0000000000000000
     3.8848760000000002    0.0000000000000000    0.0000000000000000
     0.0000000000000000    8.3679150000000000   -3.4548619999999999
     0.0000000000000000   -0.0112040000000000    9.6555529999999994
 Sr  Ge  N  
   6   4   4
Cartesian
  0.9712190000000001  0.9911285715110000  3.0008126503539998
  2.9136570000000002  7.3655824284889997  3.1998783496460002
  0.9712190000000001  4.3364705705850000  4.6756256284439992
  2.9136570000000002  4.0202404294149998  1.5250653715560001
  0.9712190000000001  2.6388775002240004  8.0168020822169996
  2.9136570000000002  5.7178334997759999 -1.8161110822169999
  0.9712190000000001  7.6545969351490006  5.9463474763989996
  2.9136570000000002  0.7021140648509999  0.2543435236009999
  2.9136570000000002  2.0221186154759998  5.4545983162000002
  0.9712190000000001  6.3345923845240009  0.7460926837999996
  0.9712190000000001  4.7663386121299993 -0.2878453472199997
  2.9136570000000002  3.5903723878700000  6.4885363472199993
  0.9712190000000001  5.7229724384550007  2.5272805444860000
  2.9136570000000002  2.6337385615450000  3.6734104555139999
