Zr Cd Cu
 1.0000000000000000
     3.8921049999999999    0.0000000000000000    2.2471070000000002
     1.2973680000000001    3.6695120000000001    2.2471070000000002
     0.0000000000000000    0.0000000000000000    4.4942159999999998
 Zr  Cd  Cu 
   1   1   2
Cartesian
  2.5947364999999998  1.8347560000000001  4.4942150000000005
  0.0000000000000000  0.0000000000000000  0.0000000000000000
  3.8921047499999997  2.7521339999999999  6.7413225000000008
  1.2973682499999999  0.9173780000000000  2.2471075000000003
