Li P  O 
 1.0000000000000000
     4.8134110000000003    0.0000000000000000    0.0000000000000000
     0.0000000000000000    5.2019760000000002    0.0000000000000000
     0.0000000000000000    0.0000000000000000    6.0574669999999999
 Li  P   O  
   6   2   8
Cartesian
  2.4534726012759998  4.3807660587599999  0.0000000000000000
  0.0467671012760000  0.8212099412400000  3.0287335000000000
  2.4503053768380001  1.7047655648400000  4.5338565553579997
  0.0435998768380000  3.4972104351600004  4.5523439446419998
  0.0435998768380000  3.4972104351600004  1.5051230553580000
  2.4503053768380001  1.7047655648400000  1.5236104446420002
  2.4114418964240003  4.2939034635119997  3.0287335000000000
  0.0047363964240000  0.9080725364880000  0.0000000000000000
  0.5195692101620000  1.6292484792480000  1.2642054778339999
  2.9027804510710000  0.5538595866960000  3.0287335000000000
  0.8719108953620001  4.2646891662959998  3.0287335000000000
  3.2786212087730005  0.9372868337040000  0.0000000000000000
  2.9262747101620001  3.5727275207520002  4.2929389778339999
  0.5195692101620000  1.6292484792480000  4.7932615221659995
  0.4960701376600000  4.6481164133039998  0.0000000000000000
  2.9262747101620001  3.5727275207520002  1.7645280221660000
