Na Zn As
 1.0000000000000000
     4.1414429999999998    0.0000000000000000    0.0000000000000000
     0.0000000000000000    4.1414429999999998    0.0000000000000000
     0.0000000000000000    0.0000000000000000    7.0355930000000004
 Na  Zn  As 
   2   2   2
Cartesian
  3.1060822500000000  3.1060822500000000  4.5766321397210001
  1.0353607499999999  1.0353607499999999  2.4589608602790003
  1.0353607499999999  3.1060822500000000  0.0000000000000000
  3.1060822500000000  1.0353607499999999  0.0000000000000000
  1.0353607499999999  1.0353607499999999  5.5004758565510006
  3.1060822500000000  3.1060822500000000  1.5351171434490001
