Na P  S  O 
 1.0000000000000000
     4.8125890000000000   -5.8485379999999996    0.0000000000000000
     4.8125890000000000    5.8485379999999996    0.0000000000000000
     0.0000000000000000    0.0000000000000000    5.9710210000000004
 Na  P   S   O  
   6   2   6   2
Cartesian
  7.6861570163659998 -1.3675168522359997  1.5124058801110001
  4.8125890000000000 -1.5310770659439996  4.2106983279690002
  4.8125890000000000  1.5310770659439998  1.2251878279690001
  1.9390209836340000 -1.3675168522359997  1.5124058801110001
  1.9390209836340000  1.3675168522359997  4.4979163801110005
  7.6861570163659998  1.3675168522359997  4.4979163801110005
  4.8125890000000000 -3.4418646129999999  0.8692015269700001
  4.8125890000000000  3.4418646129999999  3.8547120269700001
  1.7122084766529999  1.5541144571259997  1.6191139964020003
  4.8125890000000009 -1.4142817620840000  1.3806075335780001
  4.8125890000000000  1.4142817620839998  4.3661180335780001
  7.9129695233469999 -1.5541144571259997  4.6046244964020007
  7.9129695233469999  1.5541144571259999  1.6191139964020003
  1.7122084766529999 -1.5541144571259997  4.6046244964020007
  4.8125890000000000 -3.5447520934960006  5.2975853675360005
  4.8125890000000000  3.5447520934960002  2.3120688965150000
