Hf Te
 1.0000000000000000
     3.9923999999999999    0.0000000000000000    0.0000000000000000
    -1.9962000000000000    3.4575200000000001    0.0000000000000000
     0.0000000000000000    0.0000000000000000    7.0323630000000001
 Hf  Te 
   1   2
Cartesian
  0.0000000000000000  0.0000000000000000  0.0000000000000000
 -0.0000019962000000  2.3050144858400001  1.7391104022630000
  1.9962019961999999  1.1525055141600000  5.2932525977370002
