Y  Si Ni
 1.0000000000000000
     3.6839800000000000    0.0000000000000000   -1.4117700000000000
    -0.5410160000000001    3.6440380000000001   -1.4117700000000000
    -0.0017620000000000   -0.0020420000000000    5.5079180000000001
 Y   Si  Ni 
   1   2   2
Cartesian
  0.0000000000000000  0.0000000000000000  0.0000000000000000
  1.9725862727199999  2.2870704429019999 -0.3650976861520001
  1.1686157272800000  1.3549255570980001  3.0494756861519998
  2.6268499999999997  0.9099885000000000  1.3421890000000001
  0.5143519999999999  2.7320074999999999  1.3421890000000001
