Sb Pd
 1.0000000000000000
     4.1436409999999997    0.0000000000000000    0.0000000000000000
    -2.0718209999999999    3.5884980000000000    0.0000000000000000
     0.0000000000000000    0.0000000000000000    5.6892350000000000
 Sb  Pd 
   2   2
Cartesian
 -0.0000024051540002  2.3923331961660002  4.2669262500000000
  2.0718224051539997  1.1961648038340000  1.4223087500000000
  0.0000000000000000  0.0000000000000000  0.0000000000000000
  0.0000000000000000  0.0000000000000000  2.8446175000000000
