Li Ga Cu
 1.0000000000000000
    -0.0002160000000000    2.9108339999999999    2.9108339999999999
     2.9108339999999999   -0.0002160000000000    2.9108339999999999
     2.9108339999999999    2.9108339999999999   -0.0002160000000000
 Li  Ga  Cu 
   1   1   2
Cartesian
  4.3660889999999997  4.3660889999999997  4.3660889999999997
  1.4553630000000000  1.4553630000000000  1.4553630000000000
  2.9107259999999999  2.9107259999999999  2.9107259999999999
  0.0000000000000000  0.0000000000000000  0.0000000000000000
