Ge Pt
 1.0000000000000000
     3.7300320000000000    0.0000000000000000    0.0000000000000000
     0.0000000000000000    5.7560130000000003    0.0000000000000000
     0.0000000000000000    0.0000000000000000    6.1115640000000004
 Ge  Pt 
   4   4
Cartesian
  2.7975240000000001  4.6850031731159998  2.5178849176680003
  0.9325080000000000  1.0710098268840000  3.5936790823320002
  2.7975240000000001  1.8069966731160001  0.5378970823320000
  0.9325080000000000  3.9490163268840002  5.5736669176680005
  2.7975240000000001  0.0106601360760000  4.9338106131239998
  0.9325080000000000  5.7453528639240004  1.1777533868760000
  2.7975240000000001  2.8886666360760000  4.2335353868760004
  0.9325080000000000  2.8673463639240002  1.8780286131240000
