Ba Nb O 
 1.0000000000000000
     4.2262620000000002    0.0000000000000000    0.0000000000000000
     0.0000000000000000    4.2262620000000002    0.0000000000000000
     0.0000000000000000    0.0000000000000000    8.2680830000000007
 Ba  Nb  O  
   1   4   6
Cartesian
  0.0000000000000000  0.0000000000000000  0.0000000000000000
  2.1131310000000001  0.0000000000000000  4.1340415000000004
  0.0000000000000000  2.1131310000000001  4.1340415000000004
  2.1131310000000001  2.1131310000000001  2.1001426904980001
  2.1131310000000001  2.1131310000000001  6.1679403095020007
  2.1131310000000001  2.1131310000000001  0.0000000000000000
  2.1131310000000001  0.0000000000000000  2.0061841952860000
  0.0000000000000000  2.1131310000000001  2.0061841952860000
  2.1131310000000001  0.0000000000000000  6.2618988047140007
  0.0000000000000000  2.1131310000000001  6.2618988047140007
  0.0000000000000000  0.0000000000000000  4.1340415000000004
