Li Nb O 
 1.0000000000000000
     2.9217849999999999    0.0000000000000000    0.0000000000000000
    -1.4608920000000001    2.5303399999999998    0.0000000000000000
     0.0000000000000000    0.0000000000000000   10.4510349999999992
 Li  Nb  O  
   2   2   4
Cartesian
  0.0000000000000000  0.0000000000000000  0.0000000000000000
  0.0000000000000000  0.0000000000000000  5.2255174999999996
 -0.0000011275590001  1.6868941767799999  7.8382762499999998
  1.4608941275589999  0.8434458232199999  2.6127587499999998
 -0.0000011275590001  1.6868941767799999  1.2732182409449999
 -0.0000011275590001  1.6868941767799999  3.9522992590549997
  1.4608941275589999  0.8434458232199999  6.4987357409449995
  1.4608941275589999  0.8434458232199999  9.1778167590549984
