Ac Cu Ge
 1.0000000000000000
     0.0000000000000000    3.8482660000000002    3.8482660000000002
     3.8482660000000002    0.0000000000000000    3.8482660000000002
     3.8482660000000002    3.8482660000000002    0.0000000000000000
 Ac  Cu  Ge 
   2   1   1
Cartesian
  3.8482660000000002  3.8482660000000002  3.8482660000000002
  0.0000000000000000  0.0000000000000000  0.0000000000000000
  1.9241330000000001  1.9241330000000001  1.9241330000000001
  5.7723990000000001  5.7723990000000001  5.7723990000000001
