Na Zn Sn
 1.0000000000000000
     5.4433249999999997    0.0000000000000000   -0.0000000000000000
    -2.7216629999999999    4.9510880000000004   -0.7151360000000000
    -0.0000000000000000   -0.0147440000000000    9.3071409999999997
 Na  Zn  Sn 
   6   1   2
Cartesian
 -0.0000004716360003  4.6661768231280005  1.8793768753950000
 -0.0000001739520000  1.7137761690240001  5.2602097686480001
 -0.0000002931880001  2.8894687976000002  8.2479550833959987
  2.7216621739519997  3.2225678309760002  3.3317952313519998
  2.7216624716359998  0.2701671768720000  6.7126281246050006
  2.7216622931879995  2.0468752024000003  0.3440499166040000
  0.0000000000000000  0.0000000000000000  0.0000000000000000
 -0.0000001463060000  1.4450652856720001  2.1153034680689999
  2.7216621463060000  3.4912787143280002  6.4767015319310000
