Pm F 
 1.0000000000000000
    -1.8579220000000001    1.8579220000000001    3.2515570000000000
     1.8579220000000001   -1.8579220000000001    3.2515570000000000
     1.8579220000000001    1.8579220000000001   -3.2515570000000000
 Pm  F  
   1   3
Cartesian
  0.0000000000000000  0.0000000000000000  0.0000000000000000
  0.0000000000000001  1.8579257158440001  1.6257785000000000
  1.8579257158440001  0.0000000000000000  1.6257785000000000
 -0.0000000000000000  0.0000000000000000  3.2515504968860003
