Nd Ni Ge
 1.0000000000000000
     3.8498760000000001    0.0000000000000000   -1.4850770000000000
    -0.5728640000000000    3.8070160000000000   -1.4850770000000000
    -0.0143670000000000   -0.0166910000000000    5.6954549999999999
 Nd  Ni  Ge 
   1   2   2
Cartesian
  0.0000000000000000  0.0000000000000000  0.0000000000000000
  2.7370074999999998  0.9434085000000000  1.3626505000000000
  0.5256375000000000  2.8469164999999998  1.3626505000000000
  2.0717418156049998  2.4068126444250000 -0.3619613938009999
  1.1909031843950002  1.3835123555750000  3.0872623938009998
