Dy Bi Cl O 
 1.0000000000000000
     3.8973520000000001    0.0000000000000000    0.0000000000000000
     0.0000000000000000    3.8973520000000001    0.0000000000000000
     0.0000000000000000    0.0000000000000000    9.0758820000000000
 Dy  Bi  Cl  O  
   1   2   1   4
Cartesian
  0.0000000000000000  0.0000000000000000  0.0000000000000000
  1.9486760000000001  1.9486760000000001  6.5616176371860000
  1.9486760000000001  1.9486760000000001  2.5142643628140000
  0.0000000000000000  0.0000000000000000  4.5379410000000000
  0.0000000000000000  1.9486760000000001  1.3857147396420002
  1.9486760000000001  0.0000000000000000  1.3857147396420002
  1.9486760000000001  0.0000000000000000  7.6901672603580007
  0.0000000000000000  1.9486760000000001  7.6901672603580007
