Sr As Pt
 1.0000000000000000
     4.2575139999999996   -0.0000000000000000    0.0000000000000000
    -2.1287579999999999    3.6871160000000001    0.0000000000000000
     0.0000000000000000    0.0000000000000000    9.0634960000000007
 Sr  As  Pt 
   2   2   2
Cartesian
  0.0000000000000000  0.0000000000000000  4.5317480000000003
  0.0000000000000000  0.0000000000000000  0.0000000000000000
 -0.0000027954240002  2.4580785623720001  6.7976220000000005
  2.1287587954239995  1.2290374376280000  2.2658740000000002
 -0.0000027954240002  2.4580785623720001  2.2658740000000002
  2.1287587954239995  1.2290374376280000  6.7976220000000005
