Cr Te
 1.0000000000000000
     3.4479530000000000   -5.9720779999999998   -0.0000780000000000
     3.4479109999999999    5.9720540000000000    0.0001030000000000
     0.0000410000000000    0.0001950000000000   12.5021480000000000
 Cr  Te 
   8  12
Cartesian
  3.4479455925850000  1.9905800881680000  3.1250545742860001
  3.4479007908690003 -1.9904031238929996  9.3766058375240000
  3.4478799714670001  5.9719883198620005  0.0009031363640000
  0.0000342877500000  0.0001094253640000  6.2498737940230003
  3.4479966814649998  1.9908082899099999 12.3954223219240003
  3.4479424009300002  1.9909410558230005  6.3576724765619996
  3.4478910818160000 -1.9907507470140000  0.1075258094700000
  3.4480039710449999 -1.9906386835800003  6.1436628816630003
  4.5542715447889996  3.9619505102590007  4.7373029540609997
  1.1877729357540001  1.9632431250440001  4.7374479931220002
  4.6018978044180008  0.0470998384990001  4.7374188315520005
  2.3416299169499997  3.9617586383329999  1.5142411758109999
  5.7083011871669997  1.9630517013740001  1.5140105566730000
  2.2938691376260003  0.0467709379150003  1.5141566710400001
  2.3417162056750001 -3.9619467307349998  7.7647200179290001
  5.7084630646700001 -1.9627974115500009  7.7647000079450006
  2.2939175482390000 -0.0468810661439999  7.7644666194429997
  4.5541888876190004 -3.9618205388569998 10.9885569277470001
  1.1874555519240002 -1.9626716742579997 10.9884374932130005
  4.6020082812239993 -0.0467193701690002 10.9885914258580009
