Al Os
 1.0000000000000000
     3.1837450000000000    0.0000000000000000    0.0000000000000000
     0.0000000000000000    3.1837450000000000    0.0000000000000000
     0.0000000000000000    0.0000000000000000    8.3400730000000003
 Al  Os 
   4   2
Cartesian
  1.5918725000000000  1.5918725000000000  6.9907826297679998
  1.5918725000000000  1.5918725000000000  1.3492903702320000
  0.0000000000000000  0.0000000000000000  2.8207461297680001
  0.0000000000000000  0.0000000000000000  5.5193268702320006
  0.0000000000000000  0.0000000000000000  0.0000000000000000
  1.5918725000000000  1.5918725000000000  4.1700365000000001
