Ti Os
 1.0000000000000000
    -0.0000010000000000    3.1589700000000001    3.1589680000000002
     3.1589670000000001   -0.0000010000000000    3.1589680000000002
     3.1589670000000001    3.1589700000000001   -0.0000010000000000
 Ti  Os 
   3   1
Cartesian
  0.0000000000000000  0.0000000000000000  0.0000000000000000
  3.1589665000000000  3.1589695000000000  3.1589675000000002
  1.5794895679329999  1.5794910679389997  1.5794900679350001
  4.7384497500000000  4.7384542500000002  4.7384512500000007
