Ta Ag S 
 1.0000000000000000
     3.3902760000000001    0.0000000000000000    0.0000000000000000
    -1.6951380000000000    7.0471329999999996    0.0000000000000000
     0.0000000000000000    0.0000000000000000    7.7892950000000001
 Ta  Ag  S  
   2   2   6
Cartesian
 -0.0000033902759999  3.7027046208599996  5.8419712500000003
  1.6951413902760002  3.3444283791400000  1.9473237500000000
  0.0000000000000000  0.0000000000000000  3.8946475000000000
  0.0000000000000000  0.0000000000000000  0.0000000000000000
  1.6951396951380000  2.4404714878309997  7.2375324993800003
 -0.0000016951379999  4.6066615121689996  0.5517625006200000
 -0.0000016951379999  4.6066615121689996  3.3428849993799998
  1.6951396951380000  2.4404714878309997  4.4464100006200002
  1.6951380000000000  5.5910684738059997  5.8419712500000003
  0.0000000000000000  1.4560645261940000  1.9473237500000000
