Al Cu
 1.0000000000000000
     4.2382739999999997    0.0000000000000000    0.0000000000000000
     0.0000000000000000    4.5569750000000004    0.0000000000000000
     0.0000000000000000    0.0000000000000000    5.1916039999999999
 Al  Cu 
   2   6
Cartesian
  0.0000000000000000  3.8091571746000001  0.0000000000000000
  2.1191369999999998  0.7478178254000001  2.5958019999999999
  0.0000000000000000  3.8067191929750006  2.5958019999999999
  2.1191369999999998  0.7502558070250001  0.0000000000000000
  0.0000000000000000  1.5350170287500000  1.3031652864559999
  0.0000000000000000  1.5350170287500000  3.8884387135440002
  2.1191369999999998  3.0219579712500004  1.2926367135440000
  2.1191369999999998  3.0219579712500004  3.8989672864559997
