Hf S 
 1.0000000000000000
     3.6396639999999998   -0.0000000000000000    0.0000000000000000
    -1.8198330000000000    3.1520410000000001    0.0000000000000000
     0.0000000000000000    0.0000000000000000    6.0555620000000001
 Hf  S  
   1   2
Cartesian
  0.0000000000000000  0.0000000000000000  0.0000000000000000
  1.8198334864989998  1.0506792826530000  4.6261587010240000
 -0.0000024864990002  2.1013617173470003  1.4294032989760002
