Ca Si Ni
 1.0000000000000000
     3.7037140000000002    0.0000000000000000   -1.4081120000000000
    -0.5353490000000000    3.6648179999999999   -1.4081120000000000
     0.0000880000000000    0.0001000000000000    5.5751640000000000
 Ca  Si  Ni 
   1   2   2
Cartesian
  0.0000000000000000  0.0000000000000000  0.0000000000000000
  1.9982474377040000  2.3113535520400004 -0.3190224396080002
  1.1702055622959999  1.3535644479600000  3.0779624396080001
  0.5244607500000001  2.7486634999999997  1.3794700000000000
  2.6439922500000002  0.9162545000000000  1.3794700000000000
