Ba Ti Si O 
 1.0000000000000000
     8.5608529999999998    0.0000000000000000    0.0000000000000000
     0.0000000000000000    8.5608529999999998    0.0000000000000000
     0.0000000000000000    0.0000000000000000    5.2397530000000003
 Ba  Ti  Si  O  
   4   2   4  16
Cartesian
  1.4811474209419999  5.7615739209420003  5.2132503293260006
  5.7615739209420003  7.0797055790579995  5.2132503293260006
  2.7992790790580000  1.4811474209419999  5.2132503293260006
  7.0797055790579995  2.7992790790580000  5.2132503293260006
  4.2804264999999999  4.2804264999999999  2.7986725916190003
  0.0000000000000000  0.0000000000000000  2.7986725916190003
  3.1847058028239998  7.4651323028240002  2.6750877773610005
  7.4651323028240002  5.3761471971759995  2.6750877773610005
  1.0957206971759998  3.1847058028239998  2.6750877773610005
  5.3761471971759995  1.0957206971759998  2.6750877773610005
  4.2804264999999999  4.2804264999999999  1.0943905308390001
  0.0000000000000000  0.0000000000000000  1.0943905308390001
  6.7857943738619992  0.6586292255550000  3.3578537920260003
  1.7750586261379999  7.9022237744449999  3.3578537920260003
  7.9022237744449999  6.7857943738619992  3.3578537920260003
  0.6586292255550000  1.7750586261379999  3.3578537920260003
  3.6217972744450000  6.0554851261380005  3.3578537920260003
  6.0554851261380005  4.9390557255549998  3.3578537920260003
  2.5053678738620002  3.6217972744450000  3.3578537920260003
  4.9390557255549998  2.5053678738620002  3.3578537920260003
  4.2804264999999999  0.0000000000000000  3.2779894768000006
  0.0000000000000000  4.2804264999999999  3.2779894768000006
  5.3600442326829993  1.0796177326829999  1.0822447833850002
  1.0796177326829999  3.2008087673170000  1.0822447833850002
  7.4812352673170004  5.3600442326829993  1.0822447833850002
  3.2008087673170000  7.4812352673170004  1.0822447833850002
