Tb Fe Si C 
 1.0000000000000000
     1.9693280000000000    5.2960849999999997    0.0000000000000000
    -1.9693280000000000    5.2960849999999997    0.0000000000000000
     0.0000000000000000    4.2976590000000003    5.2247079999999997
 Tb  Fe  Si  C  
   2   2   2   1
Cartesian
 -0.0000000000000000  1.5105286602360000  1.0755270406319999
 -0.0000000000000001 13.3793003397639989  4.1491809593679996
 -0.0000000000000000  5.7277833282280000  3.1066218262159997
 -0.0000000000000001  9.1620456717719989  2.1180861737840000
 -0.0000000000000000  4.5070309787069993  1.1449581852440001
 -0.0000000000000001 10.3827980212930004  4.0797498147560001
  0.0000000000000000  7.4449144999999994  2.6123539999999998
