Li Cd Pt
 1.0000000000000000
     0.0000000000000000    3.2525930000000001    3.2525930000000001
     3.2525930000000001    0.0000000000000000    3.2525930000000001
     3.2525930000000001    3.2525930000000001    0.0000000000000000
 Li  Cd  Pt 
   1   2   1
Cartesian
  1.6262965000000000  1.6262965000000000  1.6262965000000000
  3.2525930000000001  3.2525930000000001  3.2525930000000001
  0.0000000000000000  0.0000000000000000  0.0000000000000000
  4.8788960051860002  4.8788960051860002  4.8788960051860002
