Ta Mn Al
 1.0000000000000000
     0.0000000000000000    2.9821110000000002    2.9821110000000002
     2.9821110000000002    0.0000000000000000    2.9821110000000002
     2.9821110000000002    2.9821110000000002    0.0000000000000000
 Ta  Mn  Al 
   1   2   1
Cartesian
  4.4731724642220003  4.4731724642220003  4.4731724642220003
  0.0000000000000000  0.0000000000000000  0.0000000000000000
  2.9821110000000002  2.9821110000000002  2.9821110000000002
  1.4910555000000001  1.4910555000000001  1.4910555000000001
