Ca Al Ag
 1.0000000000000000
     5.3491819999999999   -0.0050620000000000    7.8052599999999996
     2.4142000000000001    4.7734069999999997    7.8052599999999996
    -0.0082430000000000   -0.0050630000000000    9.4623349999999995
 Ca  Al  Ag 
   3   7   2
Cartesian
  0.0000000000000000  0.0000000000000000  0.0000000000000000
  1.1124746895500000  0.6832928028999999  3.5967010497499996
  6.6426643104500007  4.0799891970999997 21.4761539502500014
  3.2189345871170003  1.9771009786100000 15.2263228885449990
  4.4492546277289993  4.4040094360900000 14.3847210092449984
  3.8775694999999999  2.3816410000000001 12.5364274999999985
  4.5362044128830004  2.7861810213900000  9.8465321114550015
  5.9398850258169995  1.9771014864940000 14.3847210092449984
  3.3058843722710005  0.3592725639100000 10.6881339907550004
  1.8152539741830001  2.7861805135059998 10.6881339907550004
  5.1529951702179995  3.1650198842839998 16.6599593790099973
  2.6021438297820003  1.5982621157159997  8.4128956209899997
