Ba Os N 
 1.0000000000000000
     8.2278430000000000    0.0009950000000000    0.0000000000000000
    -4.1130810000000002    7.1229220000000000    0.0000000000000000
     0.0000000000000000    0.0000000000000000    5.6698060000000003
 Ba  Os  N  
   6   2   6
Cartesian
  4.7843242454289996  4.5519520519820000  1.4174515000000001
  5.6563393097430001  0.7122281427510000  1.4174515000000001
  1.8986637395210000  1.8699704838509998  1.4174515000000001
 -0.6695622454290000  2.5719649480180000  4.2523545000000000
 -1.5415773097430006  6.4116888572490005  4.2523545000000000
  2.2160982604789994  5.2539465161490000  4.2523545000000000
  4.1139175637389993  2.3729167130500000  4.2523545000000000
  0.0008444362610000  4.7510002869500001  1.4174515000000001
  4.9249268291349999  4.0381995544839997  4.2523545000000000
  5.1506420768340000  0.8375605400270000  4.2523545000000000
  2.2660683937259996  2.2412804100290002  4.2523545000000000
 -0.8101648291350001  3.0857174455159999  1.4174515000000001
 -1.0358800768340002  6.2863564599729997  1.4174515000000001
  1.8486936062739998  4.8826365899709998  1.4174515000000001
