Hg Sb O 
 1.0000000000000000
     5.2977629999999998    0.0000000000000000   -0.0000040000000000
    -2.6488809999999998    4.5879969999999997   -0.0000040000000000
     0.0000020000000000    0.0000030000000000    4.9241500000000000
 Hg  Sb  O  
   1   2   6
Cartesian
  0.0000000000000000  0.0000000000000000  0.0000000000000000
 -0.0000013155479999  3.0586676959990000  2.4620709999999999
  2.6488853155480001  1.5293323040009998  2.4620709999999999
 -1.6657076435709999  2.8850952535909999  3.5455430574600002
 -0.9831713564290000  1.7029047464089999  1.3786029425399999
  0.9831657809459999  1.7028923026069998  3.5455376793540001
  1.6657182190539999  2.8851076973929999  1.3786043206460001
  1.9663447638310001  0.0000008399040000  1.3786029425399999
  3.3314202361690000  0.0000021600960000  3.5455430574600002
