Pu As
 1.0000000000000000
     3.6005600000000002   -0.0000000000000000    2.0787830000000000
     1.2001860000000000    3.3946399999999999    2.0787830000000000
    -0.0000000000000000   -0.0000000000000000    4.1575689999999996
 Pu  As 
   1   1
Cartesian
  0.0000000000000000  0.0000000000000000  0.0000000000000000
  2.4003730000000001  1.6973199999999999  4.1575674999999999
