Sr Li Sn
 1.0000000000000000
     0.0000000000000000    3.5792799999999998    3.5792799999999998
     3.5792799999999998    0.0000000000000000    3.5792799999999998
     3.5792799999999998    3.5792799999999998    0.0000000000000000
 Sr  Li  Sn 
   1   2   1
Cartesian
  5.3689199999999992  5.3689199999999992  5.3689199999999992
  0.0000000000000000  0.0000000000000000  0.0000000000000000
  3.5792799999999998  3.5792799999999998  3.5792799999999998
  1.7896399999999999  1.7896399999999999  1.7896399999999999
