Be Ru
 1.0000000000000000
     9.2026500000000002    0.0000010000000000   -3.2536280000000000
    -4.6013250000000001    7.9697300000000002   -3.2536290000000001
     0.0000000000000000   -0.0000010000000000    9.7608859999999993
 Be  Ru 
  68  12
Cartesian
 -1.8527833284749999  3.2091149883270003  2.6202316253909994
  2.7485416715250000  4.7606152063470004 -3.8870253746090002
  5.4970833430499999 -0.0000000000000000  3.8870259719459996
  1.8527833284749999  3.2091157936529999 -2.6202316253909999
  3.7055666569499999 -0.0000000000000000  2.6202320280539997
 -2.7485416715250000  4.7606140116729998  3.8870253746089998
  1.4095745018249999  5.5282752484110000 -1.9934396166370001
 -0.8910879981750002  6.4263198642710000  1.2601888833629999
  5.1198115036500003  3.9848655000000002 -1.2601885770220005
  5.4924129981750003  1.5434101357290000  1.9934401166369997
 -0.5184865036499999  3.9848645000000000  4.5138175770219995
  3.1917504981750002  2.4414547515889997  5.2470686166369989
  1.5235585247250001  2.6388812094910001  1.0773090981910001
 -3.0777664752750002  5.3308487905100002 -2.1763101409229999
  0.0000000000000000 -0.0000006688880000  6.5289395147680001
  6.1555329505500005  0.0000006688870000 -2.1763094720359999
  3.0777664752750002  5.3308487905090001  2.1763199018090003
 -1.5235585247250001  2.6388812094900000 -1.0773188590770000
  0.0000000000000000 -0.0000003311120000  3.2319464852320001
  3.0471170494500002  0.0000003311130000 -1.0773185279639999
  2.5503165905250000  0.7441736321240000  0.8919336792889998
 -2.6816890205999999  6.1331687097829999  5.6153171372699999
  1.4899872575250004  1.0923863057270000  7.6537255600309990
  4.8023660919000006  6.1331697097809998  1.1464782275419994
  3.1113377424749999  6.8773436942729997 -4.4000965600309998
  7.2830140206000005  1.8365612902180002 -2.3616978981560002
  3.9706305848999999  5.3890037732530001  4.1455559415899996
  0.6306944151000002  2.5807262267469997 -0.8919269415900000
 -0.2010410919000000  1.8365602902190001  2.1071507724579996
  7.5116216505750000  0.7441736321250000  4.4000973295889994
 -2.9102966505750003  7.2255563678750008 -1.1464683295890001
  2.0510084094750001  7.2255563678760000  2.3616953207109983
  5.3277131711249996  2.7762637635810004  0.3670487430989990
  0.4668458331750002  4.7439253991469998  6.1402090100089994
  3.4652946680999999  0.4495403434880000  4.8602186952439999
  3.2579911728750002  4.7439263991470000 -1.6470386531070000
  1.1360303318999994  7.5201896565120006 -1.6065896952439997
  4.1344791668249998  3.2258046008529999 -2.8865800100090002
  4.3417826620500000  1.9676625227539999  3.6206773383419999
  0.2595423379499999  6.0020674772460003 -0.3670483383420001
  1.3433338271250002  3.2258036008529998  4.9006676531069990
  7.0806891590249998  2.7762637635810004  1.6065902904869989
 -2.4793641590250002  5.1934662364189998  1.6470387095129995
 -0.7263881711250002  5.1934662364190007  2.8865802569009991
  1.6943643100500003  4.3255073395319998 -0.1671778254059999
 -1.8618893506500001  5.4543556090650007 -0.4648688378880000
  4.8434467215000003  6.1595975595089998 -1.0211412452740005
  7.5139821303000005  0.6953911370370000  2.2324876148539996
  5.2530658756499999  1.8101334404920000 -1.6004400388140003
  0.0081443452500001  7.2743388629639991  3.0864507191059993
 -1.7025178579500000  4.3396128488850003  6.3400825154759994
  0.8086552608000002  3.6301161511140005  2.7887567686119987
  3.5424128750999992  2.5153743909339998  1.6531885039279997
  1.4465691548249999  1.1147336475720000  5.4861223492369993
  5.0084962492499994  3.6442226604669998  4.9068270376879992
  1.0532202858749997  6.8549963524289996 -3.7185135615190004
  2.9069606899500000  3.6442226604679999  3.4208068254059993
  6.4632143506500004  2.5153743909350004  3.7184978378879991
 -0.2421217215000000  1.8101324404910000  4.2747702452739995
 -2.9126571303000000  7.2743388629629999  1.0211413851459998
 -0.6517408756499996  6.1595965595079996  4.8540690388139991
  4.5931806547499994  0.6953911370360000  0.1671782808939998
  6.3038428579500003  3.6301171511149999 -3.0864535154760002
  3.7926697391999999  4.3396138488859997  0.4648722313879995
  1.0589121249000000  5.4543556090659999  1.6004404960719996
  3.1547558451749991  6.8549963524280004 -2.2324933492369996
 -0.4071712492499998  4.3255073395329990 -1.6531980376879998
  3.5481047141250004  1.1147336475709999  6.9721425615189991
  3.1216999263749998  2.4037266577180003 -0.7365855140730003
 -0.9587918942249999  6.4681294499229995 -2.5170462495349999
 -2.3465837235000002  7.0676038723999994  3.3185709248599999
  2.6926907886750007  6.4681294499239996  0.0649328623669991
  6.9479087235000003  0.9021261276000000 -0.0649419248600000
  5.5601168942250006  1.5016005500770000  5.7706752495349996
  5.1221719833749999  4.0643950488639993  2.5170498047710002
 -0.5208469833750000  3.9053349511360000  0.7365791952289998
  1.9086342113249999  1.5016005500759999  3.1886961376329994
 -0.3461070651750001  2.4037256577170005  6.5721997364469988
  4.9474320651750006  5.5660043422830006 -3.3185707364470001
  1.4796250736249998  5.5660033422820003  3.9902145140729992
