Li Cd Pd
 1.0000000000000000
     0.0000000000000000    3.2482600000000001    3.2482600000000001
     3.2482600000000001    0.0000000000000000    3.2482600000000001
     3.2482600000000001    3.2482600000000001    0.0000000000000000
 Li  Cd  Pd 
   1   2   1
Cartesian
  1.6241300000000001  1.6241300000000001  1.6241300000000001
  3.2482535034800004  3.2482535034800004  3.2482535034800004
  0.0000000000000000  0.0000000000000000  0.0000000000000000
  4.8723900000000002  4.8723900000000002  4.8723900000000002
