Ni O 
 1.0000000000000000
     6.0210090000000003    0.0000000000000000    0.0000000000000000
     0.0000000000000000    8.3230500000000003    0.0000000000000000
     0.0000000000000000    0.0000000000000000    2.8846799999999999
 Ni  O  
   6   8
Cartesian
  4.5157567500000004  2.0807625000000001  0.0000000000000000
  4.5157567500000004  6.2422874999999998  0.0000000000000000
  0.0000000000000000  0.0000000000000000  1.4423400000000000
  1.5052522500000001  6.2422874999999998  0.0000000000000000
  1.5052522500000001  2.0807625000000001  0.0000000000000000
  3.0105045000000001  4.1615250000000001  1.4423400000000000
  4.2445163155590002  4.1615250000000001  0.0000000000000000
  4.7869971844410006  0.0000000000000000  0.0000000000000000
  0.0000000000000000  1.8789535066500000  1.4423400000000000
  3.0105045000000001  2.2825714933500003  1.4423400000000000
  1.2340118155590001  0.0000000000000000  0.0000000000000000
  1.7764926844410001  4.1615250000000001  0.0000000000000000
  3.0105045000000001  6.0404785066500004  1.4423400000000000
  0.0000000000000000  6.4440964933500000  1.4423400000000000
