Mn Si
 1.0000000000000000
     4.5219240000000003    0.0000000000000000    0.0000000000000000
     0.0000000000000000    4.5219240000000003    0.0000000000000000
     0.0000000000000000    0.0000000000000000    4.5219240000000003
 Mn  Si 
   4   4
Cartesian
  3.9040935238800003  2.8787924761200001  1.6431315238800002
  2.8787924761200001  1.6431315238800002  3.9040935238800003
  1.6431315238800002  3.9040935238800003  2.8787924761200001
  0.6178304761200001  0.6178304761200001  0.6178304761200001
  0.7001294929200000  1.5608325070800000  2.9610914929200001
  1.5608325070800000  2.9610914929200001  0.7001294929200000
  2.9610914929200001  0.7001294929200000  1.5608325070800000
  3.8217945070800003  3.8217945070800003  3.8217945070800003
