Sc Ni Sb
 1.0000000000000000
     3.7249400000000001    0.0000000000000000    2.1505939999999999
     1.2416469999999999    3.5119060000000002    2.1505939999999999
     0.0000000000000000    0.0000000000000000    4.3011900000000001
 Sc  Ni  Sb 
   1   1   1
Cartesian
  2.4832935000000003  1.7559530000000001  4.3011889999999999
  1.2416467500000001  0.8779765000000000  2.1505945000000000
  0.0000000000000000  0.0000000000000000  0.0000000000000000
