Te Pt
 1.0000000000000000
     4.0469670000000004    0.0000000000000000    0.0000000000000000
    -2.0234830000000001    3.5047750000000000    0.0000000000000000
     0.0000000000000000    0.0000000000000000    5.4784389999999998
 Te  Pt 
   2   1
Cartesian
  2.0234856901500007  1.1682571650750000  4.1135461859789997
 -0.0000016901500000  2.3365178349250000  1.3648928140209999
  0.0000000000000000  0.0000000000000000  0.0000000000000000
