Si Os
 1.0000000000000000
     6.5068729999999997   -0.0121760000000000    0.0000000000000000
    -1.4424129999999999    6.3449989999999996    0.0000000000000000
     0.0000000000000000    0.0000000000000000    8.2228820000000002
 Si  Os 
  16   8
Cartesian
  5.7595672192849996  1.1229148436729999  5.9600271024199998
  3.2795357807149998  2.0313206563269999  1.8485861024200001
  3.8038441311349995  2.6869388230479996  6.3742958975800006
  5.2352588688649995  0.4672966769519999  2.2628548975800000
 -0.6951072192850000  5.2099081563269998  2.2628548975800000
  1.7849242192850001  4.3015023436729996  6.3742958975800006
  1.2606158688649998  3.6458841769519994  1.8485861024200001
 -0.1707988688650001  5.8655263230479999  5.9600271024199998
  2.6434987832049996  5.3897692304389997  0.4743862854620000
  4.9531912167950001  4.1094652695609994  4.5858272854620008
  2.1444974098550000  0.5973512948140000  3.6370547145380003
  0.3877325901450001  2.5690602051859996  7.7484957145379996
  2.4209612167949999  0.9430537695610001  7.7484957145379996
  0.1112687832050000  2.2233577304390000  3.6370547145380003
  2.9199625901449999  5.7354717051859998  4.5858272854620008
  4.6767274098550002  3.7637627948139993  0.4743862854620000
  4.1061324920399995  5.1344882350019994  6.7185550753920005
  3.4905575079599998  4.3647462649979998  2.6071140753919999
  1.5739024920400000  1.9680767350019999  5.6157679246079999
  0.9583275079600000  1.1983347649980001  1.5043269246080000
  4.2484093038260005  1.7939546320749999  4.1114410000000001
  4.7906936961739994  1.3602808679250000  0.0000000000000000
  0.8160506961739999  4.5388683679249997  4.1114410000000001
  0.2737663038260000  4.9725421320749996  0.0000000000000000
