Mn As
 1.0000000000000000
     3.4226749999999999    0.0000000000000000    0.0000000000000000
     0.0000000000000000    5.5572210000000002    0.0000000000000000
     0.0000000000000000    0.0000000000000000    6.0351419999999996
 Mn  As 
   4   4
Cartesian
  2.5670062499999999  5.5389377429100000  1.1454578813159999
  0.8556687500000000  0.0182832570900000  4.8896841186839994
  2.5670062499999999  2.7603272429099999  1.8721131186839997
  0.8556687500000000  2.7968937570900003  4.1630288813159995
  2.5670062499999999  4.4653715612460001  3.5074374409979998
  0.8556687500000000  1.0918494387540001  2.5277045590019998
  2.5670062499999999  1.6867610612460002  5.5452755590019995
  0.8556687500000000  3.8704599387540002  0.4898664409980000
