Nb Cu Te
 1.0000000000000000
     5.9718840000000002    0.0000000000000000    0.0000000000000000
     0.0000000000000000    5.9718840000000002    0.0000000000000000
     0.0000000000000000    0.0000000000000000    5.9718840000000002
 Nb  Cu  Te 
   1   3   4
Cartesian
  0.0000000000000000  0.0000000000000000  0.0000000000000000
  0.0000000000000000  0.0000000000000000  2.9859420000000001
  0.0000000000000000  2.9859420000000001  0.0000000000000000
  2.9859420000000001  0.0000000000000000  0.0000000000000000
  4.4401674166079994  4.4401674166079994  1.5317165833920001
  4.4401674166079994  1.5317165833920001  4.4401674166079994
  1.5317165833920001  4.4401674166079994  4.4401674166079994
  1.5317165833920001  1.5317165833920001  1.5317165833920001
