Al V  C 
 1.0000000000000000
    -1.4438000000000000   -2.5007340000000000    0.0000000000000000
    -1.4438000000000000    2.5007340000000000    0.0000000000000000
     0.0000000000000000    0.0000000000000000  -13.1048229999999997
 Al  V   C  
   2   4   2
Cartesian
 -1.4438000000000000 -0.8335796671560001 -9.8286172500000006
 -1.4438000000000000  0.8335796671560001 -3.2762057499999999
 -1.4438000000000000 -0.8335796671560001 -5.4203644699679998
 -1.4438000000000000  0.8335796671560001 -7.6844585300319999
 -1.4438000000000000  0.8335796671560001 -11.9727759699679996
 -1.4438000000000000 -0.8335796671560001 -1.1320470300320000
  0.0000000000000000  0.0000000000000000  0.0000000000000000
  0.0000000000000000  0.0000000000000000 -6.5524114999999998
