Pm Sn Au
 1.0000000000000000
     0.0000000000000000    3.7703419999999999    3.7703419999999999
     3.7703419999999999    0.0000000000000000    3.7703419999999999
     3.7703419999999999    3.7703419999999999    0.0000000000000000
 Pm  Sn  Au 
   2   1   1
Cartesian
  0.0000000000000000  0.0000000000000000  0.0000000000000000
  3.7703419999999999  3.7703419999999999  3.7703419999999999
  5.6555130000000000  5.6555130000000000  5.6555130000000000
  1.8851785406839998  1.8851785406839998  1.8851785406839998
