La Sc O 
 1.0000000000000000
     5.6850610000000001    0.0000000000000000    0.0000000000000000
     0.0000000000000000    5.8035310000000004    0.0000000000000000
     0.0000000000000000    0.0000000000000000    8.1022580000000008
 La  Sc  O  
   4   4  12
Cartesian
  0.0651564841210000  5.5446064644350006  2.0255645000000002
  2.9076869841210002  3.1606900355650001  6.0766935000000011
  2.7773740158789999  2.6428409644349999  2.0255645000000002
  5.6199045158790000  0.2589245355650001  6.0766935000000011
  0.0000000000000000  2.9017655000000002  0.0000000000000000
  2.8425305000000001  0.0000000000000000  0.0000000000000000
  2.8425305000000001  0.0000000000000000  4.0511290000000004
  0.0000000000000000  2.9017655000000002  4.0511290000000004
  5.1135986682799999  3.0977681524630007  2.0255645000000002
  2.2710681682800002  5.6075283475370004  6.0766935000000011
  3.4139928317200003  0.1960026524630000  2.0255645000000002
  0.5714623317200000  2.7057628475370001  6.0766935000000011
  4.0001226208200000  1.7194585576180001  7.6685927428080003
  1.1575921208200000  1.1823069423820001  0.4336652571920001
  4.5274688791799997  4.6212240576180008  4.4847942571920010
  1.6849383791799999  4.0840724423820003  3.6174637428080003
  1.6849383791799999  4.0840724423820003  0.4336652571920001
  4.5274688791799997  4.6212240576180008  7.6685927428080003
  1.1575921208200000  1.1823069423820001  3.6174637428080003
  4.0001226208200000  1.7194585576180001  4.4847942571920010
