Mg Ag
 1.0000000000000000
     5.7971579999999996   -0.0000000000000000    0.0000000000000000
    -2.8985799999999999    5.0204860000000000    0.0000000000000000
     0.0000000000000000    0.0000000000000000    4.7991310000000000
 Mg  Ag 
   2   6
Cartesian
  2.8985786666659998  1.6734986803240002  1.1997827500000000
  0.0000022319119999  3.3469923401620001  3.5993530491310000
  0.0000025659539999  1.6699391557500001  1.1997827500000000
  1.4523669572100000  4.1855189323679998  1.1997827500000000
 -1.4523628274280000  4.1855189323679998  1.1997827500000000
  4.3509495231639992  0.8349720881179999  3.5993530491310000
  1.4462081442099999  0.8349720881179999  3.5993530491310000
  2.8985725354659997  3.3505518647360000  3.5993530491310000
