Sm Mg
 1.0000000000000000
     3.8526300000000000    0.0000000000000000    0.0000000000000000
     0.0000000000000000    3.8526300000000000    0.0000000000000000
     0.0000000000000000    0.0000000000000000    3.8526300000000000
 Sm  Mg 
   1   1
Cartesian
  1.9263150000000000  1.9263150000000000  1.9263150000000000
  0.0000000000000000  0.0000000000000000  0.0000000000000000
