Te Mo
 1.0000000000000000
     5.1718659999999996   -2.9859770000000001    3.9943740000000001
     0.0000000000000000    5.9719559999999996    3.9943740000000001
    -5.1718659999999996   -2.9859779999999998    3.9943740000000001
 Te  Mo 
   8   6
Cartesian
  0.0000000000000001  0.0000002850529999  3.4158248754659999
  0.0000000000000001  0.0000007149469996  8.5672971245340008
 -1.3645502973059997 -3.0381752633339998  6.9552955981019995
  3.3134128434259997  0.3373536903869997  6.9552955981019995
 -1.9488625461199998  2.7008233142199995  6.9552955981020004
  1.3645502973059997  3.0381762633339995  5.0278264018980003
 -3.3134128434259997 -0.3373526903870000  5.0278264018980003
  1.9488625461199998 -2.7008223142199999  5.0278264018980003
 -3.6173065177199994 -3.1209021482419996  5.1428963280900000
  4.5114342273980004 -1.5722269451000004  5.1428963280900000
 -0.8941277096780000  4.6931303808770002  5.1428963280900000
  3.6173065177199999  3.1209031482419993  6.8402256719100007
 -4.5114342273979995  1.5722279451000001  6.8402256719100007
  0.8941277096779993 -4.6931293808770000  6.8402256719099999
