Li Al
 1.0000000000000000
     4.5044750000000002    0.0000000000000000    0.0000000000000000
     0.0000000000000000    4.5044750000000002    0.0000000000000000
     0.0000000000000000    0.0000000000000000    6.3335419999999996
 Li  Al 
   4   4
Cartesian
  2.2522375000000001  1.1261187500000001  0.7916927499999999
  2.2522375000000001  3.3783562500000004  5.5418492499999994
  0.0000000000000000  3.3783562500000004  3.9584637499999999
  0.0000000000000000  1.1261187500000001  2.3750782499999996
  0.0000000000000000  3.3783562500000004  0.7916927499999999
  0.0000000000000000  1.1261187500000001  5.5418492499999994
  2.2522375000000001  1.1261187500000001  3.9584637499999999
  2.2522375000000001  3.3783562500000004  2.3750782499999996
