Sr In Rh
 1.0000000000000000
     4.1212380000000000   -0.0000000000000000    1.1788339999999999
     1.6335610000000000    5.3010130000000002    2.0824229999999999
    -0.0077080000000000   -0.0194370000000000    7.8203469999999999
 Sr  In  Rh 
   2   3   2
Cartesian
  4.3599194877879999  2.7040810410559999  8.1377958782079993
  1.3871715122120001  2.5774949589439999  2.9438081217919998
  2.0606190000000000  0.0000000000000000  0.5894170000000000
  2.9016987382460004  0.8225426376250000  5.4423699972930004
  2.8453922694620002  4.4590333818120005  5.6392261823599998
  3.6738028269029996  0.2428132071750000  2.7430722511210002
  2.0732881730970001  5.0387627928249996  8.3385317488789994
