Zr Ni P 
 1.0000000000000000
     3.6320139999999999    0.0000000000000000    0.0000000000000000
     0.0000000000000000    4.8991309999999997   -1.8699530000000000
     0.0000000000000000    0.0039860000000000    7.5011349999999997
 Zr  Ni  P  
   4   2   2
Cartesian
  2.7240104999999999  1.0284307752949997  6.5425079336529999
  0.9080035000000000  3.8746862247049996 -0.9113259336529999
  2.7240104999999999  1.0337728887969999  2.8373452561520001
  0.9080035000000000  3.8693441112030000  2.7938367438479998
  2.7240104999999999  3.1512151629559999  0.9846022882689998
  0.9080035000000000  1.7519018370439998  4.6465797117310004
  2.7240104999999999  3.1644950718759999  4.7111221904659999
  0.9080035000000000  1.7386219241380001  0.9200523083989999
