Pr Mg Ni
 1.0000000000000000
     4.3163999999999998   -0.0000600000000000    2.4919760000000002
     1.4387430000000001    4.0695470000000000    2.4919760000000002
    -0.0000810000000000   -0.0000570000000000    4.9840929999999997
 Pr  Mg  Ni 
   1   1   4
Cartesian
  5.7551386836000002  4.0694870000599996  4.9839495080240006
  1.4387640613379999  1.0173534305100000  2.4920037739310001
  3.5869459826160002  2.5363454972400001  6.2127634710600006
  2.8775492881950004  0.5297373315590000  4.9840523412320001
  3.5870089425870004  2.5363898806909999  3.7552318145210006
  1.4586269803259999  2.5363954294299997  4.9840598173009996
