Nd Cu Se
 1.0000000000000000
     6.7262849999999998    0.0333510000000000    0.0000000000000000
    -0.8729580000000000    7.1414320000000000    0.0000000000000000
     0.0000000000000000    0.0000000000000000    7.4839620000000000
 Nd  Cu  Se 
   4   4   8
Cartesian
  4.3924905141360000  2.1580972907499998  4.0964513761679999
  1.8973154858639998  1.4459697092499999  0.3544703761680000
  1.4608364858639997  5.0166857092499999  3.3875106238320001
  3.9560115141360002  5.7288132907499998  7.1294916238320001
 -0.0249721155000001  3.9194686727160000  6.2926724128020002
  5.8782991154999999  3.2553143272840002  1.1912895871979998
  0.4115068844999999  0.3487526727160000  4.9332705871979998
  5.4418201154999997  6.8260303272840002  2.5506914128019997
  2.7952007768189997  0.0268075872330000  5.4198703124760002
  2.3587217768189994  3.5975235872330003  5.8060726875239999
  3.4946052231809999  3.5772594127670003  1.6778893124760001
  3.0581262231809996  7.1479754127669999  2.0640916875239999
  5.4513153348030006  5.1914418424650002  4.5804616505940006
 -0.0344673348030000  5.5540571575349995  0.8384806505940000
  0.4020116651970000  1.9833411575350002  2.9035003494059999
  5.8877943348030000  1.6207258424650000  6.6454813494059994
