Co Cu Ge
 1.0000000000000000
     3.8267300000000000    0.0000000000000000    0.0000000000000000
     0.0000000000000000    4.9589350000000003    0.0000010000000000
     0.0000000000000000    0.0000020000000000    6.6221379999999996
 Co  Cu  Ge 
   4   2   4
Cartesian
  1.9133650000000000  1.2397588623050000  1.0516950964750000
  1.9133650000000000  3.7191781376950002  5.5704439035249997
  1.9133650000000000  2.4794685000000003  3.3110694999999999
  1.9133650000000000  0.0000010000000000  3.3110689999999998
  0.0000000000000000  0.0000000000000000  0.0000000000000000
  0.0000000000000000  2.4794675000000002  0.0000005000000000
  0.0000000000000000  1.2397345076020001  2.5084727465379997
  0.0000000000000000  3.7192024923980003  4.1136662534619992
  1.9133650000000000  1.2397700687390001  5.3182194113929997
  1.9133650000000000  3.7191669312610003  1.3039195886069999
