Sc Sn Pt
 1.0000000000000000
     7.4858260000000003    0.0000000000000000    0.0000000000000000
    -3.7429120000000000    6.4829150000000002    0.0000000000000000
     0.0000000000000000    0.0000000000000000    7.3594970000000002
 Sc  Sn  Pt 
   6   6   6
Cartesian
  2.9514366348020000  0.1152791945300000  1.8398742500000000
  2.3670300067780001  3.8692565056850001  1.8398742500000000
  5.9102733584200005  2.4983792997850003  1.8398742500000000
 -0.7914754007620001  6.3676358054700009  5.5196227499999999
  2.1673605876620003  3.9845357002149999  5.5196227499999999
 -1.3758831868999999  2.6136584943150001  5.5196227499999999
  1.0263594195960000  1.7777060538100002  0.0000000000000000
 -2.7165531288320000  4.7052089461900009  0.0000000000000000
 -2.7165531288320000  4.7052089461900009  3.6797485000000001
  5.4331077092360003  0.0000000000000000  3.6797485000000001
  1.0263594195960000  1.7777060538100002  3.6797485000000001
  5.4331077092360003  0.0000000000000000  0.0000000000000000
  0.0000000000000000  0.0000000000000000  5.5196227499999999
  0.0000000000000000  0.0000000000000000  1.8398742500000000
  3.7429170762460005  2.1609695056949998  7.0879536391910003
 -0.0000030762460002  4.3219454943050000  3.4082051391909998
 -0.0000030762460002  4.3219454943050000  0.2715433608090000
  3.7429170762460005  2.1609695056949998  3.9512918608090000
