Ti Cu
 1.0000000000000000
     4.3228359999999997    0.0000000000000000    0.0000000000000000
     0.0000000000000000    4.4373800000000001    0.0000000000000000
     0.0000000000000000    0.0000000000000000    5.4509059999999998
 Ti  Cu 
   2   6
Cartesian
  3.2421270000000000  1.5076575409399999  4.0881794999999999
  1.0807089999999999  2.9297224590599997  1.3627265000000000
  1.0807089999999999  0.7430348436199999  5.4303615352860000
  3.2421270000000000  3.6943451563800003  0.0205444647140000
  3.2421270000000000  1.4175787269400000  1.3627265000000000
  1.0807089999999999  3.0198012730599997  4.0881794999999999
  3.2421270000000000  3.6943451563800003  2.7049085352859996
  1.0807089999999999  0.7430348436199999  2.7459974647140002
