Th Te O 
 1.0000000000000000
     4.1293280000000001    0.0000000000000000    0.0000000000000000
     0.0000000000000000    4.1293280000000001    0.0000000000000000
     0.0000000000000000    0.0000000000000000    7.8084899999999999
 Th  Te  O  
   2   2   2
Cartesian
  1.0323320000000000  1.0323320000000000  1.2854336237999999
  3.0969959999999999  3.0969959999999999  6.5230563762000005
  1.0323320000000000  1.0323320000000000  5.0139797903099996
  3.0969959999999999  3.0969959999999999  2.7945102096899999
  1.0323320000000000  3.0969959999999999  0.0000000000000000
  3.0969959999999999  1.0323320000000000  0.0000000000000000
