Er As
 1.0000000000000000
     3.5202469999999999   -0.0000000000000000    2.0324149999999999
     1.1734150000000001    3.3189210000000000    2.0324149999999999
     0.0000000000000000    0.0000000000000000    4.0648309999999999
 Er  As 
   1   1
Cartesian
  2.3468309999999999  1.6594605000000000  4.0648304999999993
  0.0000000000000000  0.0000000000000000  0.0000000000000000
