In Cl
 1.0000000000000000
     9.5892359999999996    0.0000620000000000   -0.0002860000000000
    -4.7945669999999998    8.3032780000000006    0.0002590000000000
    -0.0001020000000000    0.0000450000000000    3.4114469999999999
 In  Cl 
   2   6
Cartesian
  4.7945567571449992  2.7675102295220002  0.8527642369189999
  0.0000246261480000  5.5358332541610000  2.5586659964130001
  6.4507431394230013  1.8117495390200000  2.5584181636309999
  3.1383237590130002  1.8117447288260002  2.5585101342350001
  4.7945414755860005  4.6798595223380008  2.5585280978359997
 -1.6561521664859999  6.4916105512080007  0.8530018353059999
  1.6562336515469995  6.4916734845280004  0.8529235123030000
  0.0000111403050003  3.6235171743499999  0.8528987253710000
