Yb In C 
 1.0000000000000000
     4.7818430000000003    0.0000000000000000    0.0000000000000000
     0.0000000000000000    4.7818430000000003    0.0000000000000000
     0.0000000000000000    0.0000000000000000    4.7818430000000003
 Yb  In  C  
   3   1   1
Cartesian
  2.3909215000000001  0.0000000000000000  2.3909215000000001
  2.3909215000000001  2.3909215000000001  0.0000000000000000
  0.0000000000000000  2.3909215000000001  2.3909215000000001
  0.0000000000000000  0.0000000000000000  0.0000000000000000
  2.3909215000000001  2.3909215000000001  2.3909215000000001
