Bi Te
 1.0000000000000000
     2.2231010000000002   -1.2835080000000001   10.7008600000000005
     0.0000000000000000    2.5670169999999999   10.7008600000000005
    -2.2231010000000002   -1.2835080000000001   10.7008600000000005
 Bi  Te 
   2   3
Cartesian
  0.0000000000000000  0.0000003972479999 12.7526856998400007
  0.0000000000000000  0.0000006027519998 19.3498943001599990
 -0.0000000000000000  0.0000002157909999  6.9274478407800011
  0.0000000000000000  0.0000000000000000  0.0000000000000000
 -0.0000000000000001  0.0000007842089999 25.1751321592200021
