Cs F 
 1.0000000000000000
     3.6817540000000002    0.0000000000000000    2.1256610000000000
     1.2272520000000000    3.4711910000000001    2.1256610000000000
     0.0000000000000000    0.0000000000000000    4.2513230000000002
 Cs  F  
   1   1
Cartesian
  0.0000000000000000  0.0000000000000000  0.0000000000000000
  2.4545029999999999  1.7355955000000001  4.2513225000000006
