Sc Ru Au
 1.0000000000000000
     0.0007280000000000    3.2895319999999999    3.2878180000000001
     3.2880349999999998   -0.0007100000000000    3.2895390000000000
     3.2883030000000000    3.2916349999999999   -0.0009660000000000
 Sc  Ru  Au 
   2   1   1
Cartesian
  6.5752169380089995  3.2911976769100000  3.2891187605709997
  3.2895948783210001  3.2899393600800000  3.2876398718670004
  4.9328652552960000  4.9353328868949999  4.9323031290650006
  1.6442500615489999  1.6451241249589998  1.6440845874360002
