Li Sn Au
 1.0000000000000000
     4.7577350000000003    0.0000000000000000    0.0000000000000000
    -2.3788670000000001    4.1203200000000004    0.0000000000000000
     0.0000000000000000    0.0000000000000000    6.1364250000000000
 Li  Sn  Au 
   2   2   2
Cartesian
  0.0000000000000000  0.0000000000000000  0.0000000000000000
  0.0000000000000000  0.0000000000000000  3.0682125000000000
  2.3788700455340002  1.3734386265600000  1.5341062500000000
 -0.0000020455340001  2.7468813734400004  4.6023187500000002
 -0.0000020455340001  2.7468813734400004  1.5341062500000000
  2.3788700455340002  1.3734386265600000  4.6023187500000002
