Ga Te
 1.0000000000000000
     4.1060470000000002    0.0000000000000000    0.0000000000000000
    -2.0530230000000000    8.7024450000000009   -2.4156089999999999
     0.0000000000000000   -0.2166750000000000   10.7345419999999994
 Ga  Te 
   6   6
Cartesian
  0.0000001383830001  2.3185707159450004  3.7887561687079998
  2.0530238616170000  6.1671992840550010  4.5301768312919997
  0.0000022903220001  4.0645260322650003  2.1049231727229998
  2.0530217096780001  4.4212439677350002  6.2140098272769988
  2.0530215092470003  1.0658070269700002  0.5911229379370000
  0.0000024907530001  7.4199629730300005  7.7278100620629999
 -0.0000019007740000  2.6379972761550001 -0.1465676744350001
  2.0530259007740006  5.8477727238450008  8.4655006744349990
  0.0000042705220000  2.7171497027250004  6.4147360302759990
  2.0530197294780002  5.7686205139500011  1.9041862351819998
  2.0530214898870001  0.6767735537700000  3.2645522045290001
  0.0000045631360000  7.8089877437850008  5.0543832110800002
