Li V  N 
 1.0000000000000000
     9.4994270000000007    0.0000000000000000    0.0000000000000000
     0.0000000000000000    9.4994270000000007    0.0000000000000000
     0.0000000000000000    0.0000000000000000    9.4994270000000007
 Li  V   N  
  56   8  32
Cartesian
  8.2071059520660015  3.6143134866790003  3.7619820793940000
  3.4573924520660002  1.1354000133210000  5.7374449206060003
  1.2923210479340002  8.3640269866790007  0.9877314206060001
  1.1354000133210000  5.7374449206060003  3.4573924520660002
  0.9877314206060001  1.2923210479340002  8.3640269866790007
  5.7374449206060003  3.4573924520660002  1.1354000133210000
  3.6143134866790003  3.7619820793940000  8.2071059520660015
  3.7619820793940000  8.2071059520660015  3.6143134866790003
  8.3640269866790007  0.9877314206060001  1.2923210479340002
  5.8851135133210013  8.5116955793940008  6.0420345479340005
  8.5116955793940008  6.0420345479340005  5.8851135133210013
  6.0420345479340005  5.8851135133210013  8.5116955793940008
  1.2923210479340002  5.8851135133210013  5.7374449206060003
  6.0420345479340005  8.3640269866790007  3.7619820793940000
  8.2071059520660015  1.1354000133210000  8.5116955793940008
  8.3640269866790007  3.7619820793940000  6.0420345479340005
  8.5116955793940008  8.2071059520660015  1.1354000133210000
  3.7619820793940000  6.0420345479340005  8.3640269866790007
  5.8851135133210013  5.7374449206060003  1.2923210479340002
  5.7374449206060003  1.2923210479340002  5.8851135133210013
  1.1354000133210000  8.5116955793940008  8.2071059520660015
  3.6143134866790003  0.9877314206060001  3.4573924520660002
  0.9877314206060001  3.4573924520660002  3.6143134866790003
  8.2547835761790012  5.9876503283590008  1.1026839867330001
  3.4573924520660002  3.6143134866790003  0.9877314206060001
  1.2379368283590000  1.1026839867330001  5.9943569238210008
  3.5117766716409999  8.3967430132670007  1.2446434238210000
  1.1026839867330001  5.9943569238210008  1.2379368283590000
  1.2446434238210000  3.5117766716409999  8.3967430132670007
  5.9943569238210008  1.2379368283590000  1.1026839867330001
  3.6470295132670003  3.5050700761790003  5.9876503283590008
  3.5050700761790003  5.9876503283590008  3.6470295132670003
  8.3967430132670007  1.2446434238210000  3.5117766716409999
  5.8523974867330004  8.2547835761790012  8.2614901716410003
  8.2547835761790012  8.2614901716410003  5.8523974867330004
  8.2614901716410003  5.8523974867330004  8.2547835761790012
  3.5117766716409999  5.8523974867330004  5.9943569238210008
  8.2614901716410003  8.3967430132670007  3.5050700761790003
  5.9876503283590008  1.1026839867330001  8.2547835761790012
  8.3967430132670007  3.5050700761790003  8.2614901716410003
  1.2595860224919999  1.2595860224919999  1.2595860224919999
  3.4901274775080005  8.2398409775080008  6.0092995224920012
  6.0092995224920012  3.4901274775080005  8.2398409775080008
  8.2398409775080008  6.0092995224920012  3.4901274775080005
  8.2398409775080008  8.2398409775080008  8.2398409775080008
  6.0092995224920012  1.2595860224919999  3.4901274775080005
  3.4901274775080005  6.0092995224920012  1.2595860224919999
  1.2595860224919999  3.4901274775080005  6.0092995224920012
  1.2379368283590000  3.6470295132670003  1.2446434238210000
  1.2446434238210000  1.2379368283590000  3.6470295132670003
  3.6470295132670003  1.2446434238210000  1.2379368283590000
  1.1026839867330001  8.2547835761790012  5.9876503283590008
  5.9943569238210008  3.5117766716409999  5.8523974867330004
  5.8523974867330004  5.9943569238210008  3.5117766716409999
  3.5050700761790003  8.2614901716410003  8.3967430132670007
  5.9876503283590008  3.6470295132670003  3.5050700761790003
  3.5174858272680001  1.2322276727320001  8.2671993272680009
  1.2322276727320001  8.2671993272680009  3.5174858272680001
  8.2671993272680009  3.5174858272680001  1.2322276727320001
  5.9819411727320011  5.9819411727320011  5.9819411727320011
  5.9819411727320011  8.2671993272680009  1.2322276727320001
  8.2671993272680009  1.2322276727320001  5.9819411727320011
  1.2322276727320001  5.9819411727320011  8.2671993272680009
  3.5174858272680001  3.5174858272680001  3.5174858272680001
  9.3637086864510000  2.4613300339810005  0.2054821054370000
  4.6139951864510005  2.2883834660190003  9.2939448945630012
  0.1357183135490000  7.2110435339810000  4.5442313945630000
  2.2883834660190003  9.2939448945630012  4.6139951864510005
  4.5442313945630000  0.1357183135490000  7.2110435339810000
  9.2939448945630012  4.6139951864510005  2.2883834660190003
  2.4613300339810005  0.2054821054370000  9.3637086864510000
  0.2054821054370000  9.3637086864510000  2.4613300339810005
  7.2110435339810000  4.5442313945630000  0.1357183135490000
  7.0380969660190011  4.9551956054369999  4.8854318135490011
  4.9551956054369999  4.8854318135490011  7.0380969660190011
  4.8854318135490011  7.0380969660190011  4.9551956054369999
  0.1357183135490000  7.0380969660190011  9.2939448945630012
  4.8854318135490011  7.2110435339810000  0.2054821054370000
  9.3637086864510000  2.2883834660190003  4.9551956054369999
  7.2110435339810000  0.2054821054370000  4.8854318135490011
  4.9551956054369999  9.3637086864510000  2.2883834660190003
  0.2054821054370000  4.8854318135490011  7.2110435339810000
  7.0380969660190011  9.2939448945630012  0.1357183135490000
  9.2939448945630012  0.1357183135490000  7.0380969660190011
  2.2883834660190003  4.9551956054369999  9.3637086864510000
  2.4613300339810005  4.5442313945630000  4.6139951864510005
  4.5442313945630000  4.6139951864510005  2.4613300339810005
  4.6139951864510005  2.4613300339810005  4.5442313945630000
  2.4706584712950002  2.2790550287050002  7.2203719712950010
  2.2790550287050002  7.2203719712950010  2.4706584712950002
  7.2203719712950010  2.4706584712950002  2.2790550287050002
  7.0287685287050001  7.0287685287050001  7.0287685287050001
  7.0287685287050001  7.2203719712950010  2.2790550287050002
  7.2203719712950010  2.2790550287050002  7.0287685287050001
  2.2790550287050002  7.0287685287050001  7.2203719712950010
  2.4706584712950002  2.4706584712950002  2.4706584712950002
