Li Zr Ir
 1.0000000000000000
     0.0012650000000000    3.1283310000000002    3.1283310000000002
     3.1283310000000002    0.0012650000000000    3.1283310000000002
     3.1283310000000002    3.1283310000000002    0.0012650000000000
 Li  Zr  Ir 
   1   1   2
Cartesian
  1.5644754920730002  1.5644754920730002  1.5644754920730000
  4.6934640237809999  4.6934640237809999  4.6934640237809999
  6.2576516512120000  6.2576516512120000  6.2576516512120000
  3.1292263329340000  3.1292263329340000  3.1292263329340000
