Li Pd
 1.0000000000000000
     3.0028419999999998    0.0000000000000000    0.0000000000000000
     0.0000000000000000    3.0028419999999998    0.0000000000000000
     0.0000000000000000    0.0000000000000000    3.0028419999999998
 Li  Pd 
   1   1
Cartesian
  0.0000000000000000  0.0000000000000000  0.0000000000000000
  1.5014209999999999  1.5014209999999999  1.5014209999999999
