Al Pd
 1.0000000000000000
     4.9087990000000001    0.0000000000000000    0.0000000000000000
     0.0000000000000000    4.9087990000000001    0.0000000000000000
     0.0000000000000000    0.0000000000000000    4.9087990000000001
 Al  Pd 
   4   4
Cartesian
  4.1443910021220001  4.1443910021220001  4.1443910021220001
  3.2188074978780001  0.7644079978780001  1.6899915021220000
  1.6899915021220000  3.2188074978780001  0.7644079978780001
  0.7644079978780001  1.6899915021220000  3.2188074978780001
  0.7236060605900001  0.7236060605900001  0.7236060605900001
  1.7307934394100002  4.1851929394100003  3.1780055605900004
  3.1780055605900004  1.7307934394100002  4.1851929394100003
  4.1851929394100003  3.1780055605900004  1.7307934394100002
