Sm Co P 
 1.0000000000000000
     3.6269239999999998   -0.0000000000000000   -1.3608670000000000
    -0.5106150000000000    3.5908009999999999   -1.3608670000000000
    -0.0093030000000000   -0.0107200000000000    5.4887969999999999
 Sm  Co  P  
   1   2   2
Cartesian
  0.0000000000000000  0.0000000000000000  0.0000000000000000
  0.5191182499999999  2.6877407500000001  1.3835314999999999
  2.5878877500000002  0.8923402499999999  1.3835314999999999
  1.1361724272430000  1.3091666796590000  3.0280650973459999
  1.9708335727570001  2.2709143203409998 -0.2610020973460001
