Er Bi I  O 
 1.0000000000000000
     3.9335689999999999    0.0000000000000000    0.0000000000000000
     0.0000000000000000    3.9335689999999999    0.0000000000000000
     0.0000000000000000    0.0000000000000000    9.7090899999999998
 Er  Bi  I   O  
   1   2   1   4
Cartesian
  0.0000000000000000  0.0000000000000000  0.0000000000000000
  1.9667844999999999  1.9667844999999999  7.2301748502900001
  1.9667844999999999  1.9667844999999999  2.4789151497100002
  0.0000000000000000  0.0000000000000000  4.8545449999999999
  0.0000000000000000  1.9667844999999999  1.3613503452600000
  0.0000000000000000  1.9667844999999999  8.3477396547399998
  1.9667844999999999  0.0000000000000000  8.3477396547399998
  1.9667844999999999  0.0000000000000000  1.3613503452600000
