Al Au
 1.0000000000000000
     6.0666359999999999    0.0000000000000000    0.0000000000000000
     0.0000000000000000    6.0666359999999999    0.0000000000000000
     0.0000000000000000    0.0000000000000000    6.0666359999999999
 Al  Au 
   8   4
Cartesian
  4.5499770000000002  1.5166590000000000  1.5166590000000000
  1.5166590000000000  4.5499770000000002  4.5499770000000002
  4.5499770000000002  4.5499770000000002  4.5499770000000002
  1.5166590000000000  1.5166590000000000  1.5166590000000000
  1.5166590000000000  1.5166590000000000  4.5499770000000002
  4.5499770000000002  4.5499770000000002  1.5166590000000000
  1.5166590000000000  4.5499770000000002  1.5166590000000000
  4.5499770000000002  1.5166590000000000  4.5499770000000002
  0.0000000000000000  0.0000000000000000  0.0000000000000000
  0.0000000000000000  3.0333180000000000  3.0333180000000000
  3.0333180000000000  0.0000000000000000  3.0333180000000000
  3.0333180000000000  3.0333180000000000  0.0000000000000000
