Sr Ir
 1.0000000000000000
     4.7220250000000004    0.0000000000000000    2.7262610000000000
     1.5740080000000001    4.4519590000000004    2.7262620000000002
    -0.0000030000000000   -0.0000020000000000    5.4525290000000002
 Sr  Ir 
   2   4
Cartesian
  0.7870021759890000  0.5564901730390001  1.3631342262670001
  5.5090278240109996  3.8954668269610009  9.5419177737330010
  0.7870025000000000  2.2259785000000001  4.0893955000000002
  2.3610110000000000 -0.0000010000000000  4.0893949999999997
  3.1480165000000002  2.2259795000000002  2.7262615000000001
  3.1480150000000000  2.2259785000000001  5.4525260000000006
