Cs H 
 1.0000000000000000
    -3.1912539999999998   -3.1912539999999998    0.0000000000000000
    -3.1912539999999998    0.0000000000000000   -3.1912539999999998
     0.0000000000000000   -3.1912539999999998   -3.1912539999999998
 Cs  H  
   1   1
Cartesian
  0.0000000000000000  0.0000000000000000  0.0000000000000000
 -3.1912539999999998 -3.1912539999999998 -3.1912539999999998
