Ag P 
 1.0000000000000000
     6.0164559999999998    0.0031350000000000    2.7658570000000000
     1.7502700000000000    6.3120000000000003    3.7262900000000001
     0.0022170000000000   -0.0053830000000000    7.5359119999999997
 Ag  P  
   3  11
Cartesian
  1.4388102170879999  4.4659447182449998  8.0659401559709991
  5.5373255384380000  2.5987796576080000  6.8502859817979997
  1.7862417547560001  6.3027250522450000 11.2712365126470004
  0.5963993595120001  1.1975369183280000  2.2594976376960001
  1.2053936627130002  3.2091656810870006  5.8747582264140004
  5.9863668972159996  5.7851470598289998 12.3401853196030000
  4.4811060691629994  4.6440875407969999  5.8905662470540001
  3.5851047949000003  1.4059802191040001  7.8432680052159993
  3.6910014616539999  2.4432042081170002  3.4975510217210002
  3.1701970391520002  0.5610410213950000  4.6325669426690004
  2.3159466242120001  2.4501466884250003  9.3222762786590003
  3.2883815159000003  5.9644815817929997  7.2029987985470001
  2.7335646805879996  4.0928404408150003  4.5985285251010000
  1.9357987407659998  1.2097510915730001  6.3371409557289997
