Na Ho Se
 1.0000000000000000
    -2.0493790000000001   -3.5496300000000001    0.0000000000000000
    -4.0987600000000004    0.0000000000000000    0.0000000000000000
    -2.0493790000000001   -1.1832110000000000   -6.9260359999999999
 Na  Ho  Se 
   1   1   2
Cartesian
 -4.0987590000000003 -2.3664205000000003 -3.4630179999999999
  0.0000000000000000  0.0000000000000000  0.0000000000000000
 -6.1481384867540001 -3.5496307698690002 -5.3321404092840003
 -2.0493795132460000 -1.1832102301309999 -1.5938955907160000
