Sr In Pt
 1.0000000000000000
     4.5070660000000000   -0.0000000000000000    0.0000000000000000
    -2.2535340000000001    5.4900719999999996    0.0000000000000000
     0.0000000000000000    0.0000000000000000    7.9651560000000003
 Sr  In  Pt 
   2   4   2
Cartesian
 -0.0000001232340000  0.6765635328480000  5.9738670000000003
  2.2535321232340002  4.8135084671520003  1.9912890000000001
 -0.0000029480900002  3.8131679381039998  7.5337950116640009
 -0.0000029480900002  3.8131679381039998  4.4139389883359996
  2.2535349480900000  1.6769040618960001  0.4313609883360001
  2.2535349480900000  1.6769040618960001  3.5512170116640003
  2.2535301858320000  3.0779265157199998  5.9738670000000003
  0.0000018141679999  2.4121454842799999  1.9912890000000001
