Ti Co
 1.0000000000000000
     6.6453420000000003    0.0000000000000000    0.0000000000000000
     0.0000000000000000    6.6453420000000003    0.0000000000000000
     0.0000000000000000    0.0000000000000000    6.6453420000000003
 Ti  Co 
   8  16
Cartesian
  0.8306677500000000  0.8306677500000000  0.8306677500000000
  5.8146742500000004  5.8146742500000004  5.8146742500000004
  0.8306677500000000  4.1533387500000005  4.1533387500000005
  5.8146742500000004  2.4920032500000002  2.4920032500000002
  4.1533387500000005  0.8306677500000000  4.1533387500000005
  2.4920032500000002  5.8146742500000004  2.4920032500000002
  4.1533387500000005  4.1533387500000005  0.8306677500000000
  2.4920032500000002  2.4920032500000002  5.8146742500000004
  1.6613355000000001  0.0000000000000000  4.9840065000000005
  4.9840065000000005  4.9840065000000005  3.3226710000000002
  3.3226710000000002  4.9840065000000005  4.9840065000000005
  0.0000000000000000  0.0000000000000000  3.3226710000000002
  1.6613355000000001  3.3226710000000002  1.6613355000000001
  4.9840065000000005  1.6613355000000001  0.0000000000000000
  3.3226710000000002  1.6613355000000001  1.6613355000000001
  0.0000000000000000  3.3226710000000002  0.0000000000000000
  4.9840065000000005  0.0000000000000000  1.6613355000000001
  1.6613355000000001  4.9840065000000005  0.0000000000000000
  0.0000000000000000  4.9840065000000005  1.6613355000000001
  3.3226710000000002  0.0000000000000000  0.0000000000000000
  4.9840065000000005  3.3226710000000002  4.9840065000000005
  1.6613355000000001  1.6613355000000001  3.3226710000000002
  0.0000000000000000  1.6613355000000001  4.9840065000000005
  3.3226710000000002  3.3226710000000002  3.3226710000000002
