Cd P  Pt
 1.0000000000000000
     3.9415900000000001    0.0000000000000000    0.0000000000000000
     0.0000000000000000    3.9415900000000001    0.0000000000000000
     0.0000000000000000    0.0000000000000000    7.1050940000000002
 Cd  P   Pt 
   1   1   5
Cartesian
  1.9707950000000001  1.9707950000000001  0.0000000000000000
  0.0000000000000000  0.0000000000000000  3.5525470000000001
  0.0000000000000000  1.9707950000000001  2.1240678513000000
  0.0000000000000000  1.9707950000000001  4.9810261486999998
  1.9707950000000001  0.0000000000000000  2.1240678513000000
  1.9707950000000001  0.0000000000000000  4.9810261486999998
  0.0000000000000000  0.0000000000000000  0.0000000000000000
