Lu Ga Ni
 1.0000000000000000
     2.0597979999999998   -4.9207400000000003    0.0000000000000000
     2.0597979999999998    4.9207400000000003    0.0000000000000000
     0.0000000000000000    0.0000000000000000    6.5860719999999997
 Lu  Ga  Ni 
   2   4   2
Cartesian
  2.0597979999999998 -0.7395084901600002  1.6465179999999999
  2.0597979999999998  0.7395084901600000  4.9395539999999993
  2.0597979999999998 -3.5498415189599997  0.3464734897040000
  2.0597979999999998  3.5498415189600001  6.2395985102960001
  2.0597979999999998  3.5498415189600001  3.6395094897039995
  2.0597979999999998 -3.5498415189599997  2.9465625102959998
  2.0597979999999998  2.0464964000800001  1.6465179999999999
  2.0597979999999998 -2.0464964000800001  4.9395539999999993
