Li Sc Si O 
 1.0000000000000000
     4.8642459999999996    0.0000000000000000    0.0000000000000000
     0.0000000000000000    6.0327880000000000    0.0000000000000000
     0.0000000000000000    0.0000000000000000   10.5299150000000008
 Li  Sc  Si  O  
   4   4   4  16
Cartesian
  0.0000000000000000  0.0000000000000000  0.0000000000000000
  2.4321229999999998  0.0000000000000000  5.2649575000000004
  0.0000000000000000  3.0163940000000000  0.0000000000000000
  2.4321229999999998  3.0163940000000000  5.2649575000000004
  2.4585601770099998  1.5081970000000000  2.3725162084800004
  4.8378088229899996  1.5081970000000000  7.6374737084800000
  2.4056858229899998  4.5245910000000000  8.1573987915200004
  0.0264371770100000  4.5245910000000000  2.8924412915200000
  2.7544133472220000  4.5245910000000000  0.9639294789300000
  2.1098326527779996  1.5081970000000000  9.5659855210700009
  4.5419556527779994  4.5245910000000000  6.2288869789300003
  0.3222903472220000  1.5081970000000000  4.3010280210700005
  3.8154513272019996  3.2551898474040004  7.0421649639549999
  1.0487946727980000  2.7775981525960001  3.4877500360450000
  3.4809176727979998  3.2551898474040004  1.7772074639550002
  3.8154513272019996  5.7939921525960001  7.0421649639549999
  1.3833283272019998  0.2387958474040000  8.7527075360450013
  3.7281916182079997  1.5081970000000000  9.4679941320799994
  1.3833283272019998  2.7775981525960001  8.7527075360450013
  1.0487946727980000  0.2387958474040000  3.4877500360450000
  1.1360543817919999  4.5245910000000000  1.0619208679200001
  3.5681773817919997  1.5081970000000000  4.2030366320800008
  3.9131934863259996  4.5245910000000000  4.7184233217550009
  1.2960686182079999  4.5245910000000000  6.3268783679200009
  3.3831755136739998  4.5245910000000000  9.9833808217550004
  1.4810704863259998  1.5081970000000000  0.5465341782450001
  0.9510525136739999  1.5081970000000000  5.8114916782450008
  3.4809176727979998  5.7939921525960001  1.7772074639550002
