Ac Au
 1.0000000000000000
     6.9228670000000001   -0.0000010000000000   -0.0000090000000000
    -3.4614340000000001    5.9953789999999998    0.0000080000000000
    -0.0000060000000000    0.0000040000000000    4.6897349999999998
 Ac  Au 
   2   6
Cartesian
 -0.0000013719060000  3.9969239984629996  3.5173082730649998
  3.4614249104719996  1.9984639969160001  1.1724257269429998
 -0.0000016457589999  1.7477617495629998  1.1724347703130000
  1.9478263162999996  5.1214988438570002  1.1724342075899998
 -1.9478301705290002  5.1214994065720001  1.1724298926270000
  3.4614321071750003  4.2476142550699993  3.5173132988839999
  1.5136076065489998  0.8738831561540000  3.5173138616059996
  5.4092571705470007  0.8738825934159999  3.5172900381679999
