Mn Ge
 1.0000000000000000
     4.7250030000000001    0.0000000000000000    0.0000000000000000
     0.0000000000000000    4.7250030000000001    0.0000000000000000
     0.0000000000000000    0.0000000000000000    4.7250030000000001
 Mn  Ge 
   4   4
Cartesian
  3.0103561113360002  0.6478546113360001  1.7146468886640001
  0.6478546113360001  1.7146468886640001  3.0103561113360002
  1.7146468886640001  3.0103561113360002  0.6478546113360001
  4.0771483886639999  4.0771483886639999  4.0771483886639999
  1.6176662020889998  3.9801677020890001  3.1073367979110000
  3.9801677020890001  3.1073367979110000  1.6176662020889998
  3.1073367979110000  1.6176662020889998  3.9801677020890001
  0.7448352979110000  0.7448352979110000  0.7448352979110000
