Li Hf Rh
 1.0000000000000000
     0.0000000000000000    3.0902370000000001    3.0902370000000001
     3.0902370000000001    0.0000000000000000    3.0902370000000001
     3.0902370000000001    3.0902370000000001    0.0000000000000000
 Li  Hf  Rh 
   1   1   2
Cartesian
  4.6353555000000002  4.6353555000000002  4.6353555000000002
  1.5451185000000001  1.5451185000000001  1.5451185000000001
  0.0000000000000000  0.0000000000000000  0.0000000000000000
  3.0902370000000001  3.0902370000000001  3.0902370000000001
