Tm Ni Ge
 1.0000000000000000
     4.1603269999999997    0.0000000000000000    0.0000000000000000
     0.0000000000000000    6.7696430000000003    0.0000000000000000
     0.0000000000000000    0.0000000000000000    7.1814570000000000
 Tm  Ni  Ge 
   4   4   4
Cartesian
  1.0400817499999999  3.4325542527930004  2.0990752479870003
  1.0400817499999999  0.0477327527930000  1.4916532520129999
  3.1202452500000000  6.7219102472070000  5.6898037479869998
  3.1202452500000000  3.3370887472070003  5.0823817520130001
  3.1202452500000000  1.2972463791610001  3.0076588247129998
  1.0400817499999999  5.4723966208390005  4.1737981752869997
  3.1202452500000000  4.6820678791610000  0.5830696752870000
  1.0400817499999999  2.0875751208390003  6.5983873247130003
  3.1202452500000000  2.0365252429759999  0.6412179326160000
  1.0400817499999999  1.3482962570240002  4.2319464326160006
  1.0400817499999999  4.7331177570239999  6.5402390673839994
  3.1202452500000000  5.4213467429760005  2.9495105673840003
