Fe S 
 1.0000000000000000
     3.3776980000000001    0.0000000000000000    0.0000000000000000
     0.0000000000000000    4.4256250000000001    0.0000000000000000
     0.0000000000000000    0.0000000000000000    5.3965280000000000
 Fe  S  
   2   4
Cartesian
  1.6888490000000000  2.2128125000000001  2.6982640000000000
  0.0000000000000000  0.0000000000000000  0.0000000000000000
  1.6888490000000000  1.3258862706250001  4.7391499416800000
  1.6888490000000000  3.0997387293750003  0.6573780583200001
  0.0000000000000000  0.8869262293750000  2.0408859416800000
  0.0000000000000000  3.5386987706249999  3.3556420583200000
