Mg Sc Rh
 1.0000000000000000
     0.0000170000000000    3.1524510000000001    3.1524510000000001
     3.1524510000000001    0.0000170000000000    3.1524510000000001
     3.1524510000000001    3.1524510000000001    0.0000170000000000
 Mg  Sc  Rh 
   1   1   2
Cartesian
  1.5762234450810000  1.5762234450810000  1.5762234450810000
  4.7286892500000004  4.7286892500000004  4.7286892500000004
  6.3049126950809997  6.3049126950809997  6.3049126950809997
  3.1524721098380000  3.1524721098380000  3.1524721098380000
