Tm Ga Ni
 1.0000000000000000
     4.0742170000000000   -0.0082320000000000    0.0000000000000000
    -2.0469860000000000    4.9265439999999998    0.0000000000000000
     0.0000000000000000    0.0000000000000000    6.5581350000000000
 Tm  Ga  Ni 
   2   4   2
Cartesian
 -0.0067610021830002  4.1987341950959998  1.6395337500000000
  2.0338749956800002  0.7190070419840000  4.9186012500000000
  0.0009819473060000  1.3999062511839999  0.3535621741200000
  2.0263446486309995  3.5184793917840000  6.2043301748849995
  2.0263446486309995  3.5184793917840000  3.6328723251150001
  0.0009819473060000  1.3999062511839999  2.9255053258800001
  2.0389279056200000  2.0586006468160001  1.6395337500000000
 -0.0117690440050001  2.8601299036240002  4.9186012500000000
