Pr Ni Ge
 1.0000000000000000
     3.8654199999999999    0.0000000000000000   -1.4972829999999999
    -0.5799780000000000    3.8216619999999999   -1.4972829999999999
    -0.0081280000000000   -0.0094560000000000    5.7171820000000002
 Pr  Ni  Ge 
   1   2   2
Cartesian
  0.0000000000000000  0.0000000000000000  0.0000000000000000
  2.7500064999999996  0.9506875000000000  1.3613080000000002
  0.5273075000000000  2.8615184999999999  1.3613080000000002
  2.0823872786400002  2.4222552325440003 -0.3622257293939999
  1.1949267213599999  1.3899507674560001  3.0848417293940003
