Ca Mo N 
 1.0000000000000000
    -1.9326749999999999   -2.9786679999999999   -1.0546500000000001
    -5.4271060000000002    2.9698660000000001    1.5574720000000000
     1.9148350000000001    2.9546440000000000   -5.3493279999999999
 Ca  Mo  N  
   2   2   6
Cartesian
 -2.5293052712080000 -0.1452396533460000 -1.4593018742540000
 -2.9156407287920003  3.0910816533460004 -3.3872041257459999
 -1.0710383096730001 -0.0462091374760000 -4.4113110205560000
 -4.3739076903270000  2.9920511374759999 -0.4351949794439999
  0.5288385200160000  0.9877431679900001 -3.7588209599819997
 -2.8836870119040001  2.1981381466560004 -0.9237888209460000
 -4.8583838819199991  2.6128811109780004 -4.9809964212560001
 -0.5865621180800000  0.3329608890220000  0.1344904212560000
 -5.9737845200159994  1.9580988320100003 -1.0876850400180003
 -2.5612589880960002  0.7477038533440001 -3.9227171790539996
