Sr Li P 
 1.0000000000000000
     4.1372799999999996    0.0071830000000000    7.1070719999999996
     1.9234810000000000    3.6629700000000001    7.1070719999999996
     0.0118600000000000    0.0071830000000000    8.2235890000000005
 Sr  Li  P  
   1   4   2
Cartesian
  0.0000000000000000  0.0000000000000000  0.0000000000000000
  2.6101886118089999  1.5806256555440001  9.6443883376570003
  0.8378698824749998  0.5073804345999999  3.0958462106749995
  3.4624323881909995  2.0967103444560000 12.7933446623429994
  5.2347511175250006  3.1699555654000005 19.3418867893249988
  4.5819382874040002  2.7746382680639998 16.9298080540919997
  1.4906827125960000  0.9026977319360001  5.5079249459080000
