Ba Sn O 
 1.0000000000000000
     3.9984540000000002    0.0000000000000000   -1.1900299999999999
    -0.3541790000000000    3.9827370000000002   -1.1900299999999999
     0.0021130000000000    0.0023110000000000    7.3194390000000000
 Ba  Sn  O  
   2   1   4
Cartesian
  2.3549901297730003  2.5737103244950004  0.6003482313240001
  1.2913978702270004  1.4113376755050000  4.3390307686759995
  0.0000000000000000  0.0000000000000000  0.0000000000000000
  3.0820962392230000  3.3683471053130001  3.0433738534090002
  0.5642917607770001  0.6167008946870000  1.8960051465910002
  1.9992270000000001  0.0000000000000000 -0.5950150000000000
 -0.1770895000000000  1.9913685000000001 -0.5950150000000000
