Er Ti Ge
 1.0000000000000000
     4.0101750000000003    0.0000000000000000    0.0000000000000000
     0.0000000000000000    4.0101750000000003    0.0000000000000000
     0.0000000000000000    0.0000000000000000    7.6269939999999998
 Er  Ti  Ge 
   2   2   2
Cartesian
  3.0076312500000002  3.0076312500000002  2.6589607832500000
  1.0025437500000001  1.0025437500000001  4.9680332167500003
  1.0025437500000001  3.0076312500000002  0.0000000000000000
  3.0076312500000002  1.0025437500000001  0.0000000000000000
  1.0025437500000001  1.0025437500000001  1.8774913510159998
  3.0076312500000002  3.0076312500000002  5.7495026489839995
