Nd Sn Au
 1.0000000000000000
     0.0000000000000000    3.5626380000000002    3.5626380000000002
     3.5626380000000002    0.0000000000000000    3.5626380000000002
     3.5626380000000002    3.5626380000000002    0.0000000000000000
 Nd  Sn  Au 
   1   1   2
Cartesian
  1.7813190000000001  1.7813190000000001  1.7813190000000001
  5.3439641252760008  5.3439641252760008  5.3439641252760008
  3.5626451252760005  3.5626451252760005  3.5626451252760005
  0.0000000000000000  0.0000000000000000  0.0000000000000000
