Na H 
 1.0000000000000000
     2.9227580000000000    0.0000000000000000    1.6874560000000001
     0.9742520000000000    2.7556020000000001    1.6874560000000001
     0.0000000000000000    0.0000000000000000    3.3749099999999999
 Na  H  
   1   1
Cartesian
  0.0000000000000000  0.0000000000000000  0.0000000000000000
  1.9485049999999999  1.3778010000000001  3.3749110000000000
