Na In Hg
 1.0000000000000000
     0.0000000000000000    3.6366459999999998    3.6366459999999998
     3.6366459999999998    0.0000000000000000    3.6366459999999998
     3.6366459999999998    3.6366459999999998    0.0000000000000000
 Na  In  Hg 
   1   1   2
Cartesian
  5.4549762732920000  5.4549762732920000  5.4549762732920000
  1.8183229999999999  1.8183229999999999  1.8183229999999999
  0.0000000000000000  0.0000000000000000  0.0000000000000000
  3.6366459999999998  3.6366459999999998  3.6366459999999998
