Sr Mg Sb
 1.0000000000000000
     4.7285519999999996    0.0000000000000000    0.0000000000000000
    -2.3642759999999998    4.0950460000000000    0.0000000000000000
     0.0000000000000000    0.0000000000000000    7.8488189999999998
 Sr  Mg  Sb 
   1   2   2
Cartesian
  0.0000000000000000  0.0000000000000000  0.0000000000000000
  2.3642783642759997  1.3650139683180000  2.9176885797840000
 -0.0000023642760001  2.7300320316820001  4.9311304202160002
 -0.0000023642760001  2.7300320316820001  2.0237394909600002
  2.3642783642759997  1.3650139683180000  5.8250795090400000
