Re P 
 1.0000000000000000
     2.9475470000000001    0.0000000000000000    0.0000000000000000
     0.0000000000000000    5.5385090000000003    0.0000000000000000
     0.0000000000000000    0.0000000000000000   10.0931400000000000
 Re  P  
   8   4
Cartesian
  2.2106602500000001  0.8192008661900001  2.1461649170400001
  0.7368867500000000  4.7193081338100002  7.9469750829599999
  2.2106602500000001  3.5884553661900003  2.9004050829599999
  0.7368867500000000  1.9500536338100003  7.1927349170400001
  0.7368867500000000  1.8006800460800003  4.3946238079799995
  2.2106602500000001  3.7378289539200003  5.6985161920200005
  0.7368867500000000  4.5699345460799998  0.6519461920199999
  2.2106602500000001  0.9685744539200001  9.4411938079799995
  0.7368867500000000  4.9966489719850005  4.0162218962400003
  2.2106602500000001  0.5418600280150001  6.0769181037599997
  0.7368867500000000  2.2273944719850003  1.0303481037600000
  2.2106602500000001  3.3111145280150001  9.0627918962400003
