Rh
 1.0000000000000000
     3.8497900000000000    0.0000000000000000    0.0000000000000000
     0.0000000000000000    3.8497900000000000    0.0000000000000000
     0.0000000000000000    0.0000000000000000    3.8497900000000000
 Rh 
   4
Cartesian
  0.0000000000000000  0.0000000000000000  0.0000000000000000
  0.0000000000000000  1.9248950000000000  1.9248950000000000
  1.9248950000000000  0.0000000000000000  1.9248950000000000
  1.9248950000000000  1.9248950000000000  0.0000000000000000
