Ta Be
 1.0000000000000000
     6.0357209999999997    0.0000000000000000    0.0000000000000000
     0.0000000000000000    6.0357209999999997    0.0000000000000000
     0.0000000000000000    0.0000000000000000    4.9231040000000004
 Ta  Be 
   8   4
Cartesian
  0.9700490076780000  3.9879095076779998  0.0000000000000000
  2.0478114923219999  0.9700490076780000  0.0000000000000000
  0.9700490076780000  2.0478114923219999  2.4615520000000002
  2.0478114923219999  5.0656719923219997  2.4615520000000002
  3.9879095076779998  0.9700490076780000  2.4615520000000002
  5.0656719923219997  3.9879095076779998  2.4615520000000002
  3.9879095076779998  5.0656719923219997  0.0000000000000000
  5.0656719923219997  2.0478114923219999  0.0000000000000000
  0.0000000000000000  0.0000000000000000  1.2307760000000001
  0.0000000000000000  0.0000000000000000  3.6923280000000003
  3.0178604999999998  3.0178604999999998  3.6923280000000003
  3.0178604999999998  3.0178604999999998  1.2307760000000001
