Be
 1.0000000000000000
     2.2632880000000002    0.0000000000000000    0.0000000000000000
    -1.1316430000000000    1.9600640000000000    0.0000000000000000
     0.0000000000000000    0.0000000000000000    3.5730050000000002
 Be 
   2
Cartesian
 -0.0000004649769999  1.3067099866880001  2.6797537500000002
  1.1316454649770002  0.6533540133119999  0.8932512500000001
