Y  Co Si
 1.0000000000000000
     3.8830870000000002    0.0000000000000000    0.0000000000000000
     0.0000000000000000    3.8830870000000002    0.0000000000000000
     0.0000000000000000    0.0000000000000000    9.7692150000000009
 Y   Co  Si 
   2   4   4
Cartesian
  0.0000000000000000  0.0000000000000000  0.0000000000000000
  1.9415435000000001  1.9415435000000001  4.8846075000000004
  1.9415435000000001  0.0000000000000000  7.3269112500000002
  0.0000000000000000  1.9415435000000001  7.3269112500000002
  0.0000000000000000  1.9415435000000001  2.4423037500000002
  1.9415435000000001  0.0000000000000000  2.4423037500000002
  1.9415435000000001  1.9415435000000001  1.2565945870199999
  1.9415435000000001  1.9415435000000001  8.5126204129800005
  0.0000000000000000  0.0000000000000000  6.1412020870199999
  0.0000000000000000  0.0000000000000000  3.6280129129800001
