La P  O 
 1.0000000000000000
     7.0779699999999997    0.0000000000000000    0.0000000000000000
     0.0000000000000000    6.5048950000000003    0.0293010000000000
     0.0000000000000000    4.8959159999999997    6.6810239999999999
 La  P   O  
   4   4  16
Cartesian
  2.4097302763499999  2.2474894993199999  1.4598814910039999
  5.9487152763499997  6.7053635006799999  1.9099315089960001
  4.6682397236500002  9.1533215006800006  5.2504435089959998
  1.1292547236499999  4.6954474993200002  4.8003934910039998
  2.3819280101900002  5.4591495503820004  1.3260996039780000
  5.9209130101899996  3.4937034496180002  2.0437133960220000
  4.6960419898099994  5.9416614496180005  5.3842253960219999
  1.1570569898100000  7.9071075503819994  4.6666116039779997
  2.7794975850900001  4.4937820483269997  0.1962852393210000
  6.3184825850899990  4.4590709516729996  3.1735277606790002
  4.2984724149100000  6.9070289516729995  6.5140397606789993
  0.7594874149099999  6.9417400483270004  3.5367972393210003
  1.1991284434900000  6.3257462904630009  0.8244940571010000
  4.7381134434899996  2.6271067095370002  2.5453189428990002
  5.8788415565099994  5.0750647095370001  5.8858309428989992
  2.3398565565100000  8.7737042904629998  4.1650060571010004
  1.5198312641900000  6.9893982754680000  5.8334977536840000
  5.0588162641899999  6.8593707245320008  4.2173392463160004
  5.5581387358100001  4.4114127245320001  0.8768272463160000
  2.0191537358099998  4.5414402754680001  2.4929857536840001
  0.0507348889600000  8.9039685149010008  5.0373719356229998
  3.5897198889599995  4.9448004850989999  5.0134650643769998
  7.0272351110400004  2.4968424850990001  1.6729530643769999
  3.4882501110399997  6.4560105149010001  1.6968599356230001
