Ba Pd O 
 1.0000000000000000
     3.7405290000000000    0.0000000000000000   -1.0289860000000000
    -0.3193320000000000    3.9349539999999998   -1.1608240000000001
    -0.0148800000000000   -0.0114040000000000    7.2591140000000003
 Ba  Pd  O  
   2   1   3
Cartesian
  2.2033403668500000  2.5358726809359999  0.6962981103339998
  1.2029766331500000  1.3876773190640002  4.3730058896660005
  0.0000000000000000  0.0000000000000000  0.0000000000000000
  2.8833065281649999  3.3202383932060000  3.1680842772440005
  0.5230104718349999  0.6033116067939999  1.9012197227560002
 -0.1596660000000000  1.9674769999999999 -0.5804120000000000
