La Mg
 1.0000000000000000
     5.2808799999999998    0.0000000000000000    0.0000000000000000
     0.0000000000000000    5.2808799999999998    0.0000000000000000
     0.0000000000000000    0.0000000000000000    7.4905419999999996
 La  Mg 
   2   6
Cartesian
  0.0000000000000000  0.0000000000000000  0.0000000000000000
  2.6404399999999999  2.6404399999999999  3.7452709999999998
  2.6404399999999999  2.6404399999999999  0.0000000000000000
  2.6404399999999999  0.0000000000000000  1.8726354999999999
  0.0000000000000000  2.6404399999999999  1.8726354999999999
  0.0000000000000000  0.0000000000000000  3.7452709999999998
  0.0000000000000000  2.6404399999999999  5.6179065000000001
  2.6404399999999999  0.0000000000000000  5.6179065000000001
