Ta O  F 
 1.0000000000000000
     3.2237900000000002    5.3645560000000003    0.0000000000000000
    -3.2237900000000002    5.3645560000000003    0.0000000000000000
     0.0000000000000000    0.0000000000000000    3.8479260000000002
 Ta  O   F  
   3   7   1
Cartesian
  0.0000000000000000  0.0000000000000000  0.0000000000000000
  0.0000000000000000  3.2420372312640002  0.0000000000000000
  0.0000000000000002  7.4870747687360009  0.0000000000000000
 -1.9908096052299999  3.7939803044359999  0.0000000000000000
 -1.9908096052300002  6.9351316955640003  0.0000000000000000
  0.0000000000000000  0.0000000000000000  1.9239630000000001
  0.0000000000000001  3.3807110038640005  1.9239630000000001
 -0.0000000000000000  7.3484009961360011  1.9239630000000001
  1.9908096052300002  6.9351316955640003  0.0000000000000000
  1.9908096052299997  3.7939803044359999  0.0000000000000000
  0.0000000000000000  5.3645560000000003  0.0000000000000000
