Pr Te
 1.0000000000000000
     3.9278499999999998    0.0000000000000000    2.2677440000000000
     1.3092839999999999    3.7032120000000002    2.2677440000000000
     0.0000000000000000    0.0000000000000000    4.5354890000000001
 Pr  Te 
   1   1
Cartesian
  0.0000000000000000  0.0000000000000000  0.0000000000000000
  2.6185669999999996  1.8516060000000001  4.5354884999999996
