Al Tc
 1.0000000000000000
     7.6304270000000001    0.0000000000000000    0.0000000000000000
     0.0000000000000000    6.6059820000000000    0.0000000000000000
     0.0000000000000000    0.0000000000000000    9.0300110000000000
 Al  Tc 
  24   4
Cartesian
  2.4716860659750002  0.0000000000000000  0.0000000000000000
  5.1587409340250003  0.0000000000000000  4.5150055000000000
  5.1587409340250003  0.0000000000000000  0.0000000000000000
  2.4716860659750002  0.0000000000000000  4.5150055000000000
  0.0000000000000000  0.8808086099700001  5.4211761338609996
  0.0000000000000000  5.7251733900300001  0.9061706338609999
  0.0000000000000000  0.8808086099700001  8.1238403661389995
  0.0000000000000000  5.7251733900300001  3.6088348661390000
  1.3796193537349999  1.3845807972899999  2.2575027500000000
  6.2508076462649997  5.2214012027100001  6.7725082499999996
  6.2508076462649997  1.3845807972899999  2.2575027500000000
  1.3796193537349999  5.2214012027100001  6.7725082499999996
  6.2868995659750002  3.3029910000000000  0.0000000000000000
  1.3435274340250001  3.3029910000000000  4.5150055000000000
  1.3435274340250001  3.3029910000000000  0.0000000000000000
  6.2868995659750002  3.3029910000000000  4.5150055000000000
  3.8152135000000000  4.1837996099700003  5.4211761338609996
  3.8152135000000000  2.4221823900300001  0.9061706338609999
  3.8152135000000000  4.1837996099700003  8.1238403661389995
  3.8152135000000000  2.4221823900300001  3.6088348661390000
  5.1948328537349999  4.6875717972899995  2.2575027500000000
  2.4355941462650001  1.9184102027100001  6.7725082499999996
  2.4355941462650001  4.6875717972899995  2.2575027500000000
  5.1948328537349999  1.9184102027100001  6.7725082499999996
  0.0000000000000000  3.5947904369039998  2.2575027500000000
  0.0000000000000000  3.0111915630960002  6.7725082499999996
  3.8152135000000000  0.2917994369040000  2.2575027500000000
  3.8152135000000000  6.3141825630959998  6.7725082499999996
