Zn Re O 
 1.0000000000000000
     2.8574760000000001   -4.9491630000000004   -0.0000630000000000
     2.8574649999999999    4.9491550000000002    0.0000350000000000
    -0.0000310000000000    0.0000650000000000    6.3851290000000001
 Zn  Re  O  
   1   2   8
Cartesian
  2.8574311425969996  4.9492150507149999  6.3851512297070006
  2.8574829122619998  1.6497172314430000  1.7742828241910000
  2.8574242302729997 -1.6496651805979998  4.6108181757739999
  2.8574297407070004 -1.6496381838730001  2.8872547647430000
  2.8574802595190003  1.6497149799890001  3.4977951544210004
  2.7485050379970004 -3.2904983562509997  5.1901379884290000
  1.3820659287000001  0.9237113672520000  1.1949537257160001
  4.2239405643619996  0.7350256514329994  1.1949443191810001
  2.9664221068829999  3.2904761697480005  1.1949693958320000
  4.3328897906289994 -0.9236147737190001  5.1901792000970000
  1.4909065711410001 -0.7349488544490000  5.1901822218390006
