Ta C 
 1.0000000000000000
     4.4808230000000000    0.0000000000000000    0.0000000000000000
     0.0000000000000000    4.4808230000000000    0.0000000000000000
     0.0000000000000000    0.0000000000000000    4.4808230000000000
 Ta  C  
   4   4
Cartesian
  0.0000000000000000  0.0000000000000000  0.0000000000000000
  0.0000000000000000  2.2404115000000000  2.2404115000000000
  2.2404115000000000  0.0000000000000000  2.2404115000000000
  2.2404115000000000  2.2404115000000000  0.0000000000000000
  2.2404115000000000  0.0000000000000000  0.0000000000000000
  2.2404115000000000  2.2404115000000000  2.2404115000000000
  0.0000000000000000  0.0000000000000000  2.2404115000000000
  0.0000000000000000  2.2404115000000000  0.0000000000000000
