Sr Cu P 
 1.0000000000000000
     4.1005719999999997    0.0000000000000000    0.0000000000000000
    -2.0502870000000000    3.5512000000000001    0.0000000000000000
     0.0000000000000000    0.0000000000000000    8.5257410000000000
 Sr  Cu  P  
   2   2   2
Cartesian
  0.0000000000000000  0.0000000000000000  0.0000000000000000
  0.0000000000000000  0.0000000000000000  4.2628705000000000
  2.0502877169530001  1.1837321495999999  2.1314352500000000
 -0.0000027169530002  2.3674678504000002  6.3943057500000000
  2.0502877169530001  1.1837321495999999  6.3943057500000000
 -0.0000027169530002  2.3674678504000002  2.1314352500000000
