Hf Co Sn
 1.0000000000000000
     6.2569960000000000    0.0000000000000000    0.0000000000000000
     0.0000000000000000    6.2569960000000000    0.0000000000000000
     0.0000000000000000    0.0000000000000000    6.2569960000000000
 Hf  Co  Sn 
   4   8   4
Cartesian
  0.0000000000000000  3.1284980000000000  0.0000000000000000
  0.0000000000000000  0.0000000000000000  3.1284980000000000
  3.1284980000000000  3.1284980000000000  3.1284980000000000
  3.1284980000000000  0.0000000000000000  0.0000000000000000
  4.6927469999999998  1.5642490000000000  1.5642490000000000
  1.5642490000000000  4.6927469999999998  4.6927469999999998
  4.6927469999999998  4.6927469999999998  4.6927469999999998
  1.5642490000000000  1.5642490000000000  1.5642490000000000
  1.5642490000000000  1.5642490000000000  4.6927469999999998
  4.6927469999999998  4.6927469999999998  1.5642490000000000
  1.5642490000000000  4.6927469999999998  1.5642490000000000
  4.6927469999999998  1.5642490000000000  4.6927469999999998
  0.0000000000000000  0.0000000000000000  0.0000000000000000
  0.0000000000000000  3.1284980000000000  3.1284980000000000
  3.1284980000000000  0.0000000000000000  3.1284980000000000
  3.1284980000000000  3.1284980000000000  0.0000000000000000
