Pr Si Ni
 1.0000000000000000
     3.7845119999999999    0.0000000000000000   -1.4664170000000001
    -0.5682050000000000    3.7416140000000002   -1.4664170000000001
    -0.0100100000000000   -0.0116450000000000    5.5908870000000004
 Pr  Si  Ni 
   1   2   2
Cartesian
  0.0000000000000000  0.0000000000000000  0.0000000000000000
  2.0326555627470002  2.3646413171190002 -0.3708614387730002
  1.1736414372530000  1.3653276828810001  3.0289144387730000
  2.6913277499999997  0.9295810000000001  1.3290265000000001
  0.5149692499999999  2.8003880000000003  1.3290265000000001
