Hf Zn N 
 1.0000000000000000
     2.8053469999999998   -1.6196680000000001    0.0000000000000000
     0.0000000000000000    3.2393369999999999    0.0000000000000000
     0.0000000000000000    0.0000000000000000    5.2793460000000003
 Hf  Zn  N  
   1   1   2
Cartesian
  1.8702322684489998 -0.0000012863350002  4.1850589991579996
  0.0000000000000000  0.0000000000000000  1.8121196764620002
  0.0000000000000000  0.0000000000000000  5.1582958755660000
  0.9351147315509999  1.6196702863350001  2.8490413036680002
