Sc Cu O 
 1.0000000000000000
     3.2213829999999999    0.0000000000000000    0.0000000000000000
    -1.6106910000000001    2.7897989999999999    0.0000000000000000
     0.0000000000000000    0.0000000000000000   11.3801030000000001
 Sc  Cu  O  
   2   2   4
Cartesian
  0.0000000000000000  0.0000000000000000  0.0000000000000000
  0.0000000000000000  0.0000000000000000  5.6900515000000000
  1.6106932773580001  0.9299320700670000  8.5350772500000005
 -0.0000012773580002  1.8598669299330000  2.8450257500000000
 -0.0000012773580002  1.8598669299330000  4.6696773247110004
  1.6106932773580001  0.9299320700670000 10.3597288247109987
 -0.0000012773580002  1.8598669299330000  1.0203741752890001
  1.6106932773580001  0.9299320700670000  6.7104256752890006
