Ta Tc
 1.0000000000000000
     3.1913689999999999    0.0000000000000000    0.0000000000000000
     0.0000000000000000    3.1913689999999999    0.0000000000000000
     0.0000000000000000    0.0000000000000000    3.1913689999999999
 Ta  Tc 
   1   1
Cartesian
  0.0000000000000000  0.0000000000000000  0.0000000000000000
  1.5956845000000000  1.5956845000000000  1.5956845000000000
