Ba Ag O 
 1.0000000000000000
     0.0000000000000000    0.0000000000000000    3.7022450000000000
     4.2810720000000000    0.0000000000000000    0.0000000000000000
     0.0000000000000000    4.2810720000000000    0.0000000000000000
 Ba  Ag  O  
   1   1   2
Cartesian
  2.1405360000000000  2.1405360000000000  1.8511225000000000
  0.0000000000000000  0.0000000000000000  0.0000000000000000
  0.0000000000000000  2.1405360000000000  0.0000000000000000
  2.1405360000000000  0.0000000000000000  0.0000000000000000
