Pm Mg Ag
 1.0000000000000000
     0.0000000000000000    3.5349360000000001    3.5349360000000001
     3.5349360000000001    0.0000000000000000    3.5349360000000001
     3.5349360000000001    3.5349360000000001    0.0000000000000000
 Pm  Mg  Ag 
   1   1   2
Cartesian
  5.3023969301280003  5.3023969301280003  5.3023969301280003
  1.7674609301280000  1.7674609301280000  1.7674609301280000
  3.5349360000000001  3.5349360000000001  3.5349360000000001
  0.0000000000000000  0.0000000000000000  0.0000000000000000
