Sc Al Zn
 1.0000000000000000
     0.0000000000000000    3.3621259999999999    3.3621259999999999
     3.3621259999999999    0.0000000000000000    3.3621259999999999
     3.3621259999999999    3.3621259999999999    0.0000000000000000
 Sc  Al  Zn 
   2   1   1
Cartesian
  0.0000000000000000  0.0000000000000000  0.0000000000000000
  3.3621259999999999  3.3621259999999999  3.3621259999999999
  1.6810697242519999  1.6810697242519999  1.6810697242519999
  5.0431889999999999  5.0431889999999999  5.0431889999999999
