Sc Al Co
 1.0000000000000000
    -0.0001800000000000    2.9621770000000001    2.9623010000000001
     2.9621700000000000   -0.0001740000000000    2.9622940000000000
     2.9621919999999999    2.9621900000000001   -0.0001810000000000
 Sc  Al  Co 
   1   1   2
Cartesian
  4.4431661221700001  4.4431536357260004  4.4433193859630009
  1.4810721618000000  1.4810275141300000  1.4810798006590000
  2.9621206190439997  2.9621468556429997  2.9622751325049999
  5.9241049833600004  5.9241633808840000  5.9243666051060000
