Li Al Pt
 1.0000000000000000
     6.0894870000000001    0.0000000000000000    0.0000000000000000
     0.0000000000000000    6.0894870000000001    0.0000000000000000
     0.0000000000000000    0.0000000000000000    6.0894870000000001
 Li  Al  Pt 
   4   8   4
Cartesian
  0.0000000000000000  0.0000000000000000  0.0000000000000000
  0.0000000000000000  3.0447435000000000  3.0447435000000000
  3.0447435000000000  0.0000000000000000  3.0447435000000000
  3.0447435000000000  3.0447435000000000  0.0000000000000000
  1.5223717500000000  4.5671152500000005  4.5671152500000005
  4.5671152500000005  1.5223717500000000  1.5223717500000000
  1.5223717500000000  1.5223717500000000  1.5223717500000000
  4.5671152500000005  4.5671152500000005  4.5671152500000005
  4.5671152500000005  4.5671152500000005  1.5223717500000000
  1.5223717500000000  1.5223717500000000  4.5671152500000005
  4.5671152500000005  1.5223717500000000  4.5671152500000005
  1.5223717500000000  4.5671152500000005  1.5223717500000000
  0.0000000000000000  3.0447435000000000  0.0000000000000000
  0.0000000000000000  0.0000000000000000  3.0447435000000000
  3.0447435000000000  3.0447435000000000  3.0447435000000000
  3.0447435000000000  0.0000000000000000  0.0000000000000000
