Pb Br
 1.0000000000000000
     4.5017779999999998    0.0000000000000000    0.0000000000000000
     0.0000000000000000    7.7838620000000001    0.0000000000000000
     0.0000000000000000    0.0000000000000000   14.5112290000000002
 Pb  Br 
   4   8
Cartesian
  1.1254445000000000  5.8372504394539995 14.5105469722370000
  3.3763334999999999  1.9466115605459999  0.0006820277630000
  1.1254445000000000  1.9453194394540001  7.2562965277630003
  3.3763334999999999  5.8385425605460002  7.2549324722369999
  1.1254445000000000  3.2421964711360003  1.6624354166980000
  3.3763334999999999  4.5416655288639998 12.8487935833019993
  1.1254445000000000  7.1341274711359999  5.5931790833020001
  3.3763334999999999  0.6497345288640001  8.9180499166980010
  3.3763334999999999  3.2401337477059999  5.5946302062019999
  1.1254445000000000  4.5437282522939997  8.9165987937980002
  3.3763334999999999  7.1320647477060009  1.6609842937979999
  1.1254445000000000  0.6517972522940001 12.8502447062020000
