Li Ca
 1.0000000000000000
     6.1932710000000002    0.0000000000000000    0.0000000000000000
    -3.0966350000000000    5.3635279999999996    0.0000000000000000
     0.0000000000000000    0.0000000000000000   10.1837149999999994
 Li  Ca 
   8   4
Cartesian
  1.5583323530790001  0.8996996408319999  7.6377862499999996
 -1.5383090079360000  4.4638283591679997  2.5459287499999999
 -0.0000029288909999  1.7994046451919998  2.5459287499999999
  3.0966389288909997  3.5641233548079994  7.6377862499999996
  4.6349450079359995  0.8996996408319999  7.6377862499999996
  0.0000000000000000  0.0000000000000000  0.0000000000000000
  1.5383036469210001  4.4638283591679997  2.5459287499999999
  0.0000000000000000  0.0000000000000000  5.0918574999999997
  3.0966387633020003  1.7878408788239999  0.6333252358500000
 -0.0000027633019998  3.5756871211759997  5.7251827358499989
 -0.0000027633019998  3.5756871211759997  9.5503897641499993
  3.0966387633020003  1.7878408788239999  4.4585322641499996
