La Sb
 1.0000000000000000
     4.0186200000000003    0.0000000000000000    2.3201510000000001
     1.3395400000000000    3.7887909999999998    2.3201510000000001
    -0.0000000000000000   -0.0000000000000000    4.6403020000000001
 La  Sb 
   1   1
Cartesian
  0.0000000000000000  0.0000000000000000  0.0000000000000000
  2.6790799999999999  1.8943954999999999  4.6403020000000001
