Sm Mg Pt
 1.0000000000000000
     7.4465979999999998   -0.0000000000000000    0.0000000000000000
    -3.7233000000000001    6.4489429999999999    0.0000000000000000
     0.0000000000000000    0.0000000000000000    4.1146289999999999
 Sm  Mg  Pt 
   3   3   3
Cartesian
  2.1913991640719996  3.7956156878520000  0.0000000000000000
  3.0637984947280001  0.0000000000000000  0.0000000000000000
 -1.5318996588000000  2.6533273121479999  0.0000000000000000
 -2.8238735889000002  4.8910911863189996  2.0573144999999999
  0.8994259279660001  1.5578518136810000  2.0573144999999999
  5.6477456609340004  0.0000000000000000  2.0573144999999999
  0.0000000000000000  0.0000000000000000  0.0000000000000000
 -0.0000043899660003  4.2992974829810002  2.0573144999999999
  3.7233023899660003  2.1496455170190001  2.0573144999999999
