Li In Pd
 1.0000000000000000
     0.0000000000000000    3.2792569999999999    3.2792569999999999
     3.2792569999999999    0.0000000000000000    3.2792569999999999
     3.2792569999999999    3.2792569999999999    0.0000000000000000
 Li  In  Pd 
   1   2   1
Cartesian
  0.0000000000000000  0.0000000000000000  0.0000000000000000
  1.6396284999999999  1.6396284999999999  1.6396284999999999
  4.9188855000000000  4.9188855000000000  4.9188855000000000
  3.2792569999999999  3.2792569999999999  3.2792569999999999
