Hf Re Ir
 1.0000000000000000
     0.0000000000000000    3.2532850000000000    3.2532850000000000
     3.2532850000000000    0.0000000000000000    3.2532850000000000
     3.2532850000000000    3.2532850000000000    0.0000000000000000
 Hf  Re  Ir 
   2   1   1
Cartesian
  3.2532784934300003  3.2532784934300003  3.2532784934300003
  0.0000000000000000  0.0000000000000000  0.0000000000000000
  4.8799275000000000  4.8799275000000000  4.8799275000000000
  1.6266490065699999  1.6266490065699999  1.6266490065699999
