Th Cl
 1.0000000000000000
     5.9204600000000003    0.0001680000000000   -2.6291289999999998
    -1.1671000000000000    5.8038540000000003   -2.6291259999999999
    -0.0158600000000000   -0.0178030000000000    7.9425470000000002
 Th  Cl 
   2   8
Cartesian
  0.2987961834800001  2.1721662512330004  0.6709003490039999
  4.4387038165200003  3.6140527487670004  2.0133916509960001
  2.3462560372399999  1.9109923047450001  2.6574128951240006
  4.2862574759400003  0.1988506531630000  5.1419928278540006
  4.1786361295400010  3.6805300218890005 -3.0781399642350000
  0.4512425240600001  5.5873683468370006 -2.4577008278539996
  0.5588638704600000  2.1056889781110004  5.7624319642349997
  2.3912439627600004  3.8752266952550003  0.0268791048760004
  4.8459416009600007  1.3490737796040000  0.3065155078220004
 -0.1084416009599999  4.4371452203959993  2.3777764921780005
