Te F 
 1.0000000000000000
     5.2724390000000003    0.0000000000000000    0.0000000000000000
     0.0000000000000000    6.1909609999999997    0.0000000000000000
     0.0000000000000000    0.0000000000000000    9.3171230000000005
 Te  F  
   4  16
Cartesian
  0.7757497673870001  6.1781704745739994  5.7918218047360002
  1.8604697326130000  0.0127905254260000  1.1332603047360001
  3.4119692673870001  3.1082710254259998  3.5253011952639999
  4.4966892326130008  3.0826899745740000  8.1838626952640006
  3.7445863541410005  1.4457441675250000  8.7863451369360011
  0.3204746597370000  5.3382366047429999  0.4095434585880001
  2.9566941597370002  3.9482048952569997  8.9075795414119998
  2.1776702077310000  4.3586098909079993  2.3159013613720001
  0.7880029156230001  0.2514396900540000  2.6358047795770001
  1.8482165843770000  5.9395213099459996  7.2943662795770008
  3.4242224156229999  2.8440408099460002  6.6813182204229999
  2.3157448402630001  0.8527243952569999  5.0681049585880000
  0.4585492922690000  1.8323511090919999  6.9744628613720003
  4.4844360843770001  3.3469201900540000  2.0227567204230001
  4.9519643402630003  2.2427561047430000  4.2490180414120005
  1.5278526458590000  4.5412246675249994  5.1893393630640006
  3.0947687922690004  1.2631293909079999  2.3426601386280002
  4.1640721458590004  4.7452168324750001  4.1277836369359999
  4.8138897077310006  4.9278316090920002  7.0012216386280004
  1.1083668541410001  1.6497363324750001  0.5307778630640000
