Zn Mo
 1.0000000000000000
    -0.0002030000000000    3.8147760000000002    3.8122410000000002
     3.8141129999999999   -0.0000390000000000    3.8120799999999999
     3.8141460000000000    3.8146469999999999   -0.0000610000000000
 Zn  Mo 
   6   1
Cartesian
  5.7210971856180004  5.7220116854430003  3.8121071244430005
  5.7210806857170002  3.8146801295010002  5.7181661880199997
  1.9070691858540001  1.9073196853530001 -0.0000304999390000
  1.9070526858870001 -0.0000194999610000  1.9060361879200001
  3.8139341286650001  5.7220761850560002  5.7182466875370004
 -0.0001014997970000  1.9073841852240001  1.9061166877590001
  7.6280559999999999  7.6293839999999999  7.6242600000000005
