Rb Pt Se
 1.0000000000000000
     3.6371880000000001   -0.0000000000000000    1.0860680000000000
     1.3071919999999999    6.1100789999999998    2.2556910000000001
    -0.0028640000000000    0.0200550000000000    6.6430069999999999
 Rb  Pt  Se 
   2   1   2
Cartesian
  1.1125072638000000  1.8554076577799998  2.9076827221000001
  3.8290087362000000  4.2747263422199993  7.0770832778999999
  0.0000000000000000  0.0000000000000000  0.0000000000000000
  2.8462986529599998  4.8108332798399998  3.7347149954400001
  2.0952173470400002  1.3193007201600000  6.2500510045600004
