Er Si Pd
 1.0000000000000000
     3.8349510000000002    0.0000000000000000   -1.4644790000000001
    -0.5592510000000001    3.7939530000000001   -1.4644790000000001
    -0.0008580000000000   -0.0009940000000000    5.7511780000000003
 Er  Si  Pd 
   1   2   2
Cartesian
  0.0000000000000000  0.0000000000000000  0.0000000000000000
  2.0161654000259999  2.3351456406739999 -0.4738114654820000
  1.2586765999740002  1.4578133593260001  3.2960314654820007
  2.7359715000000002  0.9479912500000001  1.4111100000000001
  0.5388705000000000  2.8449677499999999  1.4111100000000001
