Th P 
 1.0000000000000000
     7.0810860000000000    0.0000000000000000   -2.5035419999999999
    -3.5405430000000000    6.1324009999999998   -2.5035419999999999
     0.0000000000000000    0.0000000000000000    7.5106260000000002
 Th  P  
   6   8
Cartesian
 -0.4425678750000000  3.8327506250000001  0.6258855000000001
  1.7702715000000002  1.5331002499999999  3.1294275000000003
 -1.7702715000000000  4.5993007499999994  4.3811985000000000
  5.7533823750000002  0.7665501250000000  3.1294275000000003
  3.0979751250000005  2.2996503749999997 -0.6258854999999999
  2.2128393750000002  5.3658508749999996 -3.1294274999999994
  0.5535143304480000  0.9587150427359999  0.3913937421120001
  4.2037858391040004  3.0662004999999999 -3.3639192578879999
 -2.9870286695520001  5.1736859572639995  1.6431647421120004
  3.5405430000000000  0.0000000000000000  5.0846737736640000
 -1.2167571695520001  2.1074854572640001  2.8949357421120001
  3.5405430000000000  0.0000000000000000  1.3293607736640003
  0.6632428391040002  3.0662004999999999 -2.1121482578880002
  2.3237858304480001  4.0249155427360002  1.6431647421120001
