Li Br
 1.0000000000000000
     2.0699369999999999   -3.5852300000000001    0.0000000000000000
     2.0699369999999999    3.5852300000000001    0.0000000000000000
     0.0000000000000000    0.0000000000000000    6.6932910000000003
 Li  Br 
   2   2
Cartesian
  0.0000000000000000  0.0000000000000000  2.5225340456250001
  2.0699307901889998  1.1950754715899998  5.8691795456250002
  0.0000000000000000  0.0000000000000000  6.6807276927929999
  2.0699307901889998  1.1950754715899998  3.3340821927930002
