Cu Bi O 
 1.0000000000000000
     8.4369320000000005    0.0000000000000000    0.0000000000000000
     0.0000000000000000    8.4369320000000005    0.0000000000000000
     0.0000000000000000    0.0000000000000000    5.8676729999999999
 Cu  Bi  O  
   4   8  16
Cartesian
  0.0000000000000000  4.2184660000000003  0.4570917267000000
  4.2184660000000003  0.0000000000000000  2.4767447732999996
  4.2184660000000003  0.0000000000000000  5.4105812733000000
  0.0000000000000000  4.2184660000000003  3.3909282266999998
  5.6319895872800005  5.6319895872800005  1.4669182500000000
  1.4135235872800000  7.0234084127200003  1.4669182500000000
  7.0234084127200003  1.4135235872800000  1.4669182500000000
  2.8049424127200000  2.8049424127200000  1.4669182500000000
  7.0234084127200003  7.0234084127200003  4.4007547499999999
  2.8049424127200000  5.6319895872800005  4.4007547499999999
  5.6319895872800005  2.8049424127200000  4.4007547499999999
  1.4135235872800000  1.4135235872800000  4.4007547499999999
  5.0849304794680004  6.7114697258840010  5.3348354825429993
  2.4930037258840003  7.5704675205320004  5.3348354825429993
  5.9439282741159998  0.8664644794680001  5.3348354825429993
  3.3520015205320002  1.7254622741160002  5.3348354825429993
  7.5704675205320004  2.4930037258840003  3.4666740174570001
  0.8664644794680001  5.9439282741159998  3.4666740174570001
  6.7114697258840010  5.0849304794680004  3.4666740174570001
  1.7254622741160002  3.3520015205320002  3.4666740174570001
  7.5704675205320004  5.9439282741159998  0.5328375174570000
  1.7254622741160002  5.0849304794680004  0.5328375174570000
  6.7114697258840010  3.3520015205320002  0.5328375174570000
  0.8664644794680001  2.4930037258840003  0.5328375174570000
  5.0849304794680004  1.7254622741160002  2.4009989825430003
  3.3520015205320002  6.7114697258840010  2.4009989825430003
  5.9439282741159998  7.5704675205320004  2.4009989825430003
  2.4930037258840003  0.8664644794680001  2.4009989825430003
