Ba Si N 
 1.0000000000000000
     5.7925329999999997    0.0000000000000000    0.0000000000000000
     0.0000000000000000    6.9832479999999997    0.0000000000000000
     0.0000000000000000    0.0000000000000000    9.3965449999999997
 Ba  Si  N  
   4  10  16
Cartesian
  2.8962664999999999  0.8478431229280000  1.2404754916299998
  0.0000000000000000  6.1354048770719993  5.9387479916299997
  2.8962664999999999  1.0164047631520001  4.6992967234050003
  0.0000000000000000  5.9668432368479998  0.0010242234050000
  2.8962664999999999  4.1911080191679995  5.6719706825350000
  0.0000000000000000  2.7921399808320002  0.9736981825350001
  2.8962664999999999  4.0536148492960002  0.3696130975750000
  0.0000000000000000  2.9296331507039999  5.0678855975749997
  2.8962664999999999  6.6171232906080002  7.7279817112600000
  0.0000000000000000  0.3661247093920000  3.0297092112599997
  4.3480490457899998  2.3479704917919997  7.7135956008649993
  4.3407504542099993  4.6352775082079996  3.0153231008649999
  1.4444839542099999  2.3479704917919997  7.7135956008649993
  1.4517825457900000  4.6352775082079996  3.0153231008649999
  2.8962664999999999  4.0649975435360002  2.1566198360400000
  0.0000000000000000  2.9182504564639999  6.8548923360399998
  2.8962664999999999  5.7506348955200002  6.2525644049949998
  0.0000000000000000  1.2326131044799999  1.5542919049949999
  2.8962664999999999  2.9615605605599997  6.9123240190799988
  0.0000000000000000  4.0216874394400000  2.2140515190799999
  4.3256435281460002  3.8678045865119994  4.6353626312250000
  4.3631559718539998  3.1154434134879998  9.3336351312249999
  1.4668894718540000  3.8678045865119994  4.6353626312250000
  1.4293770281459999  3.1154434134879998  9.3336351312249999
  4.2709214688949997  0.6658945962880000  7.8011620037199991
  4.4178780311049994  6.3173534037119996  3.1028895037200002
  1.5216115311050000  0.6658945962880000  7.8011620037199991
  1.3746549688949998  6.3173534037119996  3.1028895037200002
  0.0000000000000000  1.3919009913600000  4.4177856317500002
  2.8962664999999999  5.5913470086399997  9.1160581317500000
