Ba Hf O 
 1.0000000000000000
     0.0000000000000000    4.1605900000000000    0.0000000000000000
     4.1605900000000000    0.0000000000000000    0.0000000000000000
     2.0802939999999999    2.0802939999999999   -6.7778950000000000
 Ba  Hf  O  
   2   1   4
Cartesian
  2.0802926248280000  2.0802926248280000 -1.9986453439150000
  4.1605913751720003  4.1605913751720003 -4.7792496560850006
  0.0000000000000000  0.0000000000000000  0.0000000000000000
  0.0000000000000000  2.0802950000000000  0.0000000000000000
  2.0802950000000000  0.0000000000000000  0.0000000000000000
  2.0802943092239996  2.0802943092239996 -4.6820071965199999
  4.1605896907759998  4.1605896907759998 -2.0958878034800001
