Tb Mg
 1.0000000000000000
     3.7988659999999999    0.0000000000000000    0.0000000000000000
     0.0000000000000000    3.7988659999999999    0.0000000000000000
     0.0000000000000000    0.0000000000000000    3.7988659999999999
 Tb  Mg 
   1   1
Cartesian
  1.8994329999999999  1.8994329999999999  1.8994329999999999
  0.0000000000000000  0.0000000000000000  0.0000000000000000
