Cs Se
 1.0000000000000000
    -2.9889470000000000    5.1770069999999997   -0.0000000000000000
    -5.9778929999999999    0.0000000000000000    0.0000000000000000
    -2.9889470000000000    1.7256670000000001    4.8714019999999998
 Cs  Se 
   2   1
Cartesian
 -2.9889557162900000  1.7256736803070001  1.2098126866999999
 -8.9668312837100004  5.1770003196929997  3.6615893132999999
  0.0000000000000000  0.0000000000000000  0.0000000000000000
