Na Cd P 
 1.0000000000000000
     4.9405609999999998    0.1091650000000000    7.4973159999999996
     2.3292410000000001    4.3584050000000003    7.4973159999999996
     0.1776370000000000    0.1091650000000000    8.9770450000000004
 Na  Cd  P  
   4   1   2
Cartesian
  5.9067723991919996  3.6299366770800003 19.0126082356559998
  4.4170015965099996  2.7144157611500002 14.2173619119300003
  1.5406666008079999  0.9467983229200000  4.9590687643439999
  3.0304299560510000  1.8623146621150002  9.7542911163930004
  0.0000000000000000  0.0000000000000000  0.0000000000000000
  0.6997092363669999  0.4299979834550000  2.2522109691809997
  6.7477297636330009  4.1467370165450008 21.7194660308189995
