Li Zn
 1.0000000000000000
     6.1799289999999996   -0.0001920000000000   -0.0001930000000000
    -0.0001920000000000    6.1799280000000003   -0.0001910000000000
    -0.0001930000000000   -0.0001920000000000    6.1799350000000004
 Li  Zn 
   8   8
Cartesian
  0.7723626659280000  0.7723626659280001  0.7723635408370001
  5.4073738340719997  2.3173133340719998  2.3173154591629999
  0.7721701659279999  3.8622306659279997  3.8622355408370002
  5.4071813340719999  5.4071813340719999  5.4071874591630005
  3.8622306659279997  0.7721706659280000  3.8622345408370000
  2.3173128340719997  2.3173133340720002  5.4073794591630007
  3.8622311659279998  3.8622306659280001  0.7721715408370000
  2.3173133340720002  5.4073733340720000  2.3173164591630000
  3.8625301567440000  3.8625301567440005  3.8625345321010003
  2.3168213432559996  5.4068818432559995  5.4068884678989999
  3.8627226567439998  0.7726621567440000  0.7726625321010000
  2.3170138432559995  2.3170138432559999  2.3170164678990002
  0.7726621567440000  3.8627221567440007  0.7726635321010000
  5.4068823432559991  5.4068818432559995  2.3168244678990000
  0.7726616567440000  0.7726621567440000  3.8627265321010005
  5.4068818432559995  2.3168218432560002  5.4068874678989998
