Cd Ge O 
 1.0000000000000000
     5.2301469999999997    0.0000000000000000    0.0000000000000000
     0.0000000000000000    6.6049879999999996    0.0000000000000000
     0.0000000000000000    0.0000000000000000   11.2333320000000008
 Cd  Ge  O  
   8   4  16
Cartesian
  2.5600000520899999  4.9537409999999999  8.7637401264600019
  5.1750735520899998  1.6512469999999999  8.0862578735399993
  2.6701469479100002  1.6512469999999999  2.4695918735400002
  0.0550734479100000  4.9537409999999999  3.1470741264600002
  2.6150734999999998  3.3024939999999998  5.6166660000000004
  0.0000000000000000  3.3024939999999998  0.0000000000000000
  2.6150734999999998  0.0000000000000000  5.6166660000000004
  0.0000000000000000  0.0000000000000000  0.0000000000000000
  4.8820859472970000  4.9537409999999999  6.7191613691400010
  2.2670124472969997  1.6512469999999999 10.1308366308600011
  0.3480610527030000  1.6512469999999999  4.5141706308600007
  2.9631345527029995  4.9537409999999999  1.1024953691400001
  1.1514220921970000  3.0461676256960000  3.7656824863680005
  3.7664955921969998  3.5588203743039997  1.8509835136320001
  4.0787249078030001  6.3486616256959998  7.4676495136320007
  1.4636514078030001  0.2563263743040000  9.3823484863680005
  4.0787249078030001  3.5588203743039997  7.4676495136320007
  1.4636514078030001  3.0461676256960000  9.3823484863680005
  1.1514220921970000  0.2563263743040000  3.7656824863680005
  3.7664955921969998  6.3486616256959998  1.8509835136320001
  4.1348182343779998  4.9537409999999999  5.0885982960120000
  1.5197447343780000  1.6512469999999999  0.5280677039880001
  1.0953287656219999  1.6512469999999999  6.1447337039879999
  3.7104022656219997  4.9537409999999999 10.7052642960120004
  1.2172748730740000  4.9537409999999999  1.0879931375280001
  3.8323483730739998  1.6512469999999999  4.5286728624720007
  4.0128721269260001  1.6512469999999999 10.1453388624720002
  1.3977986269259999  4.9537409999999999  6.7046591375280000
