Mn Br
 1.0000000000000000
     3.8714179999999998    0.0000000000000000    0.0000000000000000
    -1.9357080000000000    3.3527450000000001    0.0000000000000000
     0.0000000000000000    0.0000000000000000    6.4834280000000000
 Mn  Br 
   1   2
Cartesian
  0.0000000000000000  0.0000000000000000  0.0000000000000000
 -0.0000012690420001  2.2351644509150002  1.5049786913559999
  1.9357112690419997  1.1175805490849999  4.9784493086440005
