Er Ge
 1.0000000000000000
     8.3635280000000005    0.0000000000000000    0.0000000000000000
    -4.1817640000000003    7.2430279999999998    0.0000000000000000
     0.0000000000000000    0.0000000000000000    6.3202769999999999
 Er  Ge 
  10   6
Cartesian
 -3.1716421787439999  5.4934456144879995  4.7402077499999997
 -1.0101218212559999  1.7495823855119998  1.5800692500000000
  3.1716421787439999  5.4934456144879995  1.5800692500000000
  6.3432843574879998  0.0000000000000000  4.7402077499999997
  1.0101218212559999  1.7495823855119998  4.7402077499999997
  2.0202436425119998  0.0000000000000000  1.5800692500000000
 -0.0000041817640000  4.8286877476759997  3.1601385000000000
  4.1817681817640002  2.4143402523240001  0.0000000000000000
  4.1817681817640002  2.4143402523240001  3.1601385000000000
 -0.0000041817640000  4.8286877476759997  0.0000000000000000
  3.2901784610880003  0.0000000000000000  4.7402077499999997
  1.6450892305440001  2.8493782430880001  1.5800692500000000
 -2.5366747694560003  4.3936497569120005  1.5800692500000000
 -1.6450892305440001  2.8493782430880001  4.7402077499999997
  2.5366747694560003  4.3936497569120005  4.7402077499999997
  5.0733495389120007  0.0000000000000000  1.5800692500000000
