Li Cu O 
 1.0000000000000000
     2.5965600000000002    0.0000000000000000    0.7297080000000000
     1.2859220000000000    2.8525429999999998    0.4088220000000000
    -0.0009450000000000    0.0674160000000000    4.9879530000000001
 Li  Cu  O  
   1   1   2
Cartesian
  0.6424885000000000  1.4599795000000000  2.6983874999999999
  0.0000000000000000  0.0000000000000000  0.0000000000000000
  1.6236687426200000  0.3402073034660000  4.1915863051560001
  2.2578682573800002  2.5797516965339997  1.9348966948440001
