Ti Au
 1.0000000000000000
     3.2801260000000001    0.0000000000000000    0.0000000000000000
     0.0000000000000000    3.2801260000000001    0.0000000000000000
     0.0000000000000000    0.0000000000000000    3.2801260000000001
 Ti  Au 
   1   1
Cartesian
  1.6400630000000000  1.6400630000000000  1.6400630000000000
  0.0000000000000000  0.0000000000000000  0.0000000000000000
