Al Cr C 
 1.0000000000000000
     2.8251010000000001    0.0000000000000000    0.0000000000000000
    -1.4125509999999999    2.4466090000000000    0.0000000000000000
     0.0000000000000000    0.0000000000000000   12.6013739999999999
 Al  Cr  C  
   2   4   2
Cartesian
  1.4125517458840000  0.8155355177970000  3.1500662697720001
 -0.0000017458840000  1.6310734822030000  9.4514211425940005
 -0.0000017458840000  1.6310734822030000  5.2288267289340000
  1.4125517458840000  0.8155355177970000 11.5311141034319995
  1.4125517458840000  0.8155355177970000  7.3718919996180006
 -0.0000017458840000  1.6310734822030000  1.0709403707640002
  0.0000000000000000  0.0000000000000000  6.3004601752679994
  0.0000000000000000  0.0000000000000000  0.0001008109920000
