Si O 
 1.0000000000000000
     4.9149659999999997   -0.0000000000000000    0.0000000000000000
    -2.4574829999999999    4.2564859999999998    0.0000000000000000
     0.0000000000000000    0.0000000000000000    5.4313010000000004
 Si  O  
   3   6
Cartesian
  1.3051421889870001  2.2605728932539999  0.0000000000000000
 -1.1523408110130000  1.9959131067460001  3.6208691437670004
  2.3046816220260000  0.0000000000000000  1.8104318562330002
  0.3073131641160000  1.7596057734839998  4.2629792731910001
  0.7799657844719998  3.6428199004080000  0.6421155607250000
 -1.0872715761389999  3.1105420696219999  2.4525474169580002
  1.3702065088950000  1.1459439303779999  1.1683217268090000
  3.2374438695059995  0.6136660995919999  2.9787535830420002
  2.7647912491500004  2.4968802265159997  4.7891854392750002
