Rb Se
 1.0000000000000000
     9.3562290000000008    0.0000000000000000    0.0000000000000000
    -4.6781139999999999    8.1027319999999996    0.0000000000000000
     0.0000000000000000    0.0000000000000000    6.2424520000000001
 Rb  Se 
   6   6
Cartesian
 -1.4684833751699999  2.5434880884599997  3.1212260000000001
  3.2096313109250003  5.5592439115399994  3.1212260000000001
  2.9369670642450001  0.0000000000000000  3.1212260000000001
 -3.0339534097879999  5.2549620167439990  0.0000000000000000
  1.6441609416700000  2.8477699832559997  0.0000000000000000
  6.0679074681180003  0.0000000000000000  0.0000000000000000
  4.6781193447810008  2.7009079657560000  1.9100654629599998
  4.6781193447810008  2.7009079657560000  4.3323802945880008
 -0.0000043447810000  5.4018240342440000  4.3323802945880008
 -0.0000043447810000  5.4018240342440000  1.9100654629599998
  0.0000000000000000  0.0000000000000000  5.0394878024360006
  0.0000000000000000  0.0000000000000000  1.2029704400160000
