Ce Fe Si
 1.0000000000000000
     3.7454559999999999    0.0000000000000000   -1.4053050000000000
    -0.5272730000000000    3.7081550000000001   -1.4053050000000000
    -0.0765350000000000   -0.0881890000000000    5.4899110000000002
 Ce  Fe  Si 
   1   2   2
Cartesian
  0.0000000000000000  0.0000000000000000  0.0000000000000000
  0.5026417500000000  2.7370217500000003  1.3396505000000001
  2.6390062500000000  0.8829442500000000  1.3396505000000001
  2.0325706537279999  2.3420314302860001 -0.2766439907790000
  1.1090773462719998  1.2779345697140001  2.9559449907789999
