Ta Ti B 
 1.0000000000000000
     1.5312539999999999   -2.6522100000000002    0.0000000000000000
     1.5312539999999999    2.6522100000000002    0.0000000000000000
     0.0000000000000000    0.0000000000000000    6.5239120000000002
 Ta  Ti  B  
   1   1   4
Cartesian
  0.0000000000000000  0.0000000000000000  0.0000000000000000
  0.0000000000000000  0.0000000000000000  3.2619560000000001
  1.5312539999999999 -0.8840717681400001  4.8481799636800007
  1.5312539999999999 -0.8840717681400001  1.6757320363199999
  1.5312539999999999  0.8840717681400001  4.8481799636800007
  1.5312539999999999  0.8840717681400001  1.6757320363199999
