Rb Cd Cl
 1.0000000000000000
     6.3330640000000002   -6.2503200000000003    0.0137070000000000
     6.3330640000000002    6.2503200000000003    0.0137070000000000
     0.1451800000000000    0.0000000000000000    8.8968129999999999
 Rb  Cd  Cl 
   8   2  12
Cartesian
  9.6084810000000012  0.0000000000000004  6.6931702499999997
  3.2028270000000001  0.0000000000000000  2.2310567500000000
  7.2067838381679996 -3.8977120526399998  5.5883470821880001
  9.5358910000000012  1.5451041052800001  2.2447637500000002
  5.6771141618320007  2.3526079473600001  7.7842864178119999
  5.6045241618320008  3.8977120526400002  3.3358799178120000
  3.2754170000000000 -1.5451041052800001  6.6794632499999995
  7.1341938381679997 -2.3526079473599997  1.1399405821880000
  6.4056540000000002  0.0000000000000000  4.4621135000000001
  0.0000000000000000  0.0000000000000000  0.0000000000000000
  7.7847407993920008  4.0912219598400004  0.6315258378620000
  2.3888564483200003  1.3591070827200002  8.3776653347100005
  6.4392101751280011 -5.4503290425600008  2.5631217051380002
  4.1619775516800006  1.3591070827200000  4.9812611652899994
  4.9539772006079996 -2.1590980401600000  3.8442946621380001
  6.2995078248720002  0.7999909574399998  1.9126987948620000
  5.0265672006080004 -4.0912219598400004  8.2927011621380000
 10.4224515516800000 -1.3591070827199994  0.5465616652900001
  6.3720978248720002  5.4503290425599999  6.3611052948619999
  8.6493304483200006 -1.3591070827199998  3.9429658347099998
  6.5118001751280010 -0.7999909574400006  7.0115282051379992
  7.8573307993919999  2.1590980401599995  5.0799323378620000
