Sc Tl S 
 1.0000000000000000
     3.7924970000000000   -0.0000000000000000    0.0000000000000000
    -1.8962490000000001    3.2843990000000001    0.0000000000000000
     0.0000000000000000    0.0000000000000000   14.9493980000000004
 Sc  Tl  S  
   2   2   4
Cartesian
  0.0000000000000000  0.0000000000000000  7.4746990000000002
  0.0000000000000000  0.0000000000000000  0.0000000000000000
  1.8962502295819998  1.0947985718669999 11.2120484999999999
 -0.0000022295820001  2.1896004281330002  3.7373495000000001
 -0.0000022295820001  2.1896004281330002 13.5341534407380006
  1.8962502295819998  1.0947985718669999  6.0594544407380004
 -0.0000022295820001  2.1896004281330002  8.8899435592620009
  1.8962502295819998  1.0947985718669999  1.4152445592620000
