Nd S  F 
 1.0000000000000000
     3.9422039999999998    0.0000000000000000    0.0000000000000000
     0.0000000000000000    3.9422039999999998    0.0000000000000000
     0.0000000000000000    0.0000000000000000    6.9293490000000002
 Nd  S   F  
   2   2   2
Cartesian
  2.9566529999999998  2.9566529999999998  5.3490416670599998
  0.9855510000000000  0.9855510000000000  1.5803073329400001
  0.9855510000000000  0.9855510000000000  4.4947360875480005
  2.9566529999999998  2.9566529999999998  2.4346129124520002
  0.9855510000000000  2.9566529999999998  0.0000000000000000
  2.9566529999999998  0.9855510000000000  0.0000000000000000
