Er Al Ni Ge
 1.0000000000000000
     3.4469020000000001   -5.9702089999999997    0.0000000000000000
     3.4469020000000001    5.9702089999999997    0.0000000000000000
     0.0000000000000000    0.0000000000000000    4.1538170000000001
 Er  Al  Ni  Ge 
   3   3   1   2
Cartesian
  4.1072870603760006  0.0000000000000000  2.0769085000000000
  1.3932584698120001 -2.4131942990540001  2.0769085000000000
  1.3932584698120001  2.4131942990540001  2.0769085000000000
  2.6589229682900002  4.6053893715549998  0.0000000000000000
  1.5759580634200001 -0.0000000000000001  0.0000000000000000
  2.6589229682900002 -4.6053893715549998  0.0000000000000000
  0.0000000000000000  0.0000000000000000  2.0769085000000000
  3.4469020000000001  1.9900736468060001  0.0000000000000000
  3.4469020000000001 -1.9900736468059999  0.0000000000000000
