Ba Ti O 
 1.0000000000000000
     7.7276160000000003    0.0000000000000000    0.0000000000000000
     0.0000000000000000    6.1744070000000004    0.0101590000000000
     0.0000000000000000    5.4805919999999997   10.5836640000000006
 Ba  Ti  O  
   8   4  16
Cartesian
  7.7188528834560008  7.6720942808650001  3.1996419097850004
  3.8550448834559998  1.2426087191349999  2.1023490902150002
  0.0087631165440000  3.9829047191350000  7.3941810902150005
  3.8725711165440000 10.4123902808650008  8.4914739097850003
  5.0825921402880008  4.2255842972769999  4.5047621175890002
  1.2187841402880000  4.6891187027230004  0.7972288824110001
  2.6450238597119999  7.4294147027230002  6.0890608824110002
  6.5088318597120001  6.9658802972769998  9.7965941175890006
  1.7010105615360001  4.4078598351389999  4.4151775270830003
  5.5648185615360006  4.5068431648610003  0.8868134729170001
  6.0266054384640002  7.2471391648610002  6.1786454729170011
  2.1627974384640001  7.1481558351389998  9.7070095270830006
  2.4742976394239999  4.7281889203559997  6.0494663218920000
  6.3381056394239996  9.6671060796440003  9.8361886781079999
  5.2533183605760003  6.9268100796440004  4.5443566781080005
  1.3895103605760000  1.9878929203560001  0.7576343218920000
  2.5076577576960002  2.8730013307109998  3.8258967489270002
  6.3714657576959999  6.0417016692890000  1.4760942510730000
  5.2199582423040001  8.7819976692889998  6.7679262510730007
  1.3561502423040002  5.6132973307110001  9.1177287489270000
  2.0098060968960003  5.8235661882210001  3.3028016276369998
  5.8736140968960004  3.0911368117790001  1.9991893723630001
  5.7178099031040004  5.8314328117790000  7.2910213723630006
  1.8540019031040000  8.5638621882210000  8.5946336276370001
  0.0642628546560000  7.5516336072890002  5.9959618674729995
  3.9280708546560001  6.8436613927109997  9.8896931325270003
  7.6633531453440007  4.1033653927109999  4.5978611325270000
  3.7995451453440001  4.8113376072890004  0.7041298674730000
