Ir Ru
 1.0000000000000000
     5.4246049999999997   -0.0000020000000000    0.0000000000000000
    -2.7123029999999999    4.6978350000000004    0.0000000000000000
     0.0000000000000000    0.0000000000000000    4.3079890000000001
 Ir  Ru 
   2   6
Cartesian
 -0.0000111825430000  3.1318862014480002  3.2309917500000003
  2.7123158948510002  1.5658951223770001  1.0769972500000000
  0.0000161080030000  1.5579145024100001  1.0769972500000000
  1.3631051765159994  3.9188762462280007  1.0769972500000000
 -1.3631032984039999  3.9189007405250003  1.0769972500000000
  2.7122994535119997  3.1398950084150004  3.2309917500000003
  1.3491425774290000  0.7790037321320000  3.2309917500000003
  4.0754758182629995  0.7789886334570001  3.2309917500000003
