Ba Mg Bi
 1.0000000000000000
     4.8983569999999999    0.0000000000000000    0.0000000000000000
    -2.4491779999999999    4.2421009999999999    0.0000000000000000
     0.0000000000000000    0.0000000000000000    8.3322509999999994
 Ba  Mg  Bi 
   1   2   2
Cartesian
  0.0000000000000000  0.0000000000000000  0.0000000000000000
  2.4491811158450001  1.4140322526330000  3.1502991193349996
 -0.0000021158450001  2.8280687473669999  5.1819518806649993
 -0.0000021158450001  2.8280687473669999  2.2152122508599996
  2.4491811158450001  1.4140322526330000  6.1170387491399998
