Sr Mg As
 1.0000000000000000
     2.2082619999999999   -3.8249640000000000    0.0000070000000000
     2.2082570000000001    3.8249610000000001   -0.0000060000000000
     0.0000020000000000   -0.0000130000000000    7.4151480000000003
 Sr  Mg  As 
   1   2   2
Cartesian
  2.2082619999999999 -3.8249640000000000  0.0000070000000000
  2.2082588669629999 -1.2750231468659998  2.7505405900960000
  2.2082621330370005  1.2750071468660000  4.6646084099039999
  2.2082591918960004  1.2750233854360002  1.9474238222079998
  2.2082618081040000 -1.2750393854360003  5.4677251777920004
