Sr Cu O 
 1.0000000000000000
     5.4494980000000002    0.0000000000000000    0.0000000000000000
     0.0000000000000000    6.7266659999999998   -0.0115500000000000
     0.0000000000000000    4.3347689999999997    9.8368640000000003
 Sr  Cu  O  
   8   4  14
Cartesian
  4.1738795081600006  4.3618723155839998  5.5061493036760005
  3.9484283264019999  5.6796492029519996  2.0063618506000003
  4.0003674918399996  2.1944878155840000  0.5877173036759999
  1.2236793264020001  3.2144012970480000  2.9005201494000001
  1.2756184918400002  6.6995626844159988  4.3191646963240000
  4.2258186735979999  7.8470337029519994  6.9247938506000004
  1.5010696735980000  5.3817857970479999  7.8189521494000003
  1.4491305081599999  8.8669471844159986  9.2375966963239993
  4.0511568131999995  8.3809342636380002  3.7533014739420003
  1.3983411868000000  2.6805007363620001  6.0720125260580007
  4.1230901868000007 10.5483187636379991  8.6717334739420000
  1.3264078132000001  0.5131162363620000  1.1535805260580001
  3.9584281552320002  3.4179781796189994  3.0514086868320001
  4.0050050146379998  6.6580472418089993  4.5602541485860000
  2.6840466994379999  7.9094740018890004  2.6845959477400001
  0.0000000000000000  2.1673844999999998  4.9184320000000001
  2.7247490000000001  0.0000000000000000  0.0000000000000000
  5.4087956994380004  0.9845764981109999  2.2222860522600003
  1.4444929853620001  4.4033877581910001  5.2650598514139997
  2.7654513005619998  3.1519609981109995  7.1407180522599996
  1.2336791552320001  5.4760723203809993  1.8554733131679999
  4.1692419853620004  8.8254317418089983  9.4786861485860001
  4.2158188447680001  5.5853626796189992  7.9698406868320006
  1.2802560146380000  2.2360032581909999  0.3466278514140000
  1.4910698447680002  7.6434568203809992  6.7739053131680000
  0.0407023005620000 10.0768585018889993  7.6030279477400002
