Be Si Ir
 1.0000000000000000
     0.0000000000000000    2.8749210000000001    2.8749210000000001
     2.8749210000000001    0.0000000000000000    2.8749210000000001
     2.8749210000000001    2.8749210000000001    0.0000000000000000
 Be  Si  Ir 
   1   1   2
Cartesian
  1.4374605000000000  1.4374605000000000  1.4374605000000000
  4.3123814999999999  4.3123814999999999  4.3123814999999999
  0.0000000000000000  0.0000000000000000  0.0000000000000000
  2.8749210000000001  2.8749210000000001  2.8749210000000001
