Hf Al Pd
 1.0000000000000000
     6.4295210000000003    0.0000000000000000    0.0000000000000000
     0.0000000000000000    6.4295210000000003    0.0000000000000000
     0.0000000000000000    0.0000000000000000    6.4295210000000003
 Hf  Al  Pd 
   4   4   8
Cartesian
  3.2147605000000001  3.2147605000000001  3.2147605000000001
  3.2147605000000001  0.0000000000000000  0.0000000000000000
  0.0000000000000000  3.2147605000000001  0.0000000000000000
  0.0000000000000000  0.0000000000000000  3.2147605000000001
  0.0000000000000000  0.0000000000000000  0.0000000000000000
  0.0000000000000000  3.2147605000000001  3.2147605000000001
  3.2147605000000001  0.0000000000000000  3.2147605000000001
  3.2147605000000001  3.2147605000000001  0.0000000000000000
  4.8221407500000000  1.6073802500000001  1.6073802500000001
  1.6073802500000001  4.8221407500000000  4.8221407500000000
  4.8221407500000000  4.8221407500000000  4.8221407500000000
  1.6073802500000001  1.6073802500000001  1.6073802500000001
  1.6073802500000001  1.6073802500000001  4.8221407500000000
  4.8221407500000000  4.8221407500000000  1.6073802500000001
  1.6073802500000001  4.8221407500000000  1.6073802500000001
  4.8221407500000000  1.6073802500000001  4.8221407500000000
