Cs Cu O 
 1.0000000000000000
     4.9036220000000004    0.0000000000000000   -2.0998280000000000
     0.0000000000000000    5.4251269999999998    0.0000000000000000
    -0.0644330000000000    0.0000000000000000    6.6250340000000003
 Cs  Cu  O  
   2   2   4
Cartesian
  3.3291629299210004  1.3562817500000000  0.9989136744860001
  1.5100260700790000  4.0688452499999999  3.5262923255140000
  4.8302983398950001  1.3562817500000000  4.5044508781540005
  0.0088906601050000  4.0688452499999999  0.0207551218460000
  4.3596840642670012  5.4066869933269999  3.4054497730339999
  0.4795049357330000  0.0184400066730000  1.1197562269660000
  0.4795049357330000  2.6941234933270000  1.1197562269660000
  4.3596840642670012  2.7310035066730003  3.4054497730339999
