La Si
 1.0000000000000000
     4.3620000000000001    0.0000000000000000   -1.4758819999999999
     0.0000000000000000    6.6460340000000002    0.0000000000000000
    -0.0253740000000000    0.0000000000000000    7.1089359999999999
 La  Si 
   4   4
Cartesian
  3.1511006800320001  4.9845255000000002  2.1292106218400000
  1.1855253199680000  1.6615085000000001  3.5038433781600000
  1.9336654259100003  4.9845255000000002  5.7150077136480002
  2.4029605740899997  1.6615085000000001 -0.0819537136480000
  3.9429440743680000  0.4245021296820000  4.4695049652780003
  0.3936819256320000  6.2215318703180005  1.1635490347219999
  0.3936819256320000  3.7475191296819998  1.1635490347219999
  3.9429440743680000  2.8985148703179999  4.4695049652780003
