Ni B  Mo
 1.0000000000000000
    -1.5892269999999999    2.2716040000000000    3.5401199999999999
     1.5892269999999999   -2.2716040000000000    3.5401199999999999
     1.5892269999999999    2.2716040000000000   -3.5401199999999999
 Ni  B   Mo 
   1   2   2
Cartesian
  0.0000000000000000  0.0000000000000000  0.0000000000000000
 -0.0000000000000000  0.9215034218480000  3.5401200000000004
  1.5892254107729999  1.3500983065480001  0.0000035401200004
  0.0000000000000000  2.2716040000000000  1.4123308739999998
  1.5892270000000002  0.0000000000000000  2.1277891260000001
