Li Nd Ge
 1.0000000000000000
     7.3044620000000000    0.0000000000000000    0.0000000000000000
    -3.6522310000000000    6.3258500000000000    0.0000000000000000
     0.0000000000000000    0.0000000000000000    4.3567729999999996
 Li  Nd  Ge 
   3   3   3
Cartesian
  1.6943649189059999  0.0000000000000000  2.1783864999999998
  2.8050485405469998  4.8584868564499999  2.1783864999999998
 -0.8471824594530000  1.4673631435500001  2.1783864999999998
 -2.1237138908039999  3.6783805614000000  0.0000000000000000
  4.2474277816079997  0.0000000000000000  0.0000000000000000
  1.5285171091959999  2.6474694385999999  0.0000000000000000
 -0.0000036522309999  4.2172354419499998  2.1783864999999998
  3.6522346522309999  2.1086145580499998  2.1783864999999998
  0.0000000000000000  0.0000000000000000  0.0000000000000000
