Tm I 
 1.0000000000000000
    10.9806469999999994   -0.0000440000000000   -0.0000000000000000
    -5.4903610000000000    9.5094220000000007    0.0000000000000000
    -0.0000000000000000    0.0000000000000000    3.9397020000000000
 Tm  I  
   2   6
Cartesian
 -0.0000634322770002  6.3396031699540005  2.9547646808940002
  5.4903878645039992  3.1697843392920002  0.9849333794040001
 -0.0000324636329998  4.0554833274659998  0.9849176205960000
  1.9780791500149990  7.4816836928200008  0.9849176205960000
 -1.9779899183930001  7.4815759227860008  0.9849176205960000
  5.4902855220669995  5.4537995786660005  2.9547725602979997
  3.5122617528449998  2.0277894009600002  2.9547725602979997
  7.4682594474599995  2.0277925678800002  2.9547725602979997
