Tm B  Ru
 1.0000000000000000
     5.4512239999999998   -0.0000000000000000    0.0000000000000000
    -2.7256130000000001    4.7208990000000002    0.0000000000000000
     0.0000000000000000    0.0000000000000000    3.0146160000000002
 Tm  B   Ru 
   1   2   3
Cartesian
  0.0000000000000000  0.0000000000000000  0.0000000000000000
 -0.0000033922790002  3.1472675736330000  0.0000000000000000
  2.7256143922790002  1.5736314263669999  0.0000000000000000
  2.7256119999999999  0.0000000000000000  1.5073080000000001
  1.3628054999999999  2.3604495000000001  1.5073080000000001
 -1.3628065000000000  2.3604495000000001  1.5073080000000001
