Ta Te Pt
 1.0000000000000000
     3.7723580000000001   -0.0000000000000000    0.0000000000000000
    -1.8861790000000001    7.0418519999999996    0.0000000000000000
     0.0000000000000000    0.0000000000000000   15.5483080000000005
 Ta  Te  Pt 
   2  10   2
Cartesian
  0.0000018861789997  6.9351468166440000 11.6612310000000008
  1.8861771138210002  0.1067051833560000  3.8870770000000001
  1.8861752276420003  4.7981207809439992 11.6612310000000008
  0.0000037723580001  2.2437312190559999  3.8870770000000001
  1.8861771138210002  1.4531917879799998  1.2594751412320002
  0.0000018861790000  5.5886602120199997 14.2888328587680018
 -0.0000037723580000  1.3830056490959999 13.2540618647519999
  1.8861827723580000  5.6588463509039997  2.2942461352480001
  1.8861827723580000  5.6588463509039997  5.4799078647519996
 -0.0000037723580000  1.3830056490959999 10.0684001352479999
  1.8861771138210002  1.4531917879799998  6.5146788587679998
  0.0000018861790000  5.5886602120199997  9.0336291412319998
  0.0000000000000000  0.0000000000000000  0.0000000000000000
  0.0000000000000000  0.0000000000000000  7.7741540000000002
