Sm Fe Si
 1.0000000000000000
     4.0427749999999998    0.0000000000000000    0.0000000000000000
     0.0000000000000000    4.0427749999999998    0.0000000000000000
     0.0000000000000000    0.0000000000000000    6.7709310000000000
 Sm  Fe  Si 
   2   2   2
Cartesian
  3.0320812500000001  3.0320812500000001  2.0994219495839999
  1.0106937499999999  1.0106937499999999  4.6715090504159997
  3.0320812500000001  1.0106937499999999  0.0000000000000000
  1.0106937499999999  3.0320812500000001  0.0000000000000000
  3.0320812500000001  3.0320812500000001  5.6524002825239998
  1.0106937499999999  1.0106937499999999  1.1185307174760000
