Mg Zr Pd
 1.0000000000000000
     0.0000000000000000    3.2598820000000002    3.2598820000000002
     3.2598820000000002    0.0000000000000000    3.2598820000000002
     3.2598820000000002    3.2598820000000002    0.0000000000000000
 Mg  Zr  Pd 
   1   1   2
Cartesian
  1.6299410000000001  1.6299410000000001  1.6299410000000001
  4.8898229999999998  4.8898229999999998  4.8898229999999998
  0.0000000000000000  0.0000000000000000  0.0000000000000000
  3.2598754802360004  3.2598754802360004  3.2598754802360004
