Cu S 
 1.0000000000000000
     1.8770640000000001   -3.2755630000000000    0.0000000000000000
     1.8770640000000001    3.2755630000000000    0.0000000000000000
     0.0000000000000000    0.0000000000000000   16.2929080000000006
 Cu  S  
   6   6
Cartesian
  1.8770640000000001 -1.0614789457800002  9.8835875580520014
  1.8770640000000001  1.0614789457800002  1.7371335580520002
  1.8770640000000001 -1.0614789457800002 14.5557744419479995
  1.8770640000000001 -0.8911300164020001  4.0732270000000002
  1.8770640000000001  1.0614789457800002  6.4093204419480001
  1.8770640000000001  0.8911300164020001 12.2196810000000013
  1.8770640000000001 -3.2483627248479996  9.1930126524720013
  1.8770640000000003 -1.2789042665940000 12.2196810000000013
  1.8770640000000001  3.2483627248480000  1.0465586524720001
  1.8770640000000003  1.2789042665940000  4.0732270000000002
  1.8770640000000001 -3.2483627248479996 15.2463493475279996
  1.8770640000000001  3.2483627248480000  7.0998953475280002
