Cr O 
 1.0000000000000000
     5.0900520000000000    0.0000000000000000    0.0000000000000000
    -2.5450260000000000    4.4081149999999996    0.0000000000000000
     0.0000000000000000    0.0000000000000000   13.7743090000000006
 Cr  O  
  12  18
Cartesian
  0.0000000000000000  0.0000000000000000 11.7035344821759999
  2.5450285450260002  1.4693701972949997  2.5206572240730001
 -0.0000025450260001  2.9387448027049996  7.1120889659700000
  0.0000000000000000  0.0000000000000000  8.9579290178240001
  2.5450285450260002  1.4693701972949997 13.5493745340300009
 -0.0000025450260001  2.9387448027049996  4.3664972759270002
  0.0000000000000000  0.0000000000000000  2.0707745178240002
  2.5450285450260002  1.4693701972949997  6.6622200340299997
 -0.0000025450260001  2.9387448027049996 11.2536517759270005
  0.0000000000000000  0.0000000000000000  4.8163799821759996
  2.5450285450260002  1.4693701972949997  9.4078117240729995
 -0.0000025450260001  2.9387448027049996  0.2249344659700000
  0.7660070155319998  4.2655124797499999  5.7393000081030001
  0.7660095605580000  1.3267676770449999 10.3307317500000000
  3.3110381055840001  2.7961378743399998  1.1478544918970002
  0.7660070155319999  1.6119771256600000  5.7393000081030001
 -1.7790164394420001  3.0813473229549997 10.3307317500000000
  3.3110381055840001  0.1426025202500000  1.1478544918970002
 -1.5320216661420001  2.9387448027049996  5.7393000081030001
  3.5580328788840001  0.0000000000000000 10.3307317500000000
  1.0130094239100000  1.4693701972949997  1.1478544918970002
  1.7790189844680000  0.1426025202500000  8.0350089918969996
 -0.7660121055840000  1.6119771256600000 12.6264545081030004
  1.7790164394420001  3.0813473229549997  3.4435772500000001
  4.0770476661419996  1.4693701972949997  8.0350089918969996
  1.5320165760899997  2.9387448027049996 12.6264545081030004
  1.5320191211159999  0.0000000000000000  3.4435772500000001
  1.7790189844680002  2.7961378743399998  8.0350089918969996
 -0.7660121055840001  4.2655124797499999 12.6264545081030004
 -0.7660095605580000  1.3267676770449999  3.4435772500000001
