Be Co Ni
 1.0000000000000000
     0.0000000000000000    2.5736479999999999    2.5736479999999999
     2.5736479999999999    0.0000000000000000    2.5736479999999999
     2.5736479999999999    2.5736479999999999    0.0000000000000000
 Be  Co  Ni 
   2   1   1
Cartesian
  0.0000000000000000  0.0000000000000000  0.0000000000000000
  2.5736428527040003  2.5736428527040003  2.5736428527040003
  1.2868240000000000  1.2868240000000000  1.2868240000000000
  3.8604668527039996  3.8604668527039996  3.8604668527039996
