Ba Ca Ir O 
 1.0000000000000000
    -4.2334420000000001   -4.2334420000000001    0.0000000000000000
    -4.2334420000000001    0.0000000000000000   -4.2334420000000001
     0.0000000000000000   -4.2334420000000001   -4.2334420000000001
 Ba  Ca  Ir  O  
   2   1   1   6
Cartesian
 -6.3501630000000002 -6.3501630000000002 -6.3501630000000002
 -2.1167210000000001 -2.1167210000000001 -2.1167210000000001
  0.0000000000000000  0.0000000000000000  0.0000000000000000
 -4.2334420000000001 -4.2334420000000001 -4.2334420000000001
 -4.2334420000000001 -2.2794206429440003 -4.2334420000000001
 -4.2334420000000001 -4.2334420000000001 -6.1874633570560000
 -4.2334420000000001 -4.2334420000000001 -2.2794206429440003
 -6.1874633570560000 -4.2334420000000001 -4.2334420000000001
 -4.2334420000000001 -6.1874633570560000 -4.2334420000000001
 -2.2794206429440003 -4.2334420000000001 -4.2334420000000001
