Li Rh
 1.0000000000000000
     2.6768740000000002    0.0000000000000000    0.0000000000000000
    -1.3384360000000000    2.3182399999999999    0.0000000000000000
     0.0000000000000000    0.0000000000000000    4.3682150000000002
 Li  Rh 
   1   1
Cartesian
 -0.0000006717699999  1.5454941060799998  2.1841075000000001
  0.0000000000000000  0.0000000000000000  0.0000000000000000
