Cs Na Y  F 
 1.0000000000000000
    -4.6007040000000003   -4.6007040000000003    0.0000000000000000
    -4.6007040000000003    0.0000000000000000   -4.6007040000000003
     0.0000000000000000   -4.6007040000000003   -4.6007040000000003
 Cs  Na  Y   F  
   2   1   1   6
Cartesian
 -6.9010560000000005 -6.9010560000000005 -6.9010560000000005
 -2.3003520000000002 -2.3003520000000002 -2.3003520000000002
 -4.6007040000000003 -4.6007040000000003 -4.6007040000000003
  0.0000000000000000  0.0000000000000000  0.0000000000000000
 -4.6007040000000003 -4.6007040000000003 -2.2017221076480000
 -4.6007040000000003 -2.2017221076480000 -4.6007040000000003
 -4.6007040000000003 -6.9996858923520007 -4.6007040000000003
 -6.9996858923520007 -4.6007040000000003 -4.6007040000000003
 -4.6007040000000003 -4.6007040000000003 -6.9996858923520007
 -2.2017221076480000 -4.6007040000000003 -4.6007040000000003
