Si Ni B 
 1.0000000000000000
     6.0719310000000002    0.0000000000000000    0.0000000000000000
    -3.0359650000000000    5.2584460000000002    0.0000000000000000
     0.0000000000000000    0.0000000000000000    2.8154149999999998
 Si  Ni  B  
   2   6   1
Cartesian
 -0.0000027026319999  3.5056324194820001  0.0000000000000000
  3.0359687026320001  1.7528135805180001  0.0000000000000000
  2.2919235965840006  3.9697270881040003  0.0000000000000000
 -0.7440421583400000  1.2887189118960001  0.0000000000000000
  1.1828366413280000  2.0487326291680001  1.4077074999999999
 -1.8531287482800001  3.2097133708320005  1.4077074999999999
  1.4880845617559999  0.0000000000000000  0.0000000000000000
  3.7062581069520002  0.0000000000000000  1.4077074999999999
  0.0000000000000000  0.0000000000000000  1.4077074999999999
