Rb Se
 1.0000000000000000
     4.9343219999999999   -0.0000000000000000    2.8488319999999998
     1.6447730000000000    4.6521220000000003    2.8488319999999998
     0.0000000000000000    0.0000000000000000    5.6976630000000004
 Rb  Se 
   2   1
Cartesian
  4.9343212500000000  3.4890915000000002  8.5464952499999995
  1.6447737499999999  1.1630305000000001  2.8488317500000000
  0.0000000000000000  0.0000000000000000  0.0000000000000000
