Ba Ti Si O 
 1.0000000000000000
     6.6525569999999998    0.0000050000000000    0.0000000000000000
    -3.3262800000000001    5.7612850000000000    0.0000000000000000
     0.0000000000000000    0.0000000000000000    9.7888680000000008
 Ba  Ti  Si  O  
   2   2   6  18
Cartesian
  3.3262813262790001  1.9204297462400000  4.8944340000000004
  3.3262813262790001  1.9204297462400000  0.0000000000000000
 -0.0000043262790003  3.8408602537599998  4.8944340000000004
 -0.0000043262790003  3.8408602537599998  0.0000000000000000
 -1.6389286623480002  5.3524249781849997  2.4472170000000002
  0.4895878461719999  1.6657268551200000  7.3416510000000006
  1.6389225489719992  5.3524216805000000  7.3416510000000006
  2.1285177021689994  4.5044296639250003  2.4472170000000002
 -0.4895920398210001  1.6657203578900002  2.4472170000000002
 -2.1285133951440001  4.5044264643799998  7.3416510000000006
 -1.6023125823209998  3.7918881057299996  6.0029645677920005
 -0.7587554300190004  5.2529973400400003  3.7859034322080003
  0.7587493684199998  5.2529811967200004  6.0029645677920005
  0.8435635401809997  2.4776999362650001  8.6803374322080007
  0.7587493684199998  5.2529811967200004  8.6803374322080007
 -1.6023125823209998  3.7918881057299996  8.6803374322080007
  1.6023305654910001  3.7918905143099999  1.1085305677920001
 -0.8435714829150002  2.4776871456550000  1.1085305677920001
  1.0492676115239998  1.1090255872200001  2.4472170000000002
  3.7620897163050002  4.2980903798900005  2.4472170000000002
  5.1674799984479991  0.3541847941800000  2.4472170000000002
  2.8904683718879993  4.2980839634999999  7.3416510000000006
  1.6023305654910001  3.7918905143099999  3.7859034322080003
  1.4850701645669999  0.3541820265150000  7.3416510000000006
  5.6032921372680002  1.1090232486950000  7.3416510000000006
 -0.8435714829150002  2.4776871456550000  3.7859034322080003
 -0.7587554300190004  5.2529973400400003  1.1085305677920001
  0.8435635401809997  2.4776999362650001  6.0029645677920005
