Ce
 1.0000000000000000
     2.8612660000000001    0.0000000000000000    1.6519530000000000
     0.9537560000000000    2.6976290000000001    1.6519530000000000
    -0.0000000000000000   -0.0000000000000000    3.3039070000000001
 Ce 
   1
Cartesian
  0.0000000000000000  0.0000000000000000  0.0000000000000000
