Sr As N 
 1.0000000000000000
     5.0956690000000000    0.0000000000000000    0.0000000000000000
     0.0000000000000000    5.0956690000000000    0.0000000000000000
     0.0000000000000000    0.0000000000000000    5.0956690000000000
 Sr  As  N  
   3   1   1
Cartesian
  0.0000000000000000  2.5478345000000000  2.5478345000000000
  2.5478345000000000  0.0000000000000000  2.5478345000000000
  2.5478345000000000  2.5478345000000000  0.0000000000000000
  0.0000000000000000  0.0000000000000000  0.0000000000000000
  2.5478345000000000  2.5478345000000000  2.5478345000000000
