Mg Zn Rh
 1.0000000000000000
     0.0000000000000000    3.0349070000000000    3.0349070000000000
     3.0349070000000000    0.0000000000000000    3.0349070000000000
     3.0349070000000000    3.0349070000000000    0.0000000000000000
 Mg  Zn  Rh 
   1   1   2
Cartesian
  1.5174474301859999  1.5174474301859999  1.5174474301859999
  4.5523544301859999  4.5523544301859999  4.5523544301859999
  0.0000000000000000  0.0000000000000000  0.0000000000000000
  3.0349070000000000  3.0349070000000000  3.0349070000000000
