Be Ru W 
 1.0000000000000000
     0.0000040000000000    2.9772870000000000    2.9772870000000000
     2.9772870000000000    0.0000040000000000    2.9772870000000000
     2.9772870000000000    2.9772870000000000    0.0000040000000000
 Be  Ru  W  
   1   2   1
Cartesian
  1.4886385454219999  1.4886385454219999  1.4886385454219999
  0.0000000000000000  0.0000000000000000  0.0000000000000000
  2.9772889999999999  2.9772889999999999  2.9772889999999999
  4.4659335000000002  4.4659335000000002  4.4659335000000002
