Hf Mn
 1.0000000000000000
     4.8998960000000000    0.0000000000000000    0.0000000000000000
    -2.4499469999999999    4.2434329999999996    0.0000000000000000
     0.0000000000000000    0.0000000000000000    8.1533160000000002
 Hf  Mn 
   4   8
Cartesian
 -0.0000017832810000  2.8289567478109996  3.5573162307480000
  2.4499507832809999  1.4144762521889997  7.6339742307480005
  2.4499507832809999  1.4144762521889997  4.5959997692519998
 -0.0000017832810000  2.8289567478109996  0.5193417692520000
  0.0000003410900001  1.4473925619699999  6.1149870000000002
  3.6464170255650004  0.7236962809849999  2.0383290000000001
  1.2534793155250001  0.7236962809849999  2.0383290000000001
  1.1964696844750002  3.5197367190150000  6.1149870000000002
  0.0000000000000000  0.0000000000000000  0.0000000000000000
  0.0000000000000000  0.0000000000000000  4.0766580000000001
  2.4499486589100004  2.7960404380299999  2.0383290000000001
 -1.1964680255650000  3.5197367190150000  6.1149870000000002
