Sc Co Si
 1.0000000000000000
     5.0221629999999999    0.0000000000000000    0.0000000000000000
    -2.5110820000000000    4.3493209999999998    0.0000000000000000
     0.0000000000000000    0.0000000000000000    7.4842420000000001
 Sc  Co  Si 
   4   6   2
Cartesian
 -0.0000028444150001  2.8995487831069999  4.1972826614720002
  2.5110838444149999  1.4497722168929998  3.2869593385280003
  2.5110838444149999  1.4497722168929998  0.4551616614720000
 -0.0000028444150001  2.8995487831069999  7.0290803385279998
  3.7349348271150000  0.7431815272329999  5.6131814999999996
  1.2238479758250000  3.6061394727669995  1.8710605000000000
 -1.2238538271149999  3.6061394727669995  1.8710605000000000
  2.5110836819550002  2.8629535962129999  5.6131814999999996
 -0.0000026819550001  1.4863674037870001  1.8710605000000000
  1.2872330241750001  0.7431815272329999  5.6131814999999996
  0.0000000000000000  0.0000000000000000  3.7421210000000000
  0.0000000000000000  0.0000000000000000  0.0000000000000000
