Mg H  Os
 1.0000000000000000
     3.3176350000000001    3.3176350000000001    0.0000000000000000
     0.0000000000000000    3.3176350000000001    3.3176350000000001
     3.3176350000000001    0.0000000000000000    3.3176350000000001
 Mg  H   Os 
   2   6   1
Cartesian
  4.9764525000000006  4.9764525000000006  4.9764525000000006
  1.6588175000000001  1.6588175000000001  1.6588175000000001
  3.3176350000000001  3.3176350000000001  4.9510062395499999
  3.3176350000000001  1.6842637604499999  3.3176350000000001
  1.6842637604499999  3.3176350000000001  3.3176349999999997
  3.3176349999999997  3.3176349999999997  1.6842637604499999
  3.3176349999999997  4.9510062395499999  3.3176349999999997
  4.9510062395499999  3.3176349999999997  3.3176350000000001
  0.0000000000000000  0.0000000000000000  0.0000000000000000
