Mg I 
 1.0000000000000000
     4.1956850000000001   -0.0000000000000000    0.0000000000000000
    -2.0978430000000001    3.6335690000000000    0.0000000000000000
     0.0000000000000000    0.0000000000000000    7.1057269999999999
 Mg  I  
   1   2
Cartesian
  0.0000000000000000  0.0000000000000000  0.0000000000000000
 -0.0000024311760001  2.4223805445230000  1.6632872589790000
  2.0978444311760005  1.2111884554770000  5.4424397410210004
