Al Cu
 1.0000000000000000
     4.1425299999999998    0.0000000000000000    0.0000000000000000
    -2.0712649999999999    3.5875360000000001    0.0000000000000000
     0.0000000000000000    0.0000000000000000    5.0416270000000001
 Al  Cu 
   3   2
Cartesian
  0.0000000000000000  0.0000000000000000  0.0000000000000000
 -0.0000020712650000  2.3916918625120003  1.7719907249440001
  2.0712670712649999  1.1958441374880000  3.2696362750560000
 -0.0000020712650000  2.3916918625120003  4.2374320356030006
  2.0712670712649999  1.1958441374880000  0.8041949643969999
