Fe Pt
 1.0000000000000000
     3.7428919999999999    0.0000000000000000    0.0000000000000000
     0.0000000000000000    3.7428919999999999    0.0000000000000000
     0.0000000000000000    0.0000000000000000    3.7428919999999999
 Fe  Pt 
   3   1
Cartesian
  0.0000000000000000  1.8714459999999999  1.8714459999999999
  1.8714459999999999  1.8714459999999999  0.0000000000000000
  1.8714459999999999  0.0000000000000000  1.8714459999999999
  0.0000000000000000  0.0000000000000000  0.0000000000000000
