Ba P  Pd
 1.0000000000000000
     4.2805720000000003    0.0000000000000000    0.0000000000000000
     0.0000000000000000    4.2805720000000003    0.0000000000000000
     0.0000000000000000    0.0000000000000000    5.7518609999999999
 Ba  P   Pd 
   1   2   2
Cartesian
  0.0000000000000000  0.0000000000000000  0.0000000000000000
  2.1402860000000001  2.1402860000000001  4.0568968486590000
  2.1402860000000001  2.1402860000000001  1.6949641513410001
  2.1402860000000001  0.0000000000000000  2.8759304999999999
  0.0000000000000000  2.1402860000000001  2.8759304999999999
