Fe Pt
 1.0000000000000000
     3.8909919999999998    0.0000000000000000    0.0000000000000000
     0.0000000000000000    3.8909919999999998    0.0000000000000000
     0.0000000000000000    0.0000000000000000    3.8909919999999998
 Fe  Pt 
   1   3
Cartesian
  0.0000000000000000  0.0000000000000000  0.0000000000000000
  0.0000000000000000  1.9454959999999999  1.9454959999999999
  1.9454959999999999  1.9454959999999999  0.0000000000000000
  1.9454959999999999  0.0000000000000000  1.9454959999999999
