Mg Al Si
 1.0000000000000000
     4.0796960000000002    0.0000000000000000    0.0000000000000000
    -2.0398480000000001    3.5331210000000000    0.0000000000000000
     0.0000000000000000    0.0000000000000000    6.6894859999999996
 Mg  Al  Si 
   1   2   2
Cartesian
  0.0000000000000000  0.0000000000000000  0.0000000000000000
 -0.0000020398480001  2.3554151777070000  4.2390804517979994
  2.0398500398480000  1.1777058222929999  2.4504055482019997
 -0.0000020398480001  2.3554151777070000  1.6277660073519999
  2.0398500398480000  1.1777058222929999  5.0617199926479994
