In P  Pt
 1.0000000000000000
     3.9677530000000001    0.0000000000000000    0.0000000000000000
     0.0000000000000000    3.9677530000000001    0.0000000000000000
     0.0000000000000000    0.0000000000000000    7.0257379999999996
 In  P   Pt 
   1   1   5
Cartesian
  1.9838765000000000  1.9838765000000000  0.0000000000000000
  0.0000000000000000  0.0000000000000000  3.5128689999999998
  0.0000000000000000  1.9838765000000000  2.0904521359959998
  0.0000000000000000  1.9838765000000000  4.9352858640040003
  1.9838765000000000  0.0000000000000000  2.0904521359959998
  1.9838765000000000  0.0000000000000000  4.9352858640040003
  0.0000000000000000  0.0000000000000000  0.0000000000000000
