Zr In Ni
 1.0000000000000000
     0.0000000000000000    3.1346720000000001    3.1346720000000001
     3.1346720000000001    0.0000000000000000    3.1346720000000001
     3.1346720000000001    3.1346720000000001    0.0000000000000000
 Zr  In  Ni 
   1   1   2
Cartesian
  3.1346720000000001  3.1346720000000001  3.1346720000000001
  0.0000000000000000  0.0000000000000000  0.0000000000000000
  4.7020080000000002  4.7020080000000002  4.7020080000000002
  1.5673360000000001  1.5673360000000001  1.5673360000000001
