Ga Bi
 1.0000000000000000
     3.1826639999999999    3.1826639999999999    0.0000000000000000
     3.1826639999999999    0.0000000000000000   -3.1826639999999999
     0.0000000000000000    3.1826639999999999   -3.1826639999999999
 Ga  Bi 
   1   1
Cartesian
  4.7739960000000004  4.7739960000000004 -4.7739960000000004
  0.0000000000000000  0.0000000000000000  0.0000000000000000
