Al Te
 1.0000000000000000
     4.0518210000000003   -0.0000000000000000    1.0635840000000001
     1.8354980000000001    7.0041180000000001    1.2571870000000001
    -0.0517560000000000   -0.0553100000000000    8.4468569999999996
 Al  Te 
   2   5
Cartesian
  3.0536177511200000  5.9811128465480001  4.8663498575139998
  2.7819452488800001  0.9676951534520000  5.9012781424860004
  3.6541589566110004  4.9718101774539996  2.5785235642469999
  2.1814040433890001  1.9769978225459997  8.1891044357530003
  0.0000000000000000  0.0000000000000000  0.0000000000000000
  1.1495812615760002  1.6376871102060000  3.8702586871269995
  4.6859817384240001  5.3111208897940001  6.8973693128729998
