Ti B  Rh
 1.0000000000000000
     4.8032490000000001    0.0000000000000000    2.7731580000000000
     1.6010840000000000    4.5285479999999998    2.7731580000000000
     0.0000000000000000    0.0000000000000000    5.5463149999999999
 Ti  B   Rh 
   2   1   6
Cartesian
  1.6010832500000001  1.1321369999999999  2.7731577500000002
  4.8032497500000000  3.3964109999999996  8.3194732499999997
  3.2021665000000001  2.2642739999999999  5.5463155000000004
  2.3753034537000000  3.4336356645599997  6.9784849593000002
  1.5484396327399998  1.0949123354399999  5.5463152417799995
  4.0290295463000003  1.0949123354399999  6.9784849593000002
  4.0290295463000003  1.0949123354399999  4.1141460406999997
  2.3753034537000000  3.4336356645599997  4.1141460406999997
  4.8558933672600002  3.4336356645599997  5.5463157582200004
