Li Si
 1.0000000000000000
     4.4340630000000001    0.0000000000000000    0.0000000000000000
     0.0000000000000000    7.9229649999999996    0.0000000000000000
     0.0000000000000000    0.0000000000000000   15.0795610000000000
 Li  Si 
  26   8
Cartesian
  0.0000000000000000  6.1012138886549989  2.3097514379310002
  0.0000000000000000  2.7542603229500000  7.9340205427839994
  0.0000000000000000  1.2072221770500000  0.3942400427840000
  2.2170315000000000  6.0161450134499992  6.1088206384660007
  0.0000000000000000  1.8217511113449998 12.7698095620690015
  0.0000000000000000  3.2020425358549995 10.4766758003600007
  0.0000000000000000  7.1635250358549998 12.1426656996400002
  2.2170315000000000  4.6930415503100003 11.2289046212840002
  2.2170315000000000  7.1686511942099997  9.1455124735240005
  0.0000000000000000  5.7832336113450005  9.8495319379309993
  2.2170315000000000  1.9068199865500000  8.9707403615340002
  2.2170315000000000  2.0546625134499998  1.4309598615340000
  2.2170315000000000  0.7543138057900000  5.9340485264759995
  2.2170315000000000  5.8683024865500002 13.6486011384659989
  2.2170315000000000  0.7315590503099999 11.3904368787160006
  0.0000000000000000  2.1397313886550000  5.2300290620689998
  2.2170315000000000  3.2299234496899998  3.8506563787160002
  0.0000000000000000  0.0000000000000000  7.5397805000000000
  0.0000000000000000  0.7594399641449999  2.9368953003599998
  2.2170315000000000  3.2071686942099999 13.4738290264760003
  0.0000000000000000  5.1687126000149997  7.1455404572159997
  0.0000000000000000  6.7157348999849997 14.6853209572160015
  2.2170315000000000  7.1914059496899991  3.6891241212839998
  0.0000000000000000  3.9614824999999998  0.0000000000000000
  2.2170315000000000  4.7157963057899996  1.6057319735239999
  0.0000000000000000  4.7209224641449996  4.6028851996400002
  2.2170315000000000  7.3450718558650001  1.0379714223130001
  0.0000000000000000  4.6213862548500000 12.6674344224399995
  0.0000000000000000  3.3015787451500000  2.4121265775600000
  2.2170315000000000  4.5393756441349993  8.5777519223130003
  0.0000000000000000  0.6599037548500000  9.9519070775599996
  2.2170315000000000  3.3835893558649999  6.5018090776870006
  2.2170315000000000  0.5778931441350000 14.0415895776869988
  0.0000000000000000  7.2630612451499994  5.1276539224400004
