Pr Cu
 1.0000000000000000
     5.0905240000000003    0.0000000000000000    0.0000000000000000
    -2.5452620000000001    4.4085229999999997    0.0000000000000000
     0.0000000000000000    0.0000000000000000    4.0710410000000001
 Pr  Cu 
   1   5
Cartesian
  0.0000000000000000  0.0000000000000000  0.0000000000000000
 -0.0000025452620001  2.9390168028410000  0.0000000000000000
  2.5452645452620000  1.4695061971589998  0.0000000000000000
  2.5452620000000001  0.0000000000000000  2.0355205000000001
  1.2726310000000001  2.2042614999999999  2.0355205000000001
 -1.2726310000000001  2.2042614999999999  2.0355205000000001
