Si Pd
 1.0000000000000000
     3.4657450000000001    0.0000000000000000    0.0000000000000000
     0.0000000000000000    5.6399239999999997    0.0000000000000000
     0.0000000000000000    0.0000000000000000    6.1857740000000003
 Si  Pd 
   4   4
Cartesian
  0.8664362500000000  3.8179860312680001  5.7374847724460007
  2.5993087500000001  1.8219379687320001  0.4482892275540000
  0.8664362500000000  0.9980240312680000  3.5411762275539997
  2.5993087500000001  4.6418999687319999  2.6445977724460001
  0.8664362500000000  2.8406548811560000  1.9112742647460002
  2.5993087500000001  2.7992691188440002  4.2744997352540004
  0.8664362500000000  0.0206928811560000  1.1816127352540000
  2.5993087500000001  5.6192311188439996  5.0041612647460001
