Zn Pt
 1.0000000000000000
     2.8917210000000000    0.0000000000000000    0.0000000000000000
     0.0000000000000000    2.8917210000000000    0.0000000000000000
     0.0000000000000000    0.0000000000000000    3.5086889999999999
 Zn  Pt 
   1   1
Cartesian
  1.4458605000000000  1.4458605000000000  1.7543445000000000
  0.0000000000000000  0.0000000000000000  0.0000000000000000
