Sr Cu As
 1.0000000000000000
     4.2525009999999996    0.0000000000000000    0.0000000000000000
    -2.1262509999999999    3.6827740000000002    0.0000000000000000
     0.0000000000000000    0.0000000000000000    8.5726519999999997
 Sr  Cu  As 
   2   2   2
Cartesian
  0.0000000000000000  0.0000000000000000  4.2863259999999999
  0.0000000000000000  0.0000000000000000  0.0000000000000000
  2.1262524595839998  1.2275901057420000  2.1431629999999999
 -0.0000024595840001  2.4551838942580000  6.4294890000000002
 -0.0000024595840001  2.4551838942580000  2.1431629999999999
  2.1262524595839998  1.2275901057420000  6.4294890000000002
