Cd Pt Rh
 1.0000000000000000
     0.0000000000000000    3.2255060000000002    3.2255060000000002
     3.2255060000000002    0.0000000000000000    3.2255060000000002
     3.2255060000000002    3.2255060000000002    0.0000000000000000
 Cd  Pt  Rh 
   2   1   1
Cartesian
  3.2255060000000002  3.2255060000000002  3.2255060000000002
  0.0000000000000000  0.0000000000000000  0.0000000000000000
  1.6127465489880002  1.6127465489880002  1.6127465489880002
  4.8382590000000008  4.8382590000000008  4.8382590000000008
