Sb S 
 1.0000000000000000
     3.8447330000000002    0.0000000000000000    0.0000000000000000
     0.0000000000000000   11.3671410000000002    0.0000000000000000
     0.0000000000000000    0.0000000000000000   11.8001179999999994
 Sb  S  
   8  12
Cartesian
  2.8835497500000002  5.2923589753440003 10.1168311672999991
  0.9611832500000000  6.0747820246559998  1.6832868326999999
  0.9611832500000000 10.9759294753439995  7.5833458327000001
  2.8835497500000002  0.3912115246560000  4.2167721672999994
  0.9611832500000000  1.9674588657029999 11.4100532993920005
  2.8835497500000002  9.3996821342970005  0.3900647006080000
  2.8835497500000002  7.6510293657029997  6.2901237006079995
  0.9611832500000000  3.7161116342970004  5.5099942993919999
  2.8835497500000002  0.6987267901290001 10.3360419593859998
  0.9611832500000000 10.6684142098710009  1.4640760406139999
  0.9611832500000000  6.3822972901290003  7.3641350406139994
  2.8835497500000002  4.9848437098709999  4.4359829593860001
  2.8835497500000002  4.3107836157120003  0.5727895278380000
  0.9611832500000000  7.0563573842879999 11.2273284721620001
  0.9611832500000000  9.9943541157119995  5.3272694721619995
  2.8835497500000002  1.3727868842880000  6.4728485278379990
  0.9611832500000000  2.1432517012679999  3.5429736293819998
  2.8835497500000002  9.2238892987319989  8.2571443706180006
  2.8835497500000002  7.8268222012680004  2.3570853706179999
  0.9611832500000000  3.5403187987320002  9.4430326293819995
