Nd Ag
 1.0000000000000000
     3.7338719999999999    0.0000000000000000    0.0000000000000000
     0.0000000000000000    3.7338719999999999    0.0000000000000000
     0.0000000000000000    0.0000000000000000    3.7338719999999999
 Nd  Ag 
   1   1
Cartesian
  1.8669359999999999  1.8669359999999999  1.8669359999999999
  0.0000000000000000  0.0000000000000000  0.0000000000000000
