Be Ni Ir
 1.0000000000000000
    -0.0000200000000000    2.6989489999999998    2.6989489999999998
     2.6989489999999998   -0.0000200000000000    2.6989489999999998
     2.6989489999999998    2.6989489999999998   -0.0000200000000000
 Be  Ni  Ir 
   2   1   1
Cartesian
  2.6989336021220001  2.6989336021220001  2.6989336021220001
  5.3978779999999995  5.3978779999999995  5.3978779999999995
  4.0484138978780004  4.0484138978780004  4.0484138978779995
  1.3494694999999999  1.3494694999999999  1.3494694999999999
