Al Co
 1.0000000000000000
     7.6047409999999998   -0.0000010000000000    0.0000000000000000
    -3.8023699999999998    6.5858980000000003    0.0000000000000000
     0.0000000000000000    0.0000000000000000    7.5139839999999998
 Al  Co 
  20   8
Cartesian
  0.0000000000000000  0.0000000000000000  0.0000000000000000
  0.0000000000000000  0.0000000000000000  3.7569919999999999
  0.0000004681280000  6.1660860497600005  1.8784959999999999
  2.2647529417919996  3.0830427270720002  5.6354879999999996
  5.3399885263359996  3.0830423226880002  5.6354879999999996
 -1.5376175263359999  3.5028546773120004  1.8784959999999999
  1.5376180582079999  3.5028542729280003  1.8784959999999999
  3.8023705318719996  0.4198109502400000  5.6354879999999996
  0.0000001939599999  2.5548013582000002  7.0568632693759996
  5.3922177504399995  1.2773999700400001  3.2998712693759997
  2.2125234435199999  1.2774003881600000  3.2998712693759997
  1.5898475564799999  5.3084966118399999  7.0568632693759996
 -1.5898467504400000  5.3084970299599998  7.0568632693759996
  3.8023708060399994  4.0310956417999995  0.4571207306240000
  5.3922177504399995  1.2773999700400001  0.4571207306240000
  3.8023708060399994  4.0310956417999995  3.2998712693759997
  2.2125234435199999  1.2774003881600000  0.4571207306240000
  1.5898475564799999  5.3084966118399999  4.2141127306239996
  0.0000001939599999  2.5548013582000002  4.2141127306239996
 -1.5898467504400000  5.3084970299599998  4.2141127306239996
 -0.0000034690370001  4.3906005286330005  5.6354879999999996
  3.8023744690370003  2.1952964713670000  1.8784959999999999
  0.0000039293589999  1.6726664893570000  1.8784959999999999
  6.1561595788509997  0.8363423140089999  5.6354879999999996
  1.4485663386570000  0.8363429330430000  5.6354879999999996
  2.3538046613430006  5.7495540669569998  1.8784959999999999
 -2.3537885788509998  5.7495546859909998  1.8784959999999999
  3.8023670706410000  4.9132305106430003  5.6354879999999996
