Al Mo
 1.0000000000000000
     4.9151509999999998    0.0000000000000000    0.0000000000000000
    -2.4575749999999998    4.2566459999999999    0.0000000000000000
     0.0000000000000000    0.0000000000000000    8.8798670000000008
 Al  Mo 
  10   2
Cartesian
  3.2534121741650002  0.0000000000000000  0.0000000000000000
 -1.6267057561250000  2.8175378370900002  0.0000000000000000
  1.6267064180400002  2.8175378370900002  4.4399335000000004
  0.0000000000000000  0.0000000000000000  6.6599002500000006
  1.6617388258350001  0.0000000000000000  4.4399335000000004
  2.4575781242420001  1.4188805811179999  2.2199667500000002
  0.8308695819600000  1.4391081629100000  0.0000000000000000
  0.0000000000000000  0.0000000000000000  2.2199667500000002
 -0.0000021242420000  2.8377654188819998  6.6599002500000006
 -0.8308692438750001  1.4391081629100000  4.4399335000000004
 -0.0000021242420000  2.8377654188819998  2.2199667500000002
  2.4575781242420001  1.4188805811179999  6.6599002500000006
