Zr Os
 1.0000000000000000
     5.2087459999999997   -0.0000000000000000    0.0000000000000000
    -2.6043740000000000    4.5109069999999996    0.0000000000000000
     0.0000000000000000    0.0000000000000000    8.5883830000000003
 Zr  Os 
   4   8
Cartesian
 -0.0000032710400001  3.0072728369689998  0.5742021106140001
 -0.0000032710400001  3.0072728369689998  3.7199893893860003
  2.6043752710399999  1.5036341630309997  4.8683936106139996
  2.6043752710399999  1.5036341630309997  8.0141808893860009
 -0.0000003448860000  1.5557486716019999  6.4412872500000002
 -1.2570561478400000  3.7330326641989995  6.4412872500000002
  1.3473175072740000  0.7778743358010000  2.1470957500000001
  2.6043723448859999  2.9551583283979994  2.1470957500000001
  0.0000000000000000  0.0000000000000000  0.0000000000000000
  1.2570544927259999  3.7330326641989995  6.4412872500000002
  3.8614281478399999  0.7778743358010000  2.1470957500000001
  0.0000000000000000  0.0000000000000000  4.2941915000000002
