Dy Co Si
 1.0000000000000000
     3.9460039999999998    0.0000000000000000    0.0000000000000000
     0.0000000000000000    3.8930889999999998   -0.9568950000000001
     0.0000000000000000   -0.0161220000000000    8.3322839999999996
 Dy  Co  Si 
   2   2   4
Cartesian
  0.9865010000000000  3.4585247902989997  5.6729590280190001
  2.9595029999999998  0.4184422097010000  1.7024299719810001
  0.9865010000000000  2.6383731925169998  2.3362178002589999
  2.9595029999999998  1.2385938074829999  5.0391711997410003
  2.9595029999999998  2.9110762412800000  3.4457061995519993
  0.9865010000000000  0.9658907587200000  3.9296828004480000
  2.9595029999999998  1.7640779609309998  7.1770880733629996
  0.9865010000000000  2.1128890390690001  0.1983009266369999
