Ca Si O 
 1.0000000000000000
     5.0871170000000001    0.0000000000000000    0.0000000000000000
     0.0000000000000000    6.7545440000000001    0.0000000000000000
     0.0000000000000000    0.0000000000000000   11.2372969999999999
 Ca  Si  O  
   8   4  16
Cartesian
  2.4951851044470001  5.0659080000000003  8.7707103085000000
  5.0387436044470002  1.6886360000000000  8.0852351915000007
  2.5919318955530000  1.6886360000000000  2.4665866914999999
  0.0483733955530000  5.0659080000000003  3.1520618085000001
  2.5435585000000001  3.3772720000000001  5.6186484999999999
  0.0000000000000000  3.3772720000000001  0.0000000000000000
  2.5435585000000001  0.0000000000000000  5.6186484999999999
  0.0000000000000000  0.0000000000000000  0.0000000000000000
  4.7170902836540005  5.0659080000000003  6.6999686411220001
  2.1735317836540000  1.6886360000000000 10.1559768588779988
  0.3700267163460000  1.6886360000000000  4.5373283588779998
  2.9135852163460001  5.0659080000000003  1.0813201411220001
  1.0328933227970001  3.0028000806400001  3.7983524708609999
  3.5764518227970004  3.7517439193600004  1.8202960291389998
  4.0542236772029998  6.3800720806399998  7.4389445291389995
  1.5106651772030000  0.3744719193600000  9.4170009708610003
  4.0542236772029998  3.7517439193600004  7.4389445291389995
  1.5106651772030000  3.0028000806400001  9.4170009708610003
  1.0328933227970001  0.3744719193600000  3.7983524708609999
  3.5764518227970004  6.3800720806399998  1.8202960291389998
  4.0587105143970001  5.0659080000000003  5.1794724586459999
  1.5151520143970001  1.6886360000000000  0.4391760413540000
  1.0284064856030000  1.6886360000000000  6.0578245413539991
  3.5719649856030000  5.0659080000000003 10.7981209586460007
  1.2872339114459999  5.0659080000000003  1.0442145864280001
  3.8307924114460001  1.6886360000000000  4.5744339135720002
  3.7998830885540000  1.6886360000000000 10.1930824135720002
  1.2563245885540000  5.0659080000000003  6.6628630864279996
