Cs K  Sb
 1.0000000000000000
     5.2811360000000001    0.0000000000000000    3.0490629999999999
     1.7603789999999999    4.9791010000000000    3.0490629999999999
    -0.0000000000000000    0.0000000000000000    6.0981280000000000
 Cs  K   Sb 
   1   2   1
Cartesian
  3.5207575000000002  2.4895505000000000  6.0981269999999999
  5.2811362500000003  3.7343257500000000  9.1471904999999989
  1.7603787500000001  1.2447752500000000  3.0490634999999999
  0.0000000000000000  0.0000000000000000  0.0000000000000000
