Np Sn
 1.0000000000000000
     4.6983480000000002    0.0000000000000000    0.0000000000000000
     0.0000000000000000    4.6982359999999996    0.0000000000000000
     0.0000000000000000    0.0000000000000000    4.6983519999999999
 Np  Sn 
   1   3
Cartesian
  0.0000000000000000  0.0000000000000000  0.0000000000000000
  2.3491740000000001  0.0000000000000000  2.3491759999999999
  0.0000000000000000  2.3491179999999998  2.3491759999999999
  2.3491740000000001  2.3491179999999998  0.0000000000000000
