Ti Al Co
 1.0000000000000000
     5.8309530000000001    0.0000000000000000    0.0000000000000000
     0.0000000000000000    5.8309530000000001    0.0000000000000000
     0.0000000000000000    0.0000000000000000    5.8309530000000001
 Ti  Al  Co 
   4   4   8
Cartesian
  0.0000000000000000  0.0000000000000000  2.9154765000000000
  0.0000000000000000  2.9154765000000000  0.0000000000000000
  2.9154765000000000  0.0000000000000000  0.0000000000000000
  2.9154765000000000  2.9154765000000000  2.9154765000000000
  0.0000000000000000  0.0000000000000000  0.0000000000000000
  0.0000000000000000  2.9154765000000000  2.9154765000000000
  2.9154765000000000  0.0000000000000000  2.9154765000000000
  2.9154765000000000  2.9154765000000000  0.0000000000000000
  1.4577382500000000  4.3732147499999998  4.3732147499999998
  4.3732147499999998  1.4577382500000000  1.4577382500000000
  1.4577382500000000  1.4577382500000000  1.4577382500000000
  4.3732147499999998  4.3732147499999998  4.3732147499999998
  4.3732147499999998  4.3732147499999998  1.4577382500000000
  1.4577382500000000  1.4577382500000000  4.3732147499999998
  4.3732147499999998  1.4577382500000000  4.3732147499999998
  1.4577382500000000  4.3732147499999998  1.4577382500000000
