Ba Ru N 
 1.0000000000000000
     8.2289040000000000    0.0000750000000000    0.0000000000000000
    -4.1146500000000001    7.1264550000000000    0.0000000000000000
     0.0000000000000000    0.0000000000000000    5.6498450000000000
 Ba  Ru  N  
   6   2   6
Cartesian
  4.8207235329659994  4.5490337573550006  1.4124612500000000
  5.6437132885499999  0.6768187984499999  1.4124612500000000
  1.8786100888740001  1.9007310637049999  1.4124612500000000
 -0.7059881933640000  2.5793420085899998  4.2373837500000002
 -1.5281055960240004  6.4483500538199996  4.2373837500000002
  2.2338129936479998  5.2253071916250002  4.2373837500000002
  4.1142214118879998  2.3758960741199999  4.2373837500000002
  0.0000325873200000  4.7506624318499995  1.4124612500000000
  4.9225500353760001  4.0311881077800003  4.2373837500000002
  5.1442140641460004  0.8478358129650000  4.2373837500000002
  2.2765091015700003  2.2477093571699998  4.2373837500000002
 -0.8096537692920001  3.0940733641799998  1.4124612500000000
 -1.0303880174460007  6.2805043122300006  1.4124612500000000
  1.8395058993299997  4.8782647924650000  1.4124612500000000
