In Te Mo
 1.0000000000000000
     0.0000000000000000    0.0000000000000000   -4.5926109999999998
    -4.8030770000000000   -8.3157160000000001    0.0000000000000000
    -4.8015230000000004    8.3148839999999993    0.0000000000000000
 In  Te  Mo 
   2   6   6
Cartesian
 -4.8019435477660002 -2.7640724241519998 -3.4444582499999998
 -4.8026564522340003  2.7632404241519994 -1.1481527499999999
 -6.3743754595490003  0.5205094583959986 -3.4444582499999998
 -5.9648681881360002  5.2566819993919989 -3.4444582499999998
 -2.0668506379710001  2.5357961863079996 -3.4444582499999998
 -3.2302245404510002 -0.5213414583960003 -1.1481527499999999
 -3.6397318118640003 -5.2575139993919997 -1.1481527499999999
 -7.5377493620290004 -2.5366281863080009 -1.1481527499999999
 -8.6456625147840001 -1.1847811199040013 -3.4444582499999998
 -1.5047797943010000 -0.2388875587560002 -3.4444582499999998
 -4.2572298987160000 -6.8929874198239993 -3.4444582499999998
 -0.9589374852160001  1.1839491199040000 -1.1481527499999999
 -8.0998202056990003  0.2380555587559993 -1.1481527499999999
 -5.3473701012840005  6.8921554198239994 -1.1481527499999999
