Sc Al Rh
 1.0000000000000000
     0.0000000000000000    3.0954630000000001    3.0954630000000001
     3.0954630000000001    0.0000000000000000    3.0954630000000001
     3.0954630000000001    3.0954630000000001    0.0000000000000000
 Sc  Al  Rh 
   1   1   2
Cartesian
  4.6432006909260002  4.6432006909260002  4.6432006909260002
  1.5477376909259999  1.5477376909259999  1.5477376909259999
  0.0000000000000000  0.0000000000000000  0.0000000000000000
  3.0954630000000001  3.0954630000000001  3.0954630000000001
