Tm Sb Pt
 1.0000000000000000
     3.9899960000000001    0.0000000000000000    2.3036249999999998
     1.3299989999999999    3.7618040000000001    2.3036249999999998
     0.0000000000000000    0.0000000000000000    4.6072509999999998
 Tm  Sb  Pt 
   1   1   1
Cartesian
  2.6599975000000002  1.8809020000000001  4.6072504999999992
  0.0000000000000000  0.0000000000000000  0.0000000000000000
  1.3299987500000001  0.9404510000000000  2.3036252499999996
