Na Li Te
 1.0000000000000000
     4.5973329999999999    0.0000000000000000    0.0000000000000000
     0.0000000000000000    7.6502470000000002    0.0000000000000000
     0.0000000000000000    0.0000000000000000    8.3081429999999994
 Na  Li  Te 
   4   4   4
Cartesian
  3.4479997500000001  3.7266036191340000  5.6985968244149996
  1.1493332500000000  0.0985198808660000  1.5445253244149997
  3.4479997500000001  7.5517271191340010  6.7636176755849995
  1.1493332500000000  3.9236433808659998  2.6095461755849998
  1.1493332500000000  4.9215186488049998  7.6971289312079989
  1.1493332500000000  1.0963951488050001  4.7650855687920002
  3.4479997500000001  2.7287360014419999  0.6110140687919999
  3.4479997500000001  6.5538518511950006  3.5430574312079997
  1.1493332500000000  5.9221174046760003  5.0240088453869998
  1.1493332500000000  2.0969939046760002  7.4382056546129993
  3.4479997500000001  5.5532530953240000  0.8699373453870000
  3.4479997500000001  1.7281295953240001  3.2841341546129996
