Ti Pt
 1.0000000000000000
     5.0455550000000002    0.0000000000000000    0.0000000000000000
     0.0000000000000000    5.0455550000000002    0.0000000000000000
     0.0000000000000000    0.0000000000000000    5.0455550000000002
 Ti  Pt 
   6   2
Cartesian
  0.0000000000000000  1.2613887500000001  2.5227775000000001
  0.0000000000000000  3.7841662500000002  2.5227775000000001
  1.2613887500000001  2.5227775000000001  0.0000000000000000
  3.7841662500000002  2.5227775000000001  0.0000000000000000
  2.5227775000000001  0.0000000000000000  1.2613887500000001
  2.5227775000000001  0.0000000000000000  3.7841662500000002
  2.5227775000000001  2.5227775000000001  2.5227775000000001
  0.0000000000000000  0.0000000000000000  0.0000000000000000
