Ti Al Cu
 1.0000000000000000
     6.0374439999999998    0.0000000000000000    0.0000000000000000
     0.0000000000000000    6.0374439999999998    0.0000000000000000
     0.0000000000000000    0.0000000000000000    6.0374439999999998
 Ti  Al  Cu 
   4   4   8
Cartesian
  0.0000000000000000  0.0000000000000000  3.0187219999999999
  0.0000000000000000  3.0187219999999999  0.0000000000000000
  3.0187219999999999  0.0000000000000000  0.0000000000000000
  3.0187219999999999  3.0187219999999999  3.0187219999999999
  0.0000000000000000  0.0000000000000000  0.0000000000000000
  0.0000000000000000  3.0187219999999999  3.0187219999999999
  3.0187219999999999  0.0000000000000000  3.0187219999999999
  3.0187219999999999  3.0187219999999999  0.0000000000000000
  4.5280829999999996  1.5093610000000000  1.5093610000000000
  1.5093610000000000  4.5280829999999996  4.5280829999999996
  4.5280829999999996  4.5280829999999996  4.5280829999999996
  1.5093610000000000  1.5093610000000000  1.5093610000000000
  1.5093610000000000  1.5093610000000000  4.5280829999999996
  4.5280829999999996  4.5280829999999996  1.5093610000000000
  1.5093610000000000  4.5280829999999996  1.5093610000000000
  4.5280829999999996  1.5093610000000000  4.5280829999999996
