Rb Au
 1.0000000000000000
     5.8182159999999996    0.0000000000000000    0.0000000000000000
    -2.9091070000000001    5.0387219999999999    0.0000000000000000
     0.0000000000000000    0.0000000000000000    4.5008290000000004
 Rb  Au 
   1   5
Cartesian
  0.0000000000000000  0.0000000000000000  0.0000000000000000
  2.9091112424409995  1.6795723204260000  0.0000000000000000
  2.9091079999999998  0.0000000000000000  2.2504145000000002
  1.4545544999999998  2.5193610000000000  2.2504145000000002
 -1.4545535000000001  2.5193610000000000  2.2504145000000002
 -0.0000022424410003  3.3591496795740001  0.0000000000000000
