Sr Er O 
 1.0000000000000000
     3.3674710000000001    0.0000000000000000    0.0000000000000000
     0.0000000000000000    9.9960830000000005    0.0000000000000000
     0.0000000000000000    0.0000000000000000   11.7997789999999991
 Sr  Er  O  
   4   8  16
Cartesian
  2.5256032500000001  7.5271904441619997  7.6705525369609999
  2.5256032500000001  2.5291489441620003 10.0291159630389988
  0.8418677500000000  2.4688925558380004  4.1292264630390001
  0.8418677500000000  7.4669340558380011  1.7706630369609999
  0.8418677500000000  0.7732370043820000  7.1978769897790000
  0.8418677500000000  5.7712785043820007 10.5017915102209987
  0.8418677500000000  0.7593424490120001  1.3203480709839999
  2.5256032500000001  4.2248044956180006  1.2979874897790000
  2.5256032500000001  9.2367405509879994 10.4794309290159990
  0.8418677500000000  5.7573839490120005  4.5795414290159995
  2.5256032500000001  9.2228459956180000  4.6019020102209991
  2.5256032500000001  4.2386990509880000  7.2202375709839997
  0.8418677500000000  9.8386446927500000  3.3463583255049998
  2.5256032500000001  1.2394343233360001  5.6685430329259994
  2.5256032500000001  7.1068351618459999  3.8678259588519999
  0.8418677500000000  2.8892478381540001  7.9319530411479997
  0.8418677500000000  8.7566486766639997  6.1312359670739998
  2.5256032500000001  5.1554798072500008  9.2462478255049998
  2.5256032500000001  6.2374758233360001  0.2313464670740000
  2.5256032500000001  9.2540737589099997  0.9061404287470000
  0.8418677500000000  5.7400507410900001  6.8060299287469999
  0.8418677500000000  3.7586071766640003 11.5684325329259998
  0.8418677500000000  7.8872893381540008  9.7677154588519990
  2.5256032500000001  2.1087936618460001  2.0320635411479997
  0.8418677500000000  0.7420092410900001 10.8936385712529997
  2.5256032500000001  4.2560322589100004  4.9937490712529993
  2.5256032500000001  0.1574383072500000  8.4534206744949980
  0.8418677500000000  4.8406031927500006  2.5535311744949998
