Dy Mg In
 1.0000000000000000
     0.0000000000000000    3.7410670000000001    3.7410670000000001
     3.7410670000000001    0.0000000000000000    3.7410670000000001
     3.7410670000000001    3.7410670000000001    0.0000000000000000
 Dy  Mg  In 
   2   1   1
Cartesian
  5.6116004999999998  5.6116004999999998  5.6116004999999998
  1.8705335000000001  1.8705335000000001  1.8705335000000001
  0.0000000000000000  0.0000000000000000  0.0000000000000000
  3.7410670000000001  3.7410670000000001  3.7410670000000001
