Zn Pd
 1.0000000000000000
    -1.8553260000000000    1.8553260000000000    4.0429789999999999
     1.8553260000000000   -1.8553260000000000    4.0429789999999999
     1.8553260000000000    1.8553260000000000   -4.0429789999999999
 Zn  Pd 
   3   1
Cartesian
  0.0000000000000001  1.8553259999999998  2.0214814140419999
  1.8553260000000000  0.0000000000000000  2.0214814140419999
  0.0000000000000000  0.0000000000000000  4.0429789999999999
  0.0000000000000000  0.0000000000000000  0.0000000000000000
