Rb In Ga F 
 1.0000000000000000
     0.0000000000000000    4.5479580000000004    4.5479580000000004
     4.5479580000000004    0.0000000000000000    4.5479580000000004
     4.5479580000000004    4.5479580000000004    0.0000000000000000
 Rb  In  Ga  F  
   2   1   1   6
Cartesian
  2.2739790000000002  2.2739790000000002  2.2739790000000002
  6.8219370000000001  6.8219370000000001  6.8219370000000001
  0.0000000000000000  0.0000000000000000  0.0000000000000000
  4.5479580000000004  4.5479580000000004  4.5479580000000004
  6.4858701915480008  4.5479580000000004  4.5479580000000004
  4.5479580000000004  2.6100458084520004  4.5479580000000004
  4.5479580000000004  6.4858701915480008  4.5479580000000004
  4.5479580000000004  4.5479580000000004  6.4858701915480008
  4.5479580000000004  4.5479580000000004  2.6100458084520004
  2.6100458084520004  4.5479580000000004  4.5479580000000004
