Zn Ir
 1.0000000000000000
    -1.8437239999999999    1.8437239999999999    4.0120420000000001
     1.8437239999999999   -1.8437239999999999    4.0120420000000001
     1.8437239999999999    1.8437239999999999   -4.0120420000000001
 Zn  Ir 
   3   1
Cartesian
  0.0000000000000002  1.8437203125519999  2.0060210000000001
  1.8437203125519999  0.0000000000000001  2.0060210000000001
  0.0000000000000000  0.0000000000000000  4.0120420000000001
  0.0000000000000000  0.0000000000000000  0.0000000000000000
