Cd Cu F 
 1.0000000000000000
     4.8543159999999999    0.0000000000000000   -2.2269090000000000
    -1.0215900000000000    4.7456019999999999   -2.2269090000000000
    -0.0108890000000000   -0.0134810000000000    6.3805490000000002
 Cd  Cu  F  
   2   2   8
Cartesian
  2.8691000000000000  3.5524610000000001 -0.1500889999999999
  0.9527370000000001  1.1796599999999999  2.0768200000000001
  2.4271579999999999  0.0000000000000000 -1.1134545000000000
 -0.5107950000000000  2.3728009999999999 -1.1134545000000000
  4.1346521165600008  2.1141842635320001 -1.4722676422679999
  3.1510338833520000  0.8962892780920000  2.7878813668520004
 -0.3128151165600000  2.6179367364679997  3.3989986422680003
  0.8640502904320000  0.2451357364680000  4.2068945045600001
  0.6708031166479999  3.8358317219079998 -0.8611503668520001
  1.8476685236399997  1.4630307219079999 -0.0532545045600002
  2.9577867095679995  4.4869852635319996 -2.2801635045600004
  1.9741684763600000  3.2690902780919999  1.9799855045600003
