Nd Cl O 
 1.0000000000000000
     4.0489910000000000    0.0000000000000000    0.0000000000000000
     0.0000000000000000    4.0489910000000000    0.0000000000000000
     0.0000000000000000    0.0000000000000000    6.7890470000000001
 Nd  Cl  O  
   2   2   2
Cartesian
  3.0367432499999998  3.0367432499999998  5.6072911668040000
  1.0122477500000000  1.0122477500000000  1.1817558331960001
  1.0122477500000000  1.0122477500000000  4.2626864632190005
  3.0367432499999998  3.0367432499999998  2.5263605367810000
  3.0367432499999998  1.0122477500000000  0.0000000000000000
  1.0122477500000000  3.0367432499999998  0.0000000000000000
