Sr P  Pd
 1.0000000000000000
     3.9483299999999999   -0.0000000000000000   -1.5791070000000000
    -0.6315530000000000    3.8974929999999999   -1.5791059999999999
     0.0032300000000000    0.0037970000000000    5.7337470000000001
 Sr  P   Pd 
   1   2   2
Cartesian
  0.0000000000000000  0.0000000000000000  0.0000000000000000
  2.0371743732669998  2.3938522175500001 -0.6320120760860001
  1.2828326267329999  1.5074377824500000  3.2075460760860004
  0.5150327499999999  2.9250182499999995  1.2877672500000001
  2.8049742499999999  0.9762717500000000  1.2877667500000003
