Na Ti O 
 1.0000000000000000
     8.3256219999999992    0.0000660000000000    0.0046940000000000
    -3.2617310000000002    7.8585300000000000    0.0019800000000000
    -2.2137270000000000   -3.6966429999999999    9.5746369999999992
 Na  Ti  O  
  16  10  28
Cartesian
  1.4250819999999995  2.0809765000000002  4.7906554999999997
  0.0000000000000000  0.0000000000000000  0.0000000000000000
  3.8921846930869992 -0.4182599394949995  7.8964430337449993
 -1.0420206930870002  4.5802129394950004  1.6848679662549999
  3.8844194024659995  2.1908501529220001  2.8260656212699997
 -1.0342554024660002  1.9711028470780001  6.7552453787299998
  3.3205326304469995 -0.5990280027369997  4.1690888335349996
 -0.4703686304470006  4.7609810027370001  5.4122221664649990
  4.3230819685019988  1.8239718951109998  5.9023997563649990
 -1.4729179685020004  2.3379811048890002  3.6789112436349996
  1.8921618565109988  1.8270070749770002  7.9610750481209998
  0.9580021434889996  2.3349459250230002  1.6202359518789999
  0.0110381780279995  4.4704308250490010  8.5229726369549983
  2.8391258219719995 -0.3084778250490000  1.0583383630449998
  1.3632505375479997 -1.1091782226859999  9.4465244699739994
  1.4869134624519997  5.2711312226859999  0.1347865300260000
  4.4173148083279994  5.1233450410789994  1.4387687325249998
 -1.5671508083280001 -0.9613920410790000  8.1425422674749992
  5.8191121531219991 -0.1897024303250001  2.0031713380929999
 -2.9689481531220006  4.3516554303250006  7.5781396619069987
  1.8816254466499995  4.8047886631390000  3.3068818312409998
  0.9685385533499994 -0.6428356631390001  6.2744291687590001
  6.2787605913779991 -0.5667659355599999  5.0865998396519991
 -3.4285965913780001  4.7287189355599999  4.4947111603479994
  2.3711206464139996  4.4757768546149999  6.4608901361489997
  0.4790433535859998 -0.3138238546150000  3.1204208638509998
  2.4041435638480002  0.4165869620939999  6.1519810219139996
  0.4460204361519996  3.7453660379059999  3.4293299780859998
  5.0260961714809982  4.2939343096269997  0.0333565331390000
 -2.1759321714810000 -0.1319813096270001  9.5479544668609986
  3.3198487200349995  6.5303948235569997  0.6005950707369999
 -0.4696847200350003 -2.3684418235569997  8.9807159292629990
  4.8214125844100000  0.9371501078709998  1.0988700670729998
 -1.9712485844100001  3.2248028921290000  8.4824409329270001
  2.8027009464419996  4.0199171887510001  1.8173262835369997
  0.0474630535579995  0.1420358112490003  7.7639847164629989
  1.1624199872839998  6.2559478547439999  2.3204600708239997
  1.6877440127159999 -2.0939948547439999  7.2608509291759997
  5.3705114271499985  4.0001113572730000  2.8948169042949998
 -2.5203474271499999  0.1618416427269999  6.6864940957050001
  3.7480997055049987  6.1706910688850005  3.4069415577769999
 -0.8979357055050000 -2.0087380688849996  6.1743694422229991
  5.3432119960839994  0.5373159817670001  3.9124713665009998
 -2.4930479960840004  3.6246370182330003  5.6688396334989992
  3.1658656409519996  3.7516318049230009  4.6401924239889993
 -0.3157016409520004  0.4103211950769999  4.9411185760110001
  1.6501365109379991  5.8235843995810006  5.0832933672829999
  1.2000274890620000 -1.6616313995809999  4.4980176327169996
  0.9333196254709988  3.4071290650390003  6.6000264606989987
  1.9168443745289994  0.7548239349610002  2.9812845393009995
  3.6423048323279987  3.4206998276080003  7.4134700164239993
 -0.7921408323280001  0.7412531723920002  2.1678409835759997
 -2.4235847123399998  6.4113970940209999  1.6643677610109999
  5.2737487123399989 -2.2494440940209999  7.9169432389889991
