Ca Sb
 1.0000000000000000
     9.0896450000000009    0.0000000000000000    0.0000000000000000
    -4.5448230000000001    7.8718640000000004    0.0000000000000000
     0.0000000000000000    0.0000000000000000    6.9905390000000001
 Ca  Sb 
  10   6
Cartesian
 -0.0000048781559997  5.2479119572880002  0.0000000000000000
  4.5448268781560008  2.6239520427120002  3.4952695000000000
  4.5448268781560008  2.6239520427120002  0.0000000000000000
 -0.0000048781559997  5.2479119572880002  3.4952695000000000
  2.2922993932600004  0.0000000000000000  1.7476347500000000
  1.1461495705360003  1.9851896384320002  5.2429042500000005
 -3.3986731772760002  5.8866743615680006  5.2429042500000005
 -1.1461498227240001  1.9851896384320002  1.7476347500000000
  3.3986724294640012  5.8866743615680006  1.7476347500000000
  6.7973456067400013  0.0000000000000000  5.2429042500000005
  5.5550183763650010  0.0000000000000000  1.7476347500000000
  2.7775088826140006  4.8107873493680007  5.2429042500000005
 -1.7673135062490002  3.0610766506320002  5.2429042500000005
 -2.7775094937510003  4.8107873493680007  1.7476347500000000
  1.7673131173860002  3.0610766506320002  1.7476347500000000
  3.5346266236350004  0.0000000000000000  5.2429042500000005
