Y  Cu Si
 1.0000000000000000
     3.9806240000000002    0.0000000000000000    0.0000000000000000
     0.0000000000000000    3.9806240000000002    0.0000000000000000
     0.0000000000000000    0.0000000000000000   10.0172810000000005
 Y   Cu  Si 
   2   4   4
Cartesian
  0.0000000000000000  0.0000000000000000  0.0000000000000000
  1.9903120000000001  1.9903120000000001  5.0086405000000003
  0.0000000000000000  1.9903120000000001  7.5129607500000004
  1.9903120000000001  0.0000000000000000  7.5129607500000004
  1.9903120000000001  0.0000000000000000  2.5043202500000001
  0.0000000000000000  1.9903120000000001  2.5043202500000001
  1.9903120000000001  1.9903120000000001  1.1777818135750000
  1.9903120000000001  1.9903120000000001  8.8394991864249999
  0.0000000000000000  0.0000000000000000  6.1864223135750001
  0.0000000000000000  0.0000000000000000  3.8308586864250005
