Lu Ag Sn
 1.0000000000000000
     4.6451729999999998    0.0000000000000000    0.0000000000000000
    -2.3225859999999998    4.0228390000000003    0.0000000000000000
     0.0000000000000000    0.0000000000000000    7.2999429999999998
 Lu  Ag  Sn 
   2   2   2
Cartesian
  0.0000000000000000  0.0000000000000000  3.6691995498620003
  0.0000000000000000  0.0000000000000000  0.0192280498620000
  2.3225889892530001  1.3409449923870000  1.3090184788170001
 -0.0000019892529999  2.6818940076130002  4.9589899788169998
 -0.0000019892529999  2.6818940076130002  2.0589197233780001
  2.3225889892530001  1.3409449923870000  5.7088912233780000
