Nb Au
 1.0000000000000000
     4.7103180000000000    0.0000000000000000    0.0000000000000000
    -2.3551590000000000    4.0792549999999999    0.0000000000000000
     0.0000000000000000    0.0000000000000000    2.7729270000000001
 Nb  Au 
   1   2
Cartesian
  0.0000000000000000  0.0000000000000000  0.0000000000000000
  2.3551613551589998  1.3597503069149999  1.3864635000000001
 -0.0000023551590001  2.7195046930849998  1.3864635000000001
