Li P 
 1.0000000000000000
     4.2192740000000004    0.0000000000000000    0.0000000000000000
    -2.1096370000000002    3.6539980000000001    0.0000000000000000
     0.0000000000000000    0.0000000000000000    7.5470579999999998
 Li  P  
   6   2
Cartesian
  0.0000000000000000  0.0000000000000000  1.8867645000000000
  0.0000000000000000  0.0000000000000000  5.6602934999999999
 -0.0000021096370000  2.4359998846660003  4.4044781429159992
  2.1096391096370004  1.2179981153340000  0.6309491429159999
  2.1096391096370004  1.2179981153340000  3.1425798570839998
 -0.0000021096370000  2.4359998846660003  6.9161088570840006
 -0.0000021096370000  2.4359998846660003  1.8867645000000000
  2.1096391096370004  1.2179981153340000  5.6602934999999999
