Pr In N 
 1.0000000000000000
     5.0788339999999996    0.0000000000000000    0.0000000000000000
     0.0000000000000000    5.0788339999999996    0.0000000000000000
     0.0000000000000000    0.0000000000000000    5.0788339999999996
 Pr  In  N  
   3   1   1
Cartesian
  2.5394169999999998  2.5394169999999998  0.0000000000000000
  0.0000000000000000  2.5394169999999998  2.5394169999999998
  2.5394169999999998  0.0000000000000000  2.5394169999999998
  0.0000000000000000  0.0000000000000000  0.0000000000000000
  2.5394169999999998  2.5394169999999998  2.5394169999999998
