Ba N  O 
 1.0000000000000000
     8.1531400000000005    0.0000000000000000    0.0000000000000000
     0.0000000000000000    8.1531400000000005    0.0000000000000000
     0.0000000000000000    0.0000000000000000    8.1531400000000005
 Ba  N   O  
   4   8  24
Cartesian
  0.0000000000000000  4.0765700000000002  4.0765700000000002
  4.0765700000000002  4.0765700000000002  0.0000000000000000
  4.0765700000000002  0.0000000000000000  4.0765700000000002
  0.0000000000000000  0.0000000000000000  0.0000000000000000
  2.8072891648000002  2.8072891648000002  2.8072891648000002
  2.8072891648000002  1.2692808352000002  6.8838591648000005
  1.2692808352000002  6.8838591648000005  2.8072891648000002
  6.8838591648000005  2.8072891648000002  1.2692808352000002
  5.3458508352000003  5.3458508352000003  5.3458508352000003
  1.2692808352000002  5.3458508352000003  6.8838591648000005
  6.8838591648000005  1.2692808352000002  5.3458508352000003
  5.3458508352000003  6.8838591648000005  1.2692808352000002
  6.3481978668000005  2.3143014015600003  0.2396126314600000
  1.7622685984400002  7.9135273685400005  2.2716278667999998
  1.8049421332000000  6.3908714015600010  3.8369573685400002
  2.2716278667999998  1.7622685984400002  7.9135273685400005
  2.2716278667999998  2.3143014015600003  3.8369573685400002
  3.8369573685400002  2.2716278667999998  2.3143014015600003
  2.3143014015600003  3.8369573685400002  2.2716278667999998
  1.7622685984400002  4.3161826314600003  6.3481978668000005
  7.9135273685400005  1.8049421332000000  5.8388385984399997
  5.8388385984399997  7.9135273685400005  1.8049421332000000
  0.2396126314600000  5.8815121332000002  6.3908714015600010
  4.3161826314600003  6.3481978668000005  1.7622685984400002
  6.3908714015600010  0.2396126314600000  5.8815121332000002
  6.3481978668000005  1.7622685984400002  4.3161826314600003
  5.8815121332000002  6.3908714015600010  0.2396126314600000
  1.8049421332000000  5.8388385984399997  7.9135273685400005
  5.8815121332000002  5.8388385984399997  4.3161826314600003
  4.3161826314600003  5.8815121332000002  5.8388385984399997
  5.8388385984399997  4.3161826314600003  5.8815121332000002
  6.3908714015600010  3.8369573685400002  1.8049421332000000
  0.2396126314600000  6.3481978668000005  2.3143014015600003
  2.3143014015600003  0.2396126314600000  6.3481978668000005
  7.9135273685400005  2.2716278667999998  1.7622685984400002
  3.8369573685400002  1.8049421332000000  6.3908714015600010
