Zn Ge N 
 1.0000000000000000
     5.1933189999999998    0.0000000000000000    0.0000000000000000
     0.0000000000000000    5.4527970000000003    0.0000000000000000
     0.0000000000000000    0.0000000000000000    6.4352929999999997
 Zn  Ge  N  
   4   4   8
Cartesian
  5.1897615764849991  3.1807964324010003  5.6337193392130001
  2.5931020764850001  4.9983990675990002  2.4160728392130002
  2.5931020764850001  2.2720005675990000  0.8015736607870000
  5.1897615764849991  0.4543979324010001  4.0192201607869995
  0.0013294896640000  0.4187584512090001  0.8070822715949999
  2.5979889896640000  5.0340385487910000  5.6282107284049996
  2.5979889896640000  2.3076400487910003  4.0247287715950000
  0.0013294896640000  3.1451569512090001  2.4105642284049997
  2.0379934018940000  3.2590931445240003  5.5319837921759998
  4.6346529018940004  2.1937038554760000  0.9033092078239999
  4.6346529018940004  4.9201023554760006  2.3143372921759999
  2.0379934018940000  0.5326946445240001  4.1209557078239998
  1.8644171009570001  3.0869810600159999  2.5102855287330001
  1.8644171009570001  0.3605825600160000  0.7073609712670000
  4.4610766009570000  5.0922144399840006  5.7279320287330000
  4.4610766009570000  2.3658159399840000  3.9250074712669996
