Sc P  Ru
 1.0000000000000000
     6.5435350000000003    0.0000000000000000    0.0000000000000000
    -3.2717679999999998    5.6668680000000000    0.0000000000000000
     0.0000000000000000    0.0000000000000000    3.6277740000000001
 Sc  P   Ru 
   3   3   3
Cartesian
  1.3431977677140001  2.3264873224560003  1.8138870000000000
  3.8571390540300006  0.0000000000000000  1.8138870000000000
 -1.9285698217439999  3.3403806775440001  1.8138870000000000
  3.2717706051010000  1.8889541110440000  0.0000000000000000
 -0.0000036051010000  3.7779138889560002  0.0000000000000000
  0.0000000000000000  0.0000000000000000  1.8138870000000000
 -0.7964759301519999  1.3795366790519998  0.0000000000000000
  1.5929516168650000  0.0000000000000000  0.0000000000000000
  2.4752913132870002  4.2873313209480006  0.0000000000000000
