Ca Pt
 1.0000000000000000
     7.7242220000000001    0.0000000000000000    0.0000000000000000
     0.0000000000000000    7.7242220000000001    0.0000000000000000
     0.0000000000000000    0.0000000000000000    7.7242220000000001
 Ca  Pt 
   8  16
Cartesian
  4.8276387500000002  4.8276387500000002  0.9655277500000000
  6.7586942500000005  6.7586942500000005  6.7586942500000005
  4.8276387500000002  0.9655277500000000  4.8276387500000002
  6.7586942500000005  2.8965832499999999  2.8965832499999999
  0.9655277500000000  4.8276387500000002  4.8276387500000002
  2.8965832499999999  6.7586942500000005  2.8965832499999999
  0.9655277500000000  0.9655277500000000  0.9655277500000000
  2.8965832499999999  2.8965832499999999  6.7586942500000005
  0.0000000000000000  3.8621110000000001  0.0000000000000000
  5.7931664999999999  3.8621110000000001  5.7931664999999999
  0.0000000000000000  1.9310555000000000  5.7931664999999999
  5.7931664999999999  1.9310555000000000  0.0000000000000000
  0.0000000000000000  0.0000000000000000  3.8621110000000001
  5.7931664999999999  0.0000000000000000  1.9310555000000000
  0.0000000000000000  5.7931664999999999  1.9310555000000000
  5.7931664999999999  5.7931664999999999  3.8621110000000001
  3.8621110000000001  3.8621110000000001  3.8621110000000001
  1.9310555000000000  3.8621110000000001  1.9310555000000000
  3.8621110000000001  1.9310555000000000  1.9310555000000000
  1.9310555000000000  1.9310555000000000  3.8621110000000001
  3.8621110000000001  0.0000000000000000  0.0000000000000000
  1.9310555000000000  0.0000000000000000  5.7931664999999999
  3.8621110000000001  5.7931664999999999  5.7931664999999999
  1.9310555000000000  5.7931664999999999  0.0000000000000000
