Ti Cu S 
 1.0000000000000000
     4.9167529999999999    0.0000000000000000   -2.2534329999999998
    -1.0327869999999999    4.8070589999999997   -2.2534329999999998
     0.0110110000000000    0.0136280000000000    6.5146610000000003
 Ti  Cu  S  
   1   4   4
Cartesian
  0.0000000000000000  0.0000000000000000  0.0000000000000000
  2.4583765000000000  0.0000000000000000 -1.1267164999999999
 -0.5163934999999999  2.4035294999999999 -1.1267164999999999
  1.0081902196650001  1.2478044227939999  2.1997847519670000
  2.8867867803350000  3.5728825772060002 -0.1919897519669997
  3.4247815058679998  4.2387412251970007 -2.3362392870479995
  2.9837133790270003  0.5819457748030000  3.1920455359530004
 -0.0577807120730000  3.0393864414879999  3.1920455359530004
  1.4392398271780000  1.7813005585119999 -0.0322617848579996
