Tc Pt
 1.0000000000000000
     5.5138759999999998   -0.0000030000000000    0.0000000000000000
    -2.7569400000000002    4.7751609999999998    0.0000000000000000
     0.0000000000000000    0.0000000000000000    4.3722760000000003
 Tc  Pt 
   6   2
Cartesian
 -0.0000281993920001  1.5042038934719999  1.0930733722760000
  1.4542527836839998  4.0230663123569999  1.0930733722760000
 -1.4542671814200003  4.0230392438729998  1.0930733722760000
  2.7568925190040003  3.2709541065669998  3.2792113722760003
  1.3026859732439997  0.7521155634390000  3.2792113722760003
  4.2111866398159998  0.7520614542220000  3.2792113722760003
  0.0000482915439997  3.1834555838379996  3.2792113722760003
  2.7569759304639998  1.5917215167520000  1.0930733722760000
