Ce Cu S 
 1.0000000000000000
     6.5289159999999997    0.0400330000000000    0.0000000000000000
    -0.9841480000000000    6.8151750000000000    0.0000000000000000
     0.0000000000000000    0.0000000000000000    7.2404279999999996
 Ce  Cu  S  
   4   4   8
Cartesian
  1.8355324562880000  1.3658447127840001  3.9951016405559994
  4.2013095437120000  2.0817757872159999  0.3748876405559999
  3.7092355437119999  5.4893632872160003  3.2453263594439998
  1.3434584562879999  4.7734322127839999  6.8655403594440001
  5.1414960888320005  6.5699552206720000  6.0359755617719992
  0.4032719111679999  0.2852527793280000  1.2044524382280000
 -0.0888020888320001  3.6928402793280002  2.4157615617719999
  5.6335700888320002  3.1623677206720000  4.8246664382280002
  0.3016868401359999  1.9084801953780002  6.3939278412359997
  5.7351551598640000  1.5391403046219998  2.7737138412359998
  5.2430811598640004  4.9467278046220002  0.8465001587640000
 -0.1903871598640000  5.3160676953779999  4.4667141587639998
  3.3737117468959998  3.4221848141080002  5.2533142566839999
  2.8816377468959997  6.8297723141080002  5.6073277433159996
  2.1710562531040001  3.4330231858920000  1.9871137433159998
  2.6631302531039998  0.0254356858920000  1.6331002566840001
