Fe As
 1.0000000000000000
     2.8738809999999999    0.0000000000000000    0.0000000000000000
     0.0000000000000000    5.2460979999999999    0.0000000000000000
     0.0000000000000000    0.0000000000000000    5.9602180000000002
 Fe  As 
   2   4
Cartesian
  0.0000000000000000  0.0000000000000000  0.0000000000000000
  1.4369405000000000  2.6230490000000000  2.9801090000000001
  0.0000000000000000  0.9381806897320000  2.1621644429879998
  0.0000000000000000  4.3079173102679995  3.7980535570120000
  1.4369405000000000  3.5612296897320004  0.8179445570120000
  1.4369405000000000  1.6848683102680000  5.1422734429880004
