Ti Au
 1.0000000000000000
     5.1136189999999999    0.0000000000000000    0.0000000000000000
     0.0000000000000000    5.1136189999999999    0.0000000000000000
     0.0000000000000000    0.0000000000000000    5.1136189999999999
 Ti  Au 
   6   2
Cartesian
  2.5568095000000000  1.2784047500000000  0.0000000000000000
  2.5568095000000000  3.8352142499999999  0.0000000000000000
  1.2784047500000000  0.0000000000000000  2.5568095000000000
  3.8352142499999999  0.0000000000000000  2.5568095000000000
  0.0000000000000000  2.5568095000000000  1.2784047500000000
  0.0000000000000000  2.5568095000000000  3.8352142499999999
  2.5568095000000000  2.5568095000000000  2.5568095000000000
  0.0000000000000000  0.0000000000000000  0.0000000000000000
