Cu As S 
 1.0000000000000000
     3.7816399999999999    0.0000000000000000    0.0000000000000000
     0.0000000000000000    5.3936180000000000    0.0000000000000000
     0.0000000000000000    0.0000000000000000   11.3277490000000007
 Cu  As  S  
   4   4   4
Cartesian
  0.9454100000000000  2.3521622034180001  3.6907278849370004
  2.8362300000000000  5.0489712034179997  1.9731466150630002
  2.8362300000000000  3.0414557965820004  7.6370211150629999
  0.9454100000000000  0.3446467965820000  9.3546023849370012
  2.8362300000000000  3.5133811907279999  0.1560623979730000
  0.9454100000000000  0.8165721907280000  5.5078121020270006
  2.8362300000000000  4.5770458092720006  5.8199368979730011
  0.9454100000000000  1.8802368092720001 11.1716866020270000
  2.8362300000000000  4.4562665213980006  9.4222970129609998
  2.8362300000000000  3.6341604786019999  3.7584225129610003
  0.9454100000000000  0.9373514786020000  1.9054519870390001
  0.9454100000000000  1.7594575213979999  7.5693264870390005
