Ba P  Pd
 1.0000000000000000
     5.4676460000000002    0.0100600000000000   -1.5637190000000001
    -3.1069779999999998    4.4991040000000000   -1.5637190000000001
    -0.0052670000000000   -0.0100600000000000    5.6868569999999998
 Ba  P   Pd 
   1   4   2
Cartesian
  0.0000000000000000  0.0000000000000000  0.0000000000000000
  1.8790101353250002  1.2291675828599999  3.1905460314699998
 -0.0604411941150000  2.2445219999999999  3.1905460314699998
  2.4158421941150001  2.2545820000000001 -0.6311270314699999
  0.4763908646750004  3.2699364171400003 -0.6311270314700002
  3.3213564999999998  1.1272909999999998  1.2797094999999998
 -0.9659554999999997  3.3718129999999999  1.2797094999999998
