Ce Ta N 
 1.0000000000000000
    -2.0139160000000000    2.0139160000000000    9.9034340000000007
     2.0139160000000000   -2.0139160000000000    9.9034340000000007
     2.0139160000000000    2.0139160000000000   -9.9034340000000007
 Ce  Ta  N  
   3   2   6
Cartesian
  0.0000000000000000  0.0000000000000000  0.0000000000000000
  0.0000000000000000 -0.0000000000000000  3.6167737105360001
 -0.0000000000000001  0.0000000000000001 16.1900942894639996
  0.0000000000000001 -0.0000000000000001 11.8771289755960012
  0.0000000000000000 -0.0000000000000000  7.9297390244040011
  2.0139160000000000  0.0000000000000000  1.6351559877400001
  0.0000000000000000  2.0139160000000000  1.6351559877400010
 -0.0000000000000001  0.0000000000000001 13.8395736501680009
 -0.0000000000000000  0.0000000000000000  5.9672943498320006
  2.0139160000000000  0.0000000000000002  8.2682780122600015
  0.0000000000000000  2.0139160000000000  8.2682780122600015
