Hf Sb Ru
 1.0000000000000000
     6.3184579999999997    0.0000000000000000    0.0000000000000000
     0.0000000000000000    6.3184579999999997    0.0000000000000000
     0.0000000000000000    0.0000000000000000    6.3184579999999997
 Hf  Sb  Ru 
   4   4   4
Cartesian
  0.0000000000000000  0.0000000000000000  0.0000000000000000
  0.0000000000000000  3.1592289999999998  3.1592289999999998
  3.1592289999999998  0.0000000000000000  3.1592289999999998
  3.1592289999999998  3.1592289999999998  0.0000000000000000
  0.0000000000000000  0.0000000000000000  3.1592289999999998
  0.0000000000000000  3.1592289999999998  0.0000000000000000
  3.1592289999999998  0.0000000000000000  0.0000000000000000
  3.1592289999999998  3.1592289999999998  3.1592289999999998
  1.5796144999999999  4.7388434999999998  4.7388434999999998
  1.5796144999999999  1.5796144999999999  1.5796144999999999
  4.7388434999999998  4.7388434999999998  1.5796144999999999
  4.7388434999999998  1.5796144999999999  4.7388434999999998
