Ta Si
 1.0000000000000000
    10.0088939999999997    0.0000000000000000    0.0000000000000000
     0.0000000000000000   10.0088939999999997    0.0000000000000000
     0.0000000000000000    0.0000000000000000    5.1310430000000000
 Ta  Si 
  20  12
Cartesian
  7.8052858524899991  0.7522384463580000  2.5655215000000000
  0.0000000000000000  5.0044469999999999  1.2827607500000000
  2.2036081475099998  0.7522384463580000  0.0000000000000000
  7.8052858524899991  9.2566555536420001  0.0000000000000000
  0.0000000000000000  5.0044469999999999  3.8482822500000000
  0.7522384463580000  2.2036081475099998  2.5655215000000000
  2.2036081475099998  9.2566555536420001  2.5655215000000000
  0.7522384463580000  7.8052858524899991  0.0000000000000000
  9.2566555536420001  7.8052858524899991  2.5655215000000000
  9.2566555536420001  2.2036081475099998  0.0000000000000000
  2.8008388524900001  5.7566854463580004  0.0000000000000000
  5.0044469999999999  0.0000000000000000  3.8482822500000000
  7.2080551475100005  5.7566854463580004  2.5655215000000000
  2.8008388524900001  4.2522085536420002  2.5655215000000000
  5.0044469999999999  0.0000000000000000  1.2827607500000000
  5.7566854463580004  7.2080551475100005  0.0000000000000000
  7.2080551475100005  4.2522085536420002  0.0000000000000000
  5.7566854463580004  2.8008388524900001  2.5655215000000000
  4.2522085536420002  2.8008388524900001  0.0000000000000000
  4.2522085536420002  7.2080551475100005  2.5655215000000000
  6.6596178007800004  1.6551708007799999  0.0000000000000000
  0.0000000000000000  0.0000000000000000  3.8482822500000000
  3.3492761992199998  1.6551708007799999  2.5655215000000000
  8.3537231992199992  3.3492761992199998  2.5655215000000000
  0.0000000000000000  0.0000000000000000  1.2827607500000000
  1.6551708007799999  3.3492761992199998  0.0000000000000000
  1.6551708007799999  6.6596178007800004  2.5655215000000000
  5.0044469999999999  5.0044469999999999  1.2827607500000000
  8.3537231992199992  6.6596178007800004  0.0000000000000000
  3.3492761992199998  8.3537231992199992  0.0000000000000000
  5.0044469999999999  5.0044469999999999  3.8482822500000000
  6.6596178007800004  8.3537231992199992  2.5655215000000000
