Ge Pd
 1.0000000000000000
     6.6931390000000004    0.0000000000000000    0.0000000000000000
    -3.3465690000000001    5.7964289999999998    0.0000000000000000
     0.0000000000000000    0.0000000000000000    3.4979410000000000
 Ge  Pd 
   3   6
Cartesian
  3.3465730132360005  1.9321410678569999  0.0000000000000000
 -0.0000030132360001  3.8642879321430001  0.0000000000000000
  0.0000000000000000  0.0000000000000000  1.7489705000000000
  4.0586057062370005  0.0000000000000000  1.7489705000000000
  1.3172668436899999  2.2815729936930000  1.7489705000000000
 -2.0293025499269999  3.5148560063069998  1.7489705000000000
 -0.8921952954000001  1.5453279713999999  0.0000000000000000
  2.4543710914300005  4.2510952321710000  0.0000000000000000
  1.7843908574000000  0.0000000000000000  0.0000000000000000
