Mn V  Si
 1.0000000000000000
     0.0000000000000000    2.8171189999999999    2.8171189999999999
     2.8171189999999999    0.0000000000000000    2.8171189999999999
     2.8171189999999999    2.8171189999999999    0.0000000000000000
 Mn  V   Si 
   2   1   1
Cartesian
  0.0000000000000000  0.0000000000000000  0.0000000000000000
  2.8171133657620002  2.8171133657620002  2.8171133657620002
  4.2256784999999999  4.2256784999999999  4.2256784999999999
  1.4085595000000000  1.4085595000000000  1.4085595000000000
