Ga Au
 1.0000000000000000
     3.7401490000000002    0.0000000000000000    2.1593779999999998
     1.2467159999999999    3.5262479999999998    2.1593779999999998
     0.0000000000000000    0.0000000000000000    4.3187530000000001
 Ga  Au 
   2   1
Cartesian
  3.7401487499999999  2.6446860000000001  6.4781317499999993
  1.2467162500000000  0.8815620000000000  2.1593772499999999
  0.0000000000000000  0.0000000000000000  0.0000000000000000
