Li Mg Hg
 1.0000000000000000
     0.0000000000000000    3.3559709999999998    3.3559709999999998
     3.3559709999999998    0.0000000000000000    3.3559709999999998
     3.3559709999999998    3.3559709999999998    0.0000000000000000
 Li  Mg  Hg 
   1   2   1
Cartesian
  5.0339497880579991  5.0339497880579991  5.0339497880579991
  0.0000000000000000  0.0000000000000000  0.0000000000000000
  3.3559709999999998  3.3559709999999998  3.3559709999999998
  1.6779854999999999  1.6779854999999999  1.6779854999999999
