Er Co B 
 1.0000000000000000
     4.9517460000000000    0.0000040000000000    0.0000000000000000
    -2.4758700000000000    4.2883420000000001    0.0000000000000000
     0.0000000000000000    0.0000000000000000    2.9678460000000002
 Er  Co  B  
   1   3   2
Cartesian
  0.0000000000000000  0.0000000000000000  0.0000000000000000
  2.4758730000000000  0.0000020000000000  1.4839230000000001
  1.2379380000000000  2.1441729999999999  1.4839230000000001
 -1.2379350000000000  2.1441710000000000  1.4839230000000001
 -0.0000227587260001  2.8589017177720004  0.0000000000000000
  2.4758987587260002  1.4294442822280000  0.0000000000000000
