Ba S 
 1.0000000000000000
     4.2160110000000000    0.0000000000000000    0.0000000000000000
     0.0000000000000000    6.9519549999999999    0.0000000000000000
     0.0000000000000000    0.0000000000000000    6.9519549999999999
 Ba  S  
   2   6
Cartesian
  0.0000000000000000  3.4759774999999999  3.4759774999999999
  0.0000000000000000  0.0000000000000000  0.0000000000000000
  2.0033936190570003  5.7153481965549995  2.2393706965550000
  2.2126173809429996  2.2393706965550000  1.2366068034450000
  0.8917284866100000  0.0000000000000000  3.4759774999999999
  3.3242825133900000  3.4759774999999999  0.0000000000000000
  2.0033936190570003  1.2366068034450000  4.7125843034450003
  2.2126173809429996  4.7125843034450003  5.7153481965549995
