Sm Hg Pd
 1.0000000000000000
     7.7593490000000003    0.0000000000000000    0.0000000000000000
    -3.8796740000000001    6.7197940000000003    0.0000000000000000
     0.0000000000000000    0.0000000000000000    3.8442789999999998
 Sm  Hg  Pd 
   3   3   3
Cartesian
  4.6746818798420007  0.0000000000000000  1.9221394999999999
 -2.3373406386920004  4.0483936536520009  1.9221394999999999
  1.5423337588499999  2.6714003463480003  1.9221394999999999
  2.0792417141340001  0.0000000000000000  0.0000000000000000
  2.8400540089499997  4.9191176809960000  0.0000000000000000
 -1.0396207230840000  1.8006763190040000  0.0000000000000000
  0.0000000000000000  0.0000000000000000  1.9221394999999999
  3.8796785463410006  2.2399290934020000  0.0000000000000000
 -0.0000035463410002  4.4798649065980003  0.0000000000000000
