Sm Bi I  O 
 1.0000000000000000
     3.9894379999999998    0.0000000000000000    0.0000000000000000
     0.0000000000000000    3.9894379999999998    0.0000000000000000
     0.0000000000000000    0.0000000000000000    9.7310669999999995
 Sm  Bi  I   O  
   1   2   1   4
Cartesian
  0.0000000000000000  0.0000000000000000  0.0000000000000000
  1.9947189999999999  1.9947189999999999  7.2082976113169996
  1.9947189999999999  1.9947189999999999  2.5227693886829998
  0.0000000000000000  0.0000000000000000  4.8655334999999997
  0.0000000000000000  1.9947189999999999  8.2990139870789985
  1.9947189999999999  0.0000000000000000  8.2990139870789985
  0.0000000000000000  1.9947189999999999  1.4320530129209998
  1.9947189999999999  0.0000000000000000  1.4320530129209998
