Nd In Pd
 1.0000000000000000
     3.9055569999999999   -6.7646230000000003    0.0000000000000000
     3.9055569999999999    6.7646230000000003    0.0000000000000000
     0.0000000000000000    0.0000000000000000    3.9531849999999999
 Nd  In  Pd 
   3   3   3
Cartesian
  2.2973618885530001  3.9791474226670003  0.0000000000000000
  3.2163902228939998  0.0000000000000001  0.0000000000000000
  2.2973618885530001 -3.9791474226670003  0.0000000000000000
  5.8313637233579998  0.0000000000000002  1.9765925000000000
  0.9898751383209999  1.7145139932189999  1.9765925000000000
  0.9898751383209999 -1.7145139932189999  1.9765925000000000
  3.9055569999999999  2.2548788430820004  1.9765925000000000
  0.0000000000000000  0.0000000000000000  0.0000000000000000
  3.9055569999999999 -2.2548788430820004  1.9765925000000000
