Ti Ge Pd
 1.0000000000000000
     3.8447100000000001    0.0000000000000000    0.0000000000000000
     0.0000000000000000    6.4022480000000002    0.0001400000000000
     0.0000000000000000    0.0001640000000000    7.5521760000000002
 Ti  Ge  Pd 
   4   4   4
Cartesian
  2.8835325000000003  2.9799527012600002  2.3936744804079999
  0.9611775000000000  3.4224336804000002  5.1582110450000007
  2.8835325000000003  6.1810547460879999  1.3827120227600000
  0.9611775000000000  0.2213124488360000  6.1700948677000005
  2.8835325000000003  4.8466005740959996  6.6153439201079998
  0.9611775000000000  4.7569062973599996  2.8387253082079997
  0.9611775000000000  1.5557154076000002  0.9376819823360001
  2.8835325000000003  1.6455441018600001  4.7129336533199995
  0.9611775000000000  0.9157982230399999  3.3104106436160001
  0.9611775000000000  4.1166171632440003  0.4657798478480000
  2.8835325000000003  2.2858908909759998  7.0874801762520008
  2.8835325000000003  5.4866329605800006  4.2408404999879998
