Np S 
 1.0000000000000000
     7.4775869999999998    0.0000000000000000    0.0000000000000000
     0.0000000000000000    8.0770230000000005    0.0000000000000000
     0.0000000000000000    0.0000000000000000   11.8412629999999996
 Np  S  
  12  20
Cartesian
  0.1615607447220000  0.0195302416140000  8.0096671184599995
  3.9003542447220001  8.0574927583860010  9.7522273815399991
  3.5772327552779997  4.0189812583860007  2.0890356184600001
  7.3160262552779995  4.0580417416140007  3.8315958815399997
  7.3160262552779995  8.0574927583860010  3.8315958815399997
  3.5772327552779997  0.0195302416140000  2.0890356184600001
  3.9003542447220001  4.0580417416140007  9.7522273815399991
  0.1615607447220000  4.0189812583860007  8.0096671184599995
  4.1918679739169997  2.0192557500000001  5.9821823850740001
  0.4530744739170000  6.0577672500000004 11.7797121149259993
  7.0245125260829999  2.0192557500000001  0.0615508850740000
  3.2857190260830000  6.0577672500000004  5.8590806149260004
  2.4956521388369999  2.0192557500000001  8.1480441178779994
  6.2344456388370002  6.0577672500000004  9.6138503821219992
  1.2431413611630000  2.0192557500000001  2.2274126178780000
  4.9819348611629994  6.0577672500000004  3.6932188821219998
  7.1538373932479997  2.0192557500000001  5.9346870791810007
  3.4150438932479998  6.0577672500000004 11.8272074208189988
  4.0625431067519999  2.0192557500000001  0.0140555791810000
  0.3237496067520000  6.0577672500000004  5.9065759208189998
  4.9823311732739999  4.3425144916739997  7.0681090910149997
  1.2435376732740000  3.7345085083260003 10.6937854089849989
  6.2340493267259998  7.7730200083260010  1.1474775910150001
  2.4952558267259999  0.3040029916740000  4.7731539089849999
  2.4952558267259999  3.7345085083260003  4.7731539089849999
  6.2340493267259998  4.3425144916739997  1.1474775910150001
  1.2435376732740000  0.3040029916740000 10.6937854089849989
  4.9823311732739999  7.7730200083260010  7.0681090910149997
  6.0376729369320001  2.0192557500000001  9.3252077552340005
  2.2988794369319998  6.0577672500000004  8.4366867447659999
  5.1787075630679995  2.0192557500000001  3.4045762552339998
  1.4399140630680001  6.0577672500000004  2.5160552447660001
