Gd Se
 1.0000000000000000
     3.5659179999999999   -0.0000000000000000    2.0587840000000002
     1.1886380000000001    3.3619810000000001    2.0587840000000002
     0.0000000000000000    0.0000000000000000    4.1175689999999996
 Gd  Se 
   1   1
Cartesian
  0.0000000000000000  0.0000000000000000  0.0000000000000000
  2.3772780000000000  1.6809905000000001  4.1175685000000000
