Ag As F 
 1.0000000000000000
     5.8771930000000001    0.0000000000000000    0.0000000000000000
     2.9385960000000000    5.0898000000000003    0.0000000000000000
     2.9385960000000000    1.6966000000000001    4.7987080000000004
 Ag  As  F  
   1   1   6
Cartesian
  5.8771925000000005  3.3932000000000002  2.3993540000000002
  0.0000000000000000  0.0000000000000000  0.0000000000000000
  4.1748753019359999  4.3760335935999999  1.0094178252160002
  4.1748753019359999  2.4103664064000005  3.7892901747840004
  5.8771927896480003  1.4275328128000002  1.0094178252160002
  5.8771922103519998  5.3588671872000004  3.7892901747840004
  7.5795096980640002  4.3760335935999999  1.0094178252160002
  7.5795096980640002  2.4103664064000005  3.7892901747840004
