Li Sn
 1.0000000000000000
     2.3611770000000001   -1.3632260000000000    6.6018179999999997
     0.0000000000000000    2.7264520000000001    6.6018179999999997
    -2.3611770000000001   -1.3632260000000000    6.6018179999999997
 Li  Sn 
   5   2
Cartesian
  0.0000000000000000  0.0000000000000000  9.9027269999999987
  0.0000000000000000  0.0000000000000000  7.0115466305339993
  0.0000000000000000  0.0000000000000000 12.7939073694659999
  0.0000000000000000  0.0000000000000000  4.2369015524039995
  0.0000000000000001 -0.0000000000000000 15.5685524475960015
 -0.0000000000000000 -0.0000000000000000  1.4606522324999998
 -0.0000000000000002  0.0000000000000001 18.3448017674999981
