Cd Au
 1.0000000000000000
     4.2145539999999997    0.0000000000000000    0.0000000000000000
     0.0000000000000000    4.2145539999999997    0.0000000000000000
     0.0000000000000000    0.0000000000000000    4.2145539999999997
 Cd  Au 
   1   3
Cartesian
  0.0000000000000000  0.0000000000000000  0.0000000000000000
  0.0000000000000000  2.1072769999999998  2.1072769999999998
  2.1072769999999998  0.0000000000000000  2.1072769999999998
  2.1072769999999998  2.1072769999999998  0.0000000000000000
