Ir O 
 1.0000000000000000
     3.1767059999999998    0.0000000000000000    0.0000000000000000
     0.0000000000000000    4.5053140000000003    0.0000000000000000
     0.0000000000000000    0.0000000000000000    4.5053140000000003
 Ir  O  
   2   4
Cartesian
  1.5883529999999999  2.2526570000000001  2.2526570000000001
  0.0000000000000000  0.0000000000000000  0.0000000000000000
  0.0000000000000000  3.1146902648179999  3.1146902648179999
  1.5883529999999999  3.6432807351820005  0.8620332648180001
  0.0000000000000000  1.3906237351820001  1.3906237351820001
  1.5883529999999999  0.8620332648180001  3.6432807351820005
