La O 
 1.0000000000000000
     3.9307780000000001    0.0000000000000000    0.0000000000000000
    -1.9653890000000001    3.4041530000000000    0.0000000000000000
     0.0000000000000000    0.0000000000000000    6.1119539999999999
 La  O  
   2   3
Cartesian
  1.9653909653889998  1.1347165319490000  4.6069708948559995
 -0.0000019653890001  2.2694364680510000  1.5049831051440001
  1.9653909653889998  1.1347165319490000  2.1642979189860001
 -0.0000019653890001  2.2694364680510000  3.9476560810139998
  0.0000000000000000  0.0000000000000000  0.0000000000000000
