Li Si Ni
 1.0000000000000000
     3.3584440000000000    0.0000000000000000    1.9389980000000000
     1.1194809999999999    3.1663720000000000    1.9389980000000000
     0.0000000000000000    0.0000000000000000    3.8779960000000000
 Li  Si  Ni 
   1   1   2
Cartesian
  2.2389625000000000  1.5831860000000000  3.8779960000000000
  0.0000000000000000  0.0000000000000000  0.0000000000000000
  1.1194812500000000  0.7915930000000000  1.9389980000000000
  3.3584437499999997  2.3747790000000002  5.8169940000000002
