Li Ti Ir
 1.0000000000000000
     0.0000000000000000    3.0004849999999998    3.0004849999999998
     3.0004849999999998    0.0000000000000000    3.0004849999999998
     3.0004849999999998    3.0004849999999998    0.0000000000000000
 Li  Ti  Ir 
   1   1   2
Cartesian
  1.5002424999999999  1.5002424999999999  1.5002424999999999
  4.5007214990300000  4.5007214990300000  4.5007214990300000
  0.0000000000000000  0.0000000000000000  0.0000000000000000
  3.0004789990299998  3.0004789990299998  3.0004789990299998
