Li Be Ir
 1.0000000000000000
     0.0000000000000000    2.7382620000000002    2.7382620000000002
     2.7382620000000002    0.0000000000000000    2.7382620000000002
     2.7382620000000002    2.7382620000000002    0.0000000000000000
 Li  Be  Ir 
   1   2   1
Cartesian
  4.1073930000000001  4.1073930000000001  4.1073930000000001
  2.7382674765240003  2.7382674765240003  2.7382674765240003
  0.0000000000000000  0.0000000000000000  0.0000000000000000
  1.3691310000000001  1.3691310000000001  1.3691310000000001
