Cr Sb
 1.0000000000000000
     4.0183320000000000    0.0000000000000000    0.0000000000000000
    -2.0091670000000001    3.4799780000000000    0.0000000000000000
     0.0000000000000000    0.0000000000000000    5.8745500000000002
 Cr  Sb 
   2   2
Cartesian
  0.0000000000000000  0.0000000000000000  0.0000000000000000
  0.0000000000000000  0.0000000000000000  2.9372750000000001
 -0.0000026758330002  2.3199864933260002  1.4686375000000000
  2.0091676758329999  1.1599915066739999  4.4059125000000003
