Ni Se
 1.0000000000000000
     5.2325080000000002    0.0010360000000000   -2.6107399999999998
    -4.2205620000000001    3.0928939999999998   -2.6107399999999998
     0.0003390000000000    0.0010360000000000    5.8476590000000002
 Ni  Se 
   3   3
Cartesian
 -1.0704069027499998  0.8120511534939999 -0.6621284117839999
  0.0073790630950000  0.0225606724840000  1.4976814808709999
  1.3433872564000000  0.0225606724840000 -0.6621284117839998
  2.1631730297320000  1.1949037873499999  1.3380902246660002
  0.7333808040909998  2.2422428581279998 -1.5271163109929995
 -1.0389693551379997  2.2422428581279998  1.3380902246660002
