Na U  I 
 1.0000000000000000
     7.6169880000000001   -3.9067180000000001   -0.0063280000000000
     7.6176130000000004    3.9054929999999999   -0.0083540000000000
     5.6205040000000004    0.0012250000000000    6.4568519999999996
 Na  U   I  
   2   1   6
Cartesian
  6.8705057912000003 -0.0000000000000000  2.1223084848000000
 13.9845992088000006  0.0000000000000000  4.3198615152000004
  0.0000000000000000  0.0000000000000000  0.0000000000000000
 11.5587636072390012  1.4520624281769996  5.8691357282099998
 12.9022022761859994  1.1759534994419998  1.5200462490760001
 12.1599102781099990 -2.6280159276189998  3.9230559511039993
  9.2963413927610006 -1.4520624281770000  0.5730342717900000
  7.9529027238139998 -1.1759534994420000  4.9221237509239995
  8.6951947218899992  2.6280159276189998  2.5191140488959998
