Sc Zn
 1.0000000000000000
     5.8655010000000001    0.0000000000000000    0.0000000000000000
    -2.9327500000000000    5.0796729999999997    0.0000000000000000
     0.0000000000000000    0.0000000000000000    4.3331070000000000
 Sc  Zn 
   2   6
Cartesian
 -0.0000025994170000  3.3864503598909996  3.2498389162139998
  2.9327565321679998  1.6932277197820000  1.0832767500000000
  2.9327479099189997  3.4812980141469998  3.2498389162139998
  1.3842348526610002  0.7991849530899999  3.2498389162139998
  0.0000030900819999  1.5983851451990001  1.0832767500000000
  1.5485190800890007  4.2804829672369999  1.0832767500000000
 -1.5485065064179999  4.2804829672369999  1.0832767500000000
  4.4812604391680004  0.7991849530899999  3.2498389162139998
