Sb Os
 1.0000000000000000
     3.2539699999999998    0.0000000000000000    0.0000000000000000
     0.0000000000000000    6.0138809999999996    0.0000000000000000
     0.0000000000000000    0.0000000000000000    6.7628300000000001
 Sb  Os 
   4   2
Cartesian
  1.6269849999999999  1.9136770730099999  5.8005131051500003
  1.6269849999999999  4.1002039269899999  0.9623168948500000
  0.0000000000000000  1.0932634269899999  2.4190981051499998
  0.0000000000000000  4.9206175730099995  4.3437318948499994
  1.6269849999999999  3.0069404999999998  3.3814150000000001
  0.0000000000000000  0.0000000000000000  0.0000000000000000
