Cs Pt F 
 1.0000000000000000
     6.2194120000000002    0.0000000000000000    0.0000000000000000
    -3.1097060000000001    5.3861689999999998    0.0000000000000000
     0.0000000000000000    0.0000000000000000    4.9917179999999997
 Cs  Pt  F  
   2   1   6
Cartesian
 -0.0000031097060001  3.5907811287230000  3.5187468774060000
  3.1097091097060008  1.7953878712769999  1.4729711225939999
  0.0000000000000000  0.0000000000000000  0.0000000000000000
  4.7994269492199999  0.8198287834900000  3.9198463938599999
  3.1097028902939998  3.7465168191889999  3.9198463938599999
  1.4199788313680000  0.8198287834900000  3.9198463938599999
 -1.6897209492200000  4.5663402165100004  1.0718716061400000
  0.0000031097060001  1.6396521808109998  1.0718716061400000
  1.6897271686320001  4.5663402165100004  1.0718716061400000
