Ba Al Si
 1.0000000000000000
     4.2295210000000001    0.0000000000000000   -0.8794230000000000
    -0.2644110000000000    5.0025040000000001   -1.2716650000000000
    -0.0161780000000000    0.0066130000000000   10.5326939999999993
 Ba  Al  Si 
   3   2   2
Cartesian
  2.1147605000000000  0.0000000000000000 -0.4397115000000000
  3.2228416722420001  4.0834330479779997  4.8895051101220002
  0.7260903277580001  0.9256839520219999  3.4921008898779999
  0.1235899847360000  2.8288109924490001  0.5943870380860000
  3.8253420152639999  2.1803060075510001  7.7872189619139993
  2.5050818798830004  3.1640645617869998  1.4375011671810001
  1.4438501201170002  1.8450524382129998  6.9441048328189998
