Nd Mn Si
 1.0000000000000000
     3.7308230000000000    0.0000000000000000   -1.3261339999999999
    -0.4713780000000000    3.7009240000000001   -1.3261339999999999
     0.0422890000000000    0.0480170000000000    6.0300130000000003
 Nd  Mn  Si 
   1   2   2
Cartesian
  0.0000000000000000  0.0000000000000000  0.0000000000000000
  0.6003167500000000  2.7997014999999998  1.6888725000000002
  2.7014172500000000  0.9492395000000000  1.6888725000000002
  2.0338544521739998  2.3093320642499999 -0.1891755701579997
  1.2678795478259999  1.4396089357499999  3.5669205701580005
