Sn Ir
 1.0000000000000000
     9.5220660000000006    0.0000000000000000    0.0000000000000000
     0.0000000000000000    9.5220660000000006    0.0000000000000000
     0.0000000000000000    0.0000000000000000    9.5220660000000006
 Sn  Ir 
  28  12
Cartesian
  7.9521725006460002  7.9521725006460002  7.9521725006460002
  1.5698934993539999  7.9521725006460002  7.9521725006460002
  7.9521725006460002  7.9521725006460002  1.5698934993539999
  7.9521725006460002  1.5698934993539999  7.9521725006460002
  1.5698934993539999  1.5698934993539999  7.9521725006460002
  1.5698934993539999  7.9521725006460002  1.5698934993539999
  4.7610330000000003  0.0000000000000000  2.3805165000000001
  0.0000000000000000  4.7610330000000003  2.3805165000000001
  2.3805165000000001  0.0000000000000000  4.7610330000000003
  2.3805165000000001  4.7610330000000003  0.0000000000000000
  0.0000000000000000  2.3805165000000001  4.7610330000000003
  4.7610330000000003  2.3805165000000001  0.0000000000000000
  1.5698934993539999  1.5698934993539999  1.5698934993539999
  7.9521725006460002  1.5698934993539999  1.5698934993539999
  3.1911395006460004  3.1911395006460004  3.1911395006460004
  6.3309264993540006  3.1911395006460004  3.1911395006460004
  3.1911395006460004  3.1911395006460004  6.3309264993540006
  3.1911395006460004  6.3309264993540006  3.1911395006460004
  6.3309264993540006  6.3309264993540006  3.1911395006460004
  6.3309264993540006  3.1911395006460004  6.3309264993540006
  0.0000000000000000  4.7610330000000003  7.1415495000000000
  4.7610330000000003  0.0000000000000000  7.1415495000000000
  7.1415495000000000  4.7610330000000003  0.0000000000000000
  7.1415495000000000  0.0000000000000000  4.7610330000000003
  4.7610330000000003  7.1415495000000000  0.0000000000000000
  0.0000000000000000  7.1415495000000000  4.7610330000000003
  6.3309264993540006  6.3309264993540006  6.3309264993540006
  3.1911395006460004  6.3309264993540006  6.3309264993540006
  6.2635959706680007  0.0000000000000000  0.0000000000000000
  0.0000000000000000  0.0000000000000000  3.2584795513980001
  0.0000000000000000  0.0000000000000000  6.2635959706680007
  0.0000000000000000  6.2635959706680007  0.0000000000000000
  0.0000000000000000  3.2584795513980001  0.0000000000000000
  3.2584795513980001  0.0000000000000000  0.0000000000000000
  1.5025629706679999  4.7610330000000003  4.7610330000000003
  4.7610330000000003  4.7610330000000003  8.0195030293320002
  4.7610330000000003  4.7610330000000003  1.5025629706679999
  4.7610330000000003  1.5025629706679999  4.7610330000000003
  4.7610330000000003  8.0195030293320002  4.7610330000000003
  8.0195030293320002  4.7610330000000003  4.7610330000000003
