Zn Ni
 1.0000000000000000
     3.1819530000000000    0.0000000000000000    0.0000000000000000
     0.0000000000000000    3.8135330000000001    0.0000000000000000
     0.0000000000000000    0.0000000000000000    3.8135330000000001
 Zn  Ni 
   2   2
Cartesian
  1.5909765000000000  0.0000000000000000  1.9067665000000000
  1.5909765000000000  1.9067665000000000  0.0000000000000000
  0.0000000000000000  0.0000000000000000  0.0000000000000000
  0.0000000000000000  1.9067665000000000  1.9067665000000000
