Nd I 
 1.0000000000000000
    11.0490200000000005    0.0003850000000000   -0.0000950000000000
    -5.5241780000000000    9.5683170000000004   -0.0004060000000000
    -0.0000340000000000   -0.0001940000000000    4.1335389999999999
 Nd  I  
   2   6
Cartesian
  5.5246066414500001  3.1896248403400000  1.0331778173610000
  0.0002068827279996  6.3788735913430008  3.0998601830449997
  0.0001140045640005  4.0082862473039995  1.0331575730600000
  7.5777105544020005  2.0042141454769999  3.1001098517400001
  3.4714914399700008  2.0041954702100000  3.0998434029649999
  5.5246939940060003  5.5601834780760004  3.0998928293710000
 -2.0528804559879994  7.5642938574269998  1.0328826791410000
  2.0533055109420006  7.5643125290170010  1.0332028642080000
