Ho Mo S 
 1.0000000000000000
     4.5954959999999998   -4.5603150000000001   -0.0106610000000000
     4.5954980000000001    4.5603129999999998   -0.0106650000000000
     0.0851430000000000    0.0000030000000000    6.4736310000000001
 Ho  Mo  S  
   1   6   8
Cartesian
  4.6806450846340004  4.5602931984110002  6.4629271475610004
  3.0171463926479998 -0.8852379994260001  3.6179034306180000
  3.6476357752710000  1.5227212412759998  2.7114823691900001
  6.2590043938460003  0.8852526803649997  2.8344015373870000
  4.5231853052000002 -0.6374729151170002  1.4527586389290001
  5.6285059053679998 -1.5227248015879999  3.7408290937800004
  4.7529565457270007  0.6374784754390000  4.9995657712990003
  5.2057328165039998  2.8491116699339996  4.0788356601060007
  5.1574323339200001  1.7500425603849996  0.8107264996950000
  4.0704135447779999 -2.8491015493020000  2.3734822658260004
  7.0712549770650002  0.0000007623089999  4.9186372889609995
  6.9366027648620001 -1.0990683565549999  1.5904506740430000
  4.1187049215089999 -1.7500415603760000  5.6415979211980005
  2.2048589603080000  0.0000047980069999  1.5336612907209999
  2.3395435112750000  1.0990693565559999  4.8618607782619998
