Ga Cu
 1.0000000000000000
     2.7994360000000000    0.0000000000000000    0.0000000000000000
     0.0000000000000000    2.7994360000000000    0.0000000000000000
     0.0000000000000000    0.0000000000000000    5.8033409999999996
 Ga  Cu 
   2   1
Cartesian
  1.3997180000000000  1.3997180000000000  1.6500233231429999
  1.3997180000000000  1.3997180000000000  4.1533176768570002
  0.0000000000000000  0.0000000000000000  0.0000000000000000
