Eu Al Ge
 1.0000000000000000
     4.2179779999999996    0.0000000000000000    0.0000000000000000
    -2.1089889999999998    3.6528770000000002    0.0000000000000000
     0.0000000000000000    0.0000000000000000    7.1964889999999997
 Eu  Al  Ge 
   1   2   2
Cartesian
  0.0000000000000000  0.0000000000000000  0.0000000000000000
  2.1089911089889997  1.2176244490410000  2.6754387155299999
 -0.0000021089890002  2.4352525509590000  4.5210502844699993
  2.1089911089889997  1.2176244490410000  5.2755373877189999
 -0.0000021089890002  2.4352525509590000  1.9209516122810002
