Sn Br
 1.0000000000000000
     4.2395399999999999    0.0000000000000000    0.0000000000000000
     0.0000000000000000    8.7648670000000006    0.0000000000000000
     0.0000000000000000    0.0000000000000000   10.7006789999999992
 Sn  Br 
   4   8
Cartesian
  1.0598850000000000  7.7549702593930006  1.7710586806109998
  3.1796549999999999  1.0098967406070001  8.9296203193889987
  1.0598850000000000  3.3725367593930002  3.5792808193889996
  3.1796549999999999  5.3923302406070004  7.1213981806110001
  1.0598850000000000  1.4530133566590002  0.5330115216690000
  3.1796549999999999  7.3118536433410011 10.1676674783309995
  1.0598850000000000  5.8354468566589999  4.8173279783309999
  3.1796549999999999  2.9294201433410003  5.8833510216690001
  1.0598850000000000  4.2753618847280004  8.7048418563149994
  3.1796549999999999  4.4895051152720002  1.9958371436849998
  1.0598850000000000  8.6577953847280007  7.3461766436849993
  3.1796549999999999  0.1070716152720000  3.3545023563149998
