Cd Pt O 
 1.0000000000000000
     3.1959279999999999    0.0000000000000000    0.0000000000000000
     0.0000000000000000    5.9073520000000004   -2.0792030000000001
     0.0000000000000000    0.0014690000000000    6.2625799999999998
 Cd  Pt  O  
   1   3   6
Cartesian
  0.0000000000000000  2.9544105000000003  2.0916885000000001
  1.5979639999999999  2.9536760000000002 -1.0396015000000001
  0.0000000000000000  0.0000000000000000  0.0000000000000000
  1.5979639999999999  0.0007345000000000  3.1312899999999999
  0.0000000000000000  5.4548856155020005  2.2414405724769995
  0.0000000000000000  0.4539353844980000  1.9419364275229998
  0.0000000000000000  3.9263781303889997  4.4003857724900000
  0.0000000000000000  1.9824428696109999 -0.2170087724900000
  1.5979639999999999  1.9951887949060001  3.4465442112939995
  1.5979639999999999  3.9136322050939998  0.7368327887060000
