Zr Ge Sb
 1.0000000000000000
     3.8216290000000002    0.0000000000000000    0.0000000000000000
     0.0000000000000000    3.8216290000000002    0.0000000000000000
     0.0000000000000000    0.0000000000000000    8.7151510000000005
 Zr  Ge  Sb 
   2   2   2
Cartesian
  0.9554072500000000  0.9554072500000000  2.1736545260610001
  2.8662217500000002  2.8662217500000002  6.5414964739389996
  0.9554072500000000  2.8662217500000002  0.0000000000000000
  2.8662217500000002  0.9554072500000000  0.0000000000000000
  0.9554072500000000  0.9554072500000000  5.3308399879249997
  2.8662217500000002  2.8662217500000002  3.3843110120750000
