Ti Tc Pd
 1.0000000000000000
     0.0000000000000000    3.1140859999999999    3.1140859999999999
     3.1140859999999999    0.0000000000000000    3.1140859999999999
     3.1140859999999999    3.1140859999999999    0.0000000000000000
 Ti  Tc  Pd 
   2   1   1
Cartesian
  0.0000000000000000  0.0000000000000000  0.0000000000000000
  3.1140859999999999  3.1140859999999999  3.1140859999999999
  4.6711227718279993  4.6711227718279993  4.6711227718279993
  1.5570430000000000  1.5570430000000000  1.5570430000000000
