Na Cl O 
 1.0000000000000000
     4.4587170000000000    0.0000000000000000    0.0000000000000000
     0.0000000000000000    4.4587170000000000    0.0000000000000000
     0.0000000000000000    0.0000000000000000    4.4587170000000000
 Na  Cl  O  
   3   1   1
Cartesian
  2.2293585000000000  0.0000000000000000  0.0000000000000000
  0.0000000000000000  0.0000000000000000  2.2293585000000000
  0.0000000000000000  2.2293585000000000  0.0000000000000000
  2.2293585000000000  2.2293585000000000  2.2293585000000000
  0.0000000000000000  0.0000000000000000  0.0000000000000000
