Sc Ga
 1.0000000000000000
     4.0817569999999996    0.0000000000000000    0.0000000000000000
     0.0000000000000000    4.0817569999999996    0.0000000000000000
     0.0000000000000000    0.0000000000000000    4.0817569999999996
 Sc  Ga 
   1   3
Cartesian
  0.0000000000000000  0.0000000000000000  0.0000000000000000
  2.0408784999999998  2.0408784999999998  0.0000000000000000
  2.0408784999999998  0.0000000000000000  2.0408784999999998
  0.0000000000000000  2.0408784999999998  2.0408784999999998
