Mn Si Tc
 1.0000000000000000
     0.0000000000000000    2.9631040000000000    2.9631040000000000
     2.9631040000000000    0.0000000000000000    2.9631040000000000
     2.9631040000000000    2.9631040000000000    0.0000000000000000
 Mn  Si  Tc 
   1   1   2
Cartesian
  1.4815520000000000  1.4815520000000000  1.4815520000000000
  4.4446560000000002  4.4446560000000002  4.4446560000000002
  0.0000000000000000  0.0000000000000000  0.0000000000000000
  2.9631040000000000  2.9631040000000000  2.9631040000000000
