Na P 
 1.0000000000000000
     4.9202170000000001    0.0000000000000000    0.0000000000000000
    -2.4601080000000000    4.2610340000000004    0.0000000000000000
     0.0000000000000000    0.0000000000000000    8.7652110000000008
 Na  P  
   6   2
Cartesian
  0.0000000000000000  0.0000000000000000  2.1913027500000002
  0.0000000000000000  0.0000000000000000  6.5739082500000006
 -0.0000021267749999  2.8406907536780004  5.0857156655760001
  2.4601111267750002  1.4203432463220000  0.7031101655760000
  2.4601111267750002  1.4203432463220000  3.6794953344240002
 -0.0000021267749999  2.8406907536780004  8.0621008344240011
 -0.0000021267749999  2.8406907536780004  2.1913027500000002
  2.4601111267750002  1.4203432463220000  6.5739082500000006
