Lu Ag Ru
 1.0000000000000000
     0.0000000000000000    3.4048620000000001    3.4048620000000001
     3.4048620000000001    0.0000000000000000    3.4048620000000001
     3.4048620000000001    3.4048620000000001    0.0000000000000000
 Lu  Ag  Ru 
   2   1   1
Cartesian
  0.0000000000000000  0.0000000000000000  0.0000000000000000
  3.4048620000000001  3.4048620000000001  3.4048620000000001
  1.7024310000000000  1.7024310000000000  1.7024310000000000
  5.1072998097240001  5.1072998097240001  5.1072998097240001
