Sr Ga Cu
 1.0000000000000000
     3.9699049999999998    0.0212620000000000    4.3367849999999999
     1.6994170000000000    3.5878389999999998    4.3367849999999999
     0.0333990000000000    0.0212620000000000    5.8793490000000004
 Sr  Ga  Cu 
   1   1   2
Cartesian
  0.0000000000000000  0.0000000000000000  0.0000000000000000
  2.8513604999999997  1.8151815000000000  7.2764594999999996
  1.0752195309449999  0.6844867918349999  2.7438801128549999
  4.6275014690549998  2.9458762081649996 11.8090388871450003
