Pm Dy In
 1.0000000000000000
    -0.0004700000000000    3.7873839999999999    3.7873839999999999
     3.7873839999999999   -0.0004700000000000    3.7873839999999999
     3.7873839999999999    3.7873839999999999   -0.0004700000000000
 Pm  Dy  In 
   1   1   2
Cartesian
  5.6807159257019997  5.6807159257019997  5.6807159257019997
  1.8935669257019998  1.8935669257020000  1.8935669257020000
  0.0000151485960000  0.0000151485960000  0.0000151485960000
  3.7871414257020000  3.7871414257020000  3.7871414257020000
