Nb Si
 1.0000000000000000
     4.8192680000000001    0.0000000000000000    0.0000000000000000
    -2.4096340000000001    4.1736079999999998    0.0000000000000000
     0.0000000000000000    0.0000000000000000    6.6233570000000004
 Nb  Si 
   3   6
Cartesian
 -1.2048170000000000  2.0868039999999999  2.2077834588809999
  1.2048170000000000  2.0868039999999999  4.4155735411190005
  2.4096340000000001  0.0000000000000000  0.0000000000000000
  2.4096364096339999  2.8467888015439997  0.0000000000000000
 -1.2605783403940001  3.5102004875759998  4.4155735411190005
  1.2605735211259996  3.5102004875759998  2.2077834588809999
 -0.0000024096340000  1.3268191984559998  0.0000000000000000
  3.6702123403939999  0.6634075124240000  4.4155735411190005
  1.1490604788740000  0.6634075124240000  2.2077834588809999
