Mn Al Cr
 1.0000000000000000
     0.0000000000000000    3.0712690000000000    3.0712690000000000
     3.0712690000000000    0.0000000000000000    3.0712690000000000
     3.0712690000000000    3.0712690000000000    0.0000000000000000
 Mn  Al  Cr 
   2   1   1
Cartesian
  0.0000000000000000  0.0000000000000000  0.0000000000000000
  3.0712751425380000  3.0712751425380000  3.0712751425380000
  1.5356406425379998  1.5356406425379998  1.5356406425379998
  4.6069034999999996  4.6069034999999996  4.6069034999999996
