Rb Ge F 
 1.0000000000000000
     5.8185609999999999    0.0000000000000000    0.0000000000000000
    -2.9092810000000000    5.0390220000000001    0.0000000000000000
     0.0000000000000000    0.0000000000000000    4.7497470000000002
 Rb  Ge  F  
   2   1   6
Cartesian
 -0.0000032426140002  3.3593496796740001  3.3175367881020001
  2.9092832426139998  1.6796723203260000  1.4322102118980002
  0.0000000000000000  0.0000000000000000  0.0000000000000000
  4.5181299976839995  0.7508041999560000  3.7318904671410005
  2.9092830582789997  3.5374085610660004  3.7318904671410005
  1.3004366718790001  0.7508041999560000  3.7318904671410005
 -1.6088499976840001  4.2882178000440003  1.0178565328589999
 -0.0000030582790001  1.5016134389340001  1.0178565328589999
  1.6088433281210004  4.2882178000440003  1.0178565328589999
