Tl Cd Rh
 1.0000000000000000
     0.0000000000000000    3.2351640000000002    3.2351640000000002
     3.2351640000000002    0.0000000000000000    3.2351640000000002
     3.2351640000000002    3.2351640000000002    0.0000000000000000
 Tl  Cd  Rh 
   1   1   2
Cartesian
  4.8527395296720002  4.8527395296720002  4.8527395296720002
  1.6175755296720000  1.6175755296720000  1.6175755296720000
  0.0000000000000000  0.0000000000000000  0.0000000000000000
  3.2351640000000002  3.2351640000000002  3.2351640000000002
