Pm Sn Hg
 1.0000000000000000
     0.0000000000000000    3.8158050000000001    3.8158050000000001
     3.8158050000000001    0.0000000000000000    3.8158050000000001
     3.8158050000000001    3.8158050000000001    0.0000000000000000
 Pm  Sn  Hg 
   2   1   1
Cartesian
  0.0000000000000000  0.0000000000000000  0.0000000000000000
  3.8158050000000001  3.8158050000000001  3.8158050000000001
  5.7237151316100006  5.7237151316100006  5.7237151316100006
  1.9079101316099998  1.9079101316099998  1.9079101316099998
