Rb H  O 
 1.0000000000000000
     2.0588959999999998   -5.3940450000000002    0.0000000000000000
     2.0588959999999998    5.3940450000000002    0.0000000000000000
     0.0000000000000000    0.0000000000000000    4.2026870000000001
 Rb  H   O  
   2   2   2
Cartesian
  2.0588959999999998 -1.4910219189000002  1.0971534682200001
  2.0588959999999998  1.4910219189000002  3.1984969682199997
  2.0588959999999998 -5.0461506736799997  1.6675925801039999
  2.0588959999999998  5.0461506736799997  3.7689360801040004
  2.0588959999999998 -4.3345574691900008  0.9983062699800000
  2.0588959999999998  4.3345574691900000  3.0996497699800001
