La Sn
 1.0000000000000000
     4.8038499999999997    0.0000000000000000    0.0000000000000000
     0.0000000000000000    4.8038499999999997    0.0000000000000000
     0.0000000000000000    0.0000000000000000    4.8038499999999997
 La  Sn 
   1   3
Cartesian
  0.0000000000000000  0.0000000000000000  0.0000000000000000
  2.4019249999999999  0.0000000000000000  2.4019249999999999
  0.0000000000000000  2.4019249999999999  2.4019249999999999
  2.4019249999999999  2.4019249999999999  0.0000000000000000
