Ac I 
 1.0000000000000000
    11.0362209999999994    0.0000000000000000    0.0000000000000000
    -5.5181100000000001    9.5576460000000001    0.0000000000000000
     0.0000000000000000    0.0000000000000000    4.4144399999999999
 Ac  I  
   2   6
Cartesian
 -0.0000051847770005  6.3717671858819998  3.3108344144399999
  5.5181161847769991  3.1858788141179999  1.1036055855600000
  0.0000002050540000  3.9196670857679998  1.1036055855600000
  2.1235679698509999  7.5978124571160004  1.1036055855600000
 -2.1235782111260004  7.5978124571160004  1.1036055855600000
  5.5181052768349987  5.6379693565860007  3.3108344144399999
  3.3945319939280001  1.9598335428839999  3.3108344144399999
  7.6416892111259997  1.9598335428839999  3.3108344144399999
