Ta S 
 1.0000000000000000
     3.3047330000000001    0.0523470000000000    5.7304500000000003
     1.5741039999999999    2.9062340000000000    5.7304500000000003
     0.0863220000000000    0.0523470000000000    6.6145209999999999
 Ta  S  
   1   2
Cartesian
  0.8279352980910001  0.5020692330720000  3.0140583763290003
  2.8887543319950000  1.7517729650400000 10.5163703149050001
  2.0776509229140001  1.2599107778879999  7.5635876157659991
