Si Sn Pt
 1.0000000000000000
     3.9829940000000001    0.0000000000000000    0.0000000000000000
     0.0000000000000000    3.9829940000000001    0.0000000000000000
     0.0000000000000000    0.0000000000000000    7.0431359999999996
 Si  Sn  Pt 
   1   1   5
Cartesian
  0.0000000000000000  0.0000000000000000  3.5215679999999998
  1.9914970000000001  1.9914970000000001  0.0000000000000000
  0.0000000000000000  1.9914970000000001  2.0815988447999998
  0.0000000000000000  1.9914970000000001  4.9615371552000003
  1.9914970000000001  0.0000000000000000  2.0815988447999998
  1.9914970000000001  0.0000000000000000  4.9615371552000003
  0.0000000000000000  0.0000000000000000  0.0000000000000000
