Ho Ge Au
 1.0000000000000000
     4.4155160000000002    0.0000000000000000    0.0000000000000000
    -2.2077580000000001    3.8239500000000000    0.0000000000000000
     0.0000000000000000    0.0000000000000000    7.3002390000000004
 Ho  Ge  Au 
   2   2   2
Cartesian
  0.0000000000000000  0.0000000000000000  3.3628769960670000
  0.0000000000000000  0.0000000000000000  7.0129964960670002
 -0.0000022077580001  2.5493012746499999  5.5031245648920004
  2.2077602077580001  1.2746487253499998  1.8530050648920000
  2.2077602077580001  1.2746487253499998  4.8825312475020004
 -0.0000022077580001  2.5493012746499999  1.2324117475020000
