Cr Te
 1.0000000000000000
     7.7264549999999996    0.0000530000000000   -0.0003350000000000
    -3.8631799999999998    6.6914819999999997    0.0000260000000000
    -0.0005330000000000   -0.0002690000000000   12.3991059999999997
 Cr  Te 
   8  16
Cartesian
  5.7942024566069987  3.3455326775589995  3.1001488769869998
  3.8630015068139993  0.0006150018640000  3.1003157391949996
  3.8630953742140002  6.6914677410739989  3.0998642734019994
  3.8628443546500000  6.6913064891339999  9.2987725197859987
  1.9323464080370003  3.3451783070849999  3.1001303378680003
  1.9316781815980002  3.3454453182419996  9.2986046245760008
  3.8629320869170001  0.0003400100510000  9.2985544283879999
  5.7940441786200001  3.3454651192100000  9.2985115567059999
 -1.9318152193359996  5.5761541508220001  1.5633939158020000
 -1.9320701367460000  5.5761467855279996  7.7631328992009996
 -0.0000903523750000  4.4608738637469996  4.6358074063170003
 -0.0003259066959997  4.4608732137659999 10.8344552674090000
 -0.0002985614650001  2.2303857141309997  7.7630330980109994
 -0.0000475139950001  2.2305737460930000  1.5634800975489997
  1.9313698450409995  5.5760996828130001  7.7628537995910003
  1.9314393378480001  5.5761338179799997  1.5628792406520000
  1.9311713325969997  1.1149715956750001 10.8354218041989991
  1.9316656916819999  1.1151930505340000  4.6375426717870001
  3.8631293431459994  4.4606460479040004  4.6374129841869998
  3.8628358775959994  4.4608528523119997 10.8352301033030010
  3.8626160933579996  2.2301914314779996  7.7610553467720003
  3.8632302675949997  2.2303660745750000  1.5618867031340002
  5.7943987009579994  1.1154069099180000  4.6373503910530003
  5.7944954197649992  1.1150850889070001 10.8351179080059996
