Na B  O 
 1.0000000000000000
     4.0127769999999998   -5.9193769999999999   -0.0501910000000000
     4.0127740000000003    5.9193749999999996   -0.0501940000000000
    -4.6505070000000002   -0.0000000000000000    5.4329219999999996
 Na  B   O  
   6   6  12
Cartesian
  1.0725714879120001 -3.3339001751859998  3.6778683123659999
  4.8565363103459998  0.7484207239359998  1.2829415603459999
 -0.0227681222030000  2.5854877899999993  4.3711243439779999
  2.3024765248650003  3.3338922558089994  1.6546686374429997
 -1.4814963231260003 -0.7484049658070000  4.0495954898419999
  3.3978201477510002 -2.5854779512499997  0.9614125556340000
  3.5863497052239994 -0.7208987473220001  3.3316363501819999
 -0.2113010547169999  0.7208967473219999  2.0008952168959997
  0.8437613653579998 -1.4417947510719999  1.3331346153579999
  1.8988273398660001  0.7208965037499999  0.6653674848239999
  2.5312826346450006  1.4417809123200001  3.9994023846449998
  1.4762206729079999 -0.7208925843750001  4.6671694649819990
  3.5434401090729994  0.6915768393749998  3.3587938583720001
  2.5312833504990007 -1.3831584124159999  3.9994031004989998
  1.8559184595720000 -0.6915790730410001  0.6925257088710000
  1.5191255404280002  0.6915770730409994  4.6400112911289995
 -0.1683961090730001 -0.6915788393750000  1.9737431416280000
  0.8437606495009999  1.3831564124159998  1.3331338995009998
  0.5192047096699998 -1.3748000212520002  5.2728837060009992
  2.5312823032380001  2.7495960070079990  3.9994020532379997
  4.5433573365850002 -1.3748004857560008  2.7259279236829999
  2.8558426653739999  1.3747980212499999  0.0596586265360000
  0.8437616967620001 -2.7495980070080002  1.3331349467620000
 -1.1683213621360002  1.3747984857579998  2.6066091767019999
