Ta B  Mo
 1.0000000000000000
     1.6116040000000000   -4.2844540000000002    0.0000000000000000
     1.6116040000000000    4.2844540000000002    0.0000000000000000
     0.0000000000000000    0.0000000000000000    3.1220469999999998
 Ta  B   Mo 
   1   2   1
Cartesian
  1.6116039999999998 -3.0334191387240002  0.0000000000000000
  1.6116040000000000  0.5024122138560001  1.5610234999999999
  1.6116039999999998 -0.5165509120559997  0.0000000000000000
  1.6116040000000000  3.0475578369240002  1.5610234999999999
