Hf Cu Si
 1.0000000000000000
     3.9222329999999999    0.0000000000000000    0.0000000000000000
     0.0000000000000000    6.3889540000000000    0.0000000000000000
     0.0000000000000000    0.0000000000000000   13.0286139999999993
 Hf  Cu  Si 
   6   8   8
Cartesian
  0.0000000000000000  0.0000000000000000 11.4155282720460001
  0.0000000000000000  0.0000000000000000  1.6130857279540001
  0.0000000000000000  3.1944770000000000  0.0000000000000000
  1.9611164999999999  3.1944770000000000  4.9012212720459996
  1.9611164999999999  3.1944770000000000  8.1273927279539997
  1.9611164999999999  0.0000000000000000  6.5143069999999996
  1.9611164999999999  4.4304137623460003 10.8115086983920001
  1.9611164999999999  4.4304137623460003  2.2171053016079996
  1.9611164999999999  1.9585402376540002 10.8115086983920001
  1.9611164999999999  1.9585402376540002  2.2171053016079996
  0.0000000000000000  1.2359367623460000  4.2972016983919996
  0.0000000000000000  1.2359367623460000  8.7314123016079996
  0.0000000000000000  5.1530172376539998  4.2972016983919996
  0.0000000000000000  5.1530172376539998  8.7314123016079996
  1.9611164999999999  5.1649645816340000  0.0000000000000000
  1.9611164999999999  1.2239894183660001  0.0000000000000000
  0.0000000000000000  3.1944770000000000 10.2198272221959989
  0.0000000000000000  3.1944770000000000  2.8087867778039999
  0.0000000000000000  1.9704875816340000  6.5143069999999996
  0.0000000000000000  4.4184664183660001  6.5143069999999996
  1.9611164999999999  0.0000000000000000  3.7055202221959997
  1.9611164999999999  0.0000000000000000  9.3230937778040008
