Ti Se
 1.0000000000000000
     3.3914490000000002    0.0000000000000000    0.8697920000000000
     1.6957439999999999    6.8518689999999998    0.4348190000000000
    -0.0064570000000000    0.0000790000000000    7.0719659999999998
 Ti  Se 
   5   4
Cartesian
  0.0000000000000000  0.0000000000000000  0.0000000000000000
  1.1485289000729999  0.4506728201020000  2.5684965544699998
  3.2795063626700003  4.6492175721380002  1.3062589771440001
  1.8012296373300001  2.2027304278619995  7.0703180228560001
  3.9322070999269996  6.4012751798980005  5.8080804455299999
  0.5547496035810000  1.4613784629639999  4.8837200032499997
  3.0284243718799999  2.2590643542080002  2.2852810804339998
  2.0523116281200000  4.5928836457919999  6.0912959195659999
  4.5259863964190004  5.3905695370359998  3.4928569967500001
