Nb Sn C 
 1.0000000000000000
     3.2776749999999999    0.0000000000000000    0.0000000000000000
    -1.6388380000000000    2.8385509999999998    0.0000000000000000
     0.0000000000000000    0.0000000000000000   13.8961380000000005
 Nb  Sn  C  
   4   2   2
Cartesian
 -0.0000019721710001  1.8923682795169998  1.1493217817040000
 -0.0000019721710001  1.8923682795169998  5.7987472182960005
  1.6388389721710002  0.9461827204829999  8.0973907817040001
  1.6388389721710002  0.9461827204829999 12.7468162182960008
 -0.0000019721710001  1.8923682795169998 10.4221035000000004
  1.6388389721710002  0.9461827204829999  3.4740345000000001
  0.0000000000000000  0.0000000000000000  0.0000000000000000
  0.0000000000000000  0.0000000000000000  6.9480690000000003
