Na Sm O 
 1.0000000000000000
     0.0005190000000000    4.6858040000000001   -0.0010280000000000
     4.6858040000000001    0.0005190000000000   -0.0010280000000000
     2.3443339999999999    2.3443339999999999   -5.3435850000000000
 Na  Sm  O  
   2   2   4
Cartesian
  2.3436721960650000  2.3426508039350002 -0.0010280000000000
  4.6861390539349994  2.3445179460650003 -2.6728204999999998
  0.0006220762700000  4.6857009237299998 -0.0010280000000000
  2.3439041737299999  4.6867528262700002 -2.6728204999999998
  2.3437247396940002  2.3438184453940001 -2.9838042663530002
  2.3446165103059999  4.6871653046060002 -5.0326012336470001
  2.3434916953939999  4.6860404896940002 -0.3130397663530000
  4.6868385546060001  4.6869322603059995 -2.3618367336469999
