Be S  O 
 1.0000000000000000
     3.9571410000000000    0.0001720000000000   -2.1567240000000001
    -1.1755160000000000    3.7786209999999998   -2.1565270000000001
    -0.0112520000000000   -0.0155280000000000    4.6879860000000004
 Be  S   O  
   1   1   4
Cartesian
  0.1020222500000000  2.8262447499999999  0.1874167500000001
  0.0000000000000000  0.0000000000000000  0.0000000000000000
  0.5900709899559999  1.3298465454869999 -0.1843601409789998
 -0.4385732806350001  2.8046687379919999  1.7115297772060003
  2.5350472040450001  0.0429892266100000  2.1353071470800002
  2.8542010866339997  3.3490254899109999 -2.9130067833070004
