Nd Si Ni
 1.0000000000000000
     2.5669849999999999   -4.1051900000000003    0.0000000000000000
     2.5669849999999999    4.1051900000000003    0.0000000000000000
     0.0000000000000000    0.0000000000000000    3.9256579999999999
 Nd  Si  Ni 
   1   1   4
Cartesian
  0.0000000000000000  0.0000000000000000  0.0000000000000000
  2.5669849999999999  0.0000000000000000  1.9628289999999999
  2.5669849999999999  1.2962301632600004  0.0000000000000000
  2.5669849999999999 -1.2962301632600004  0.0000000000000000
  1.2834924999999999 -2.0525950000000002  1.9628289999999999
  1.2834924999999999  2.0525950000000002  1.9628289999999999
