Si W 
 1.0000000000000000
     9.6796950000000006    0.0000000000000000    0.0000000000000000
     0.0000000000000000    9.6796950000000006    0.0000000000000000
     0.0000000000000000    0.0000000000000000    4.9898259999999999
 Si  W  
  12  20
Cartesian
  0.0000000000000000  0.0000000000000000  1.2474565000000000
  0.0000000000000000  0.0000000000000000  3.7423694999999997
  8.0541934983450005  3.2143459983450002  2.4949129999999999
  8.0541934983450005  6.4653490016550004  0.0000000000000000
  6.4653490016550004  8.0541934983450005  2.4949129999999999
  6.4653490016550004  1.6255015016550001  0.0000000000000000
  4.8398475000000003  4.8398475000000003  3.7423694999999997
  4.8398475000000003  4.8398475000000003  1.2474565000000000
  3.2143459983450002  8.0541934983450005  0.0000000000000000
  3.2143459983450002  1.6255015016550001  2.4949129999999999
  1.6255015016550001  3.2143459983450002  0.0000000000000000
  1.6255015016550001  6.4653490016550004  2.4949129999999999
  2.1675547419600001  8.9514044278950013  2.4949129999999999
  7.5121402580400005  0.7282905721050000  2.4949129999999999
  4.8398475000000003  0.0000000000000000  3.7423694999999997
  4.8398475000000003  0.0000000000000000  1.2474565000000000
  0.7282905721050000  2.1675547419600001  2.4949129999999999
  8.9514044278950013  7.5121402580400005  2.4949129999999999
  7.5121402580400005  8.9514044278950013  0.0000000000000000
  8.9514044278950013  2.1675547419600001  0.0000000000000000
  0.7282905721050000  7.5121402580400005  0.0000000000000000
  2.1675547419600001  0.7282905721050000  0.0000000000000000
  7.0074022419600004  4.1115569278950002  0.0000000000000000
  2.6722927580400002  5.5681380721049996  0.0000000000000000
  0.0000000000000000  4.8398475000000003  1.2474565000000000
  0.0000000000000000  4.8398475000000003  3.7423694999999997
  5.5681380721049996  7.0074022419600004  0.0000000000000000
  4.1115569278950002  2.6722927580400002  0.0000000000000000
  2.6722927580400002  4.1115569278950002  2.4949129999999999
  4.1115569278950002  7.0074022419600004  2.4949129999999999
  5.5681380721049996  2.6722927580400002  2.4949129999999999
  7.0074022419600004  5.5681380721049996  2.4949129999999999
