Hf Ge Se
 1.0000000000000000
     3.7003379999999999    0.0000000000000000    0.0000000000000000
     0.0000000000000000    3.7003379999999999    0.0000000000000000
     0.0000000000000000    0.0000000000000000    8.2128239999999995
 Hf  Ge  Se 
   2   2   2
Cartesian
  2.7752534999999998  2.7752534999999998  6.0752230205759998
  0.9250845000000000  0.9250845000000000  2.1376009794240001
  2.7752534999999998  0.9250845000000000  0.0000000000000000
  0.9250845000000000  2.7752534999999998  0.0000000000000000
  0.9250845000000000  0.9250845000000000  5.1050010573359996
  2.7752534999999998  2.7752534999999998  3.1078229426639998
