Li Mg As
 1.0000000000000000
     3.7698920000000000    0.0000000000000000    2.1765490000000001
     1.2566310000000001    3.5542889999999998    2.1765490000000001
     0.0000000000000000    0.0000000000000000    4.3530970000000000
 Li  Mg  As 
   1   1   1
Cartesian
  0.0000000000000000  0.0000000000000000  0.0000000000000000
  2.5132615000000000  1.7771444999999999  4.3530975000000005
  1.2566307500000000  0.8885722500000000  2.1765487500000003
