Ba Bi O 
 1.0000000000000000
     6.1743519999999998    0.0000000000000000    0.0000000000000000
     0.0000000000000000    6.2171149999999997   -0.0283420000000000
     0.0000000000000000    0.0011010000000000    8.7182870000000001
 Ba  Bi  O  
   4   4  12
Cartesian
  0.0776795225120000  3.0758488825719996  6.5306429984819996
  6.0966724774880001  3.1423671174279999  2.1593020015180002
  3.0094964774879998  6.1838558825719998  2.1573284984820003
  3.1648555225119996  0.0343601174280000  6.5326165015180004
  3.0871759999999999  3.1085574999999999 -0.0141710000000000
  0.0000000000000000  0.0000000000000000  0.0000000000000000
  0.0000000000000000  0.0005505000000000  4.3591435000000001
  3.0871759999999999  3.1091080000000000  4.3449724999999999
  1.6767996444000000  1.5271459092489998  8.4007323383079999
  6.1250868453920004  5.8056178680029999  6.4328118319540000
  1.5902969728799998  1.4017356626219999  4.6708602295710007
  4.5840550271199998  4.8164803373779996  4.0190847704290000
  1.4968790271200001  4.5097426626220001  0.2975457295710000
  4.6774729728800004  1.7084733373779999  8.3923992704289994
  1.4103763556000000  4.6351529092489994  4.0274178383079997
  4.7639756444000003  1.5830630907509999  4.6625271616920001
  0.0492651546080000  0.4125981319970000  2.2571331680460003
  3.0379108453919996  3.5217061319970000  6.6021056680459997
  3.1364411546079998  2.6965098680029995  2.0878393319540001
  4.4975523555999999  4.6910700907509995  0.2892126616920000
