Cd Sb Au
 1.0000000000000000
     6.6857290000000003    0.0000000000000000    0.0000000000000000
     0.0000000000000000    6.6857290000000003    0.0000000000000000
     0.0000000000000000    0.0000000000000000    6.6857290000000003
 Cd  Sb  Au 
   4   4   4
Cartesian
  0.0000000000000000  0.0000000000000000  3.3428645000000001
  0.0000000000000000  3.3428645000000001  0.0000000000000000
  3.3428645000000001  0.0000000000000000  0.0000000000000000
  3.3428645000000001  3.3428645000000001  3.3428645000000001
  0.0000000000000000  0.0000000000000000  0.0000000000000000
  0.0000000000000000  3.3428645000000001  3.3428645000000001
  3.3428645000000001  0.0000000000000000  3.3428645000000001
  3.3428645000000001  3.3428645000000001  0.0000000000000000
  1.6714322500000001  5.0142967499999997  5.0142967499999997
  1.6714322500000001  1.6714322500000001  1.6714322500000001
  5.0142967499999997  5.0142967499999997  1.6714322500000001
  5.0142967499999997  1.6714322500000001  5.0142967499999997
