Nb B 
 1.0000000000000000
     3.1753950000000000    0.0000000000000000    0.0000000000000000
     0.0000000000000000    3.0983800000000001   -1.1713050000000000
     0.0000000000000000    0.0033690000000000    4.6925429999999997
 Nb  B  
   2   2
Cartesian
  2.3815462500000000  0.4513475252700000  1.1939129659500001
  0.7938487500000000  2.6504014747300002  2.3273250340499998
  2.3815462500000000  1.3725056310210000  3.6306108874769993
  0.7938487500000000  1.7292433689790001 -0.1093728874770000
