Ca Al Ga
 1.0000000000000000
     3.9880909999999998   -0.0000000000000000   -1.4438240000000000
    -0.5227140000000000    3.9536870000000000   -1.4438240000000000
     0.0082610000000000    0.0094260000000000    6.2526330000000003
 Ca  Al  Ga 
   1   2   2
Cartesian
  0.0000000000000000  0.0000000000000000  0.0000000000000000
  0.6091177500000000  2.9699782500000000  1.6824925000000002
  2.8645202499999995  0.9931347500000000  1.6824925000000002
  1.3487309954060001  1.5387828537710000  3.7254386730230005
  2.1249070045939997  2.4243301462289999 -0.3604536730230000
