Li In Au
 1.0000000000000000
     3.9660009999999999    0.0000000000000000    2.2897720000000001
     1.3220010000000000    3.7391809999999999    2.2897720000000001
     0.0000000000000000    0.0000000000000000    4.5795440000000003
 Li  In  Au 
   2   1   1
Cartesian
  1.3220004999999999  0.9347952500000000  2.2897720000000001
  2.6440009999999998  1.8695904999999999  4.5795440000000003
  0.0000000000000000  0.0000000000000000  0.0000000000000000
  3.9660015000000000  2.8043857499999998  6.8693160000000004
