Er Mg Hg
 1.0000000000000000
     0.0000000000000000    3.5345659999999999    3.5345659999999999
     3.5345659999999999    0.0000000000000000    3.5345659999999999
     3.5345659999999999    3.5345659999999999    0.0000000000000000
 Er  Mg  Hg 
   1   1   2
Cartesian
  1.7672829999999999  1.7672829999999999  1.7672829999999999
  5.3018489999999998  5.3018489999999998  5.3018489999999998
  0.0000000000000000  0.0000000000000000  0.0000000000000000
  3.5345659999999999  3.5345659999999999  3.5345659999999999
