Ti Cu Te
 1.0000000000000000
     3.9243679999999999    0.0000000000000000   -0.7896080000000000
    -0.1653980000000000    7.1245960000000004   -0.8220390000000000
     0.0061910000000000   -0.1419540000000000   10.1776820000000008
 Ti  Cu  Te 
   2   4   6
Cartesian
  2.4451819938720005  3.9527851615040004  2.0057057636600004
  1.3199790061280001  3.0298568384959998  6.5603292363400012
  2.6545823197159999  6.5369869220560002  3.0464288222470004
  1.1105786802840001  0.4456550779440000  5.5196061777530003
  0.0713928697430000  4.6356963161579996  0.3548305134060001
  3.6937681302569998  2.3469456838420002  8.2112044865940010
  2.9064464876409994  1.9838431126580001  4.2981946002930007
  0.8587145123590000  4.9987988873420006  4.2678403997070005
  2.1492595920510000  6.1279134210940001  0.5349511914559999
  1.6159014079489999  0.8547285789060002  8.0310838085440004
  3.4812835410869996  4.6439422569580007  7.1551481750520010
  0.2838774589130000  2.3386997430420000  1.4108868249480000
