Nd Dy Mg
 1.0000000000000000
     0.0000000000000000    3.8379970000000001    3.8379970000000001
     3.8379970000000001    0.0000000000000000    3.8379970000000001
     3.8379970000000001    3.8379970000000001    0.0000000000000000
 Nd  Dy  Mg 
   1   1   2
Cartesian
  5.7569955000000004  5.7569955000000004  5.7569955000000004
  1.9189985000000001  1.9189985000000001  1.9189985000000001
  3.8379893240060001  3.8379893240060001  3.8379893240060001
  0.0000000000000000  0.0000000000000000  0.0000000000000000
