Na Nb S 
 1.0000000000000000
     3.4266920000000001   -0.0000000000000000    0.0000000000000000
    -1.7133470000000000    2.9676030000000000    0.0000000000000000
     0.0000000000000000    0.0000000000000000   14.1565259999999995
 Na  Nb  S  
   2   2   4
Cartesian
  0.0000000000000000  0.0000000000000000  0.0000000000000000
  0.0000000000000000  0.0000000000000000  7.0782629999999997
  0.0000000000000000  0.0000000000000000  3.5391314999999999
  0.0000000000000000  0.0000000000000000 10.6173944999999996
 -0.0000023800130001  1.9784029892010000  1.9791389609040000
 -0.0000023800130001  1.9784029892010000  5.0991240390960000
  1.7133473800130001  0.9892000107990000  9.0574019609040004
  1.7133473800130001  0.9892000107990000 12.1773870390959988
