Tm Ag Sn
 1.0000000000000000
     4.6655980000000001    0.0000000000000000    0.0000000000000000
    -2.3327990000000001    4.0405270000000000    0.0000000000000000
     0.0000000000000000    0.0000000000000000    7.3348969999999998
 Tm  Ag  Sn 
   2   2   2
Cartesian
  0.0000000000000000  0.0000000000000000  3.6096348418459998
  0.0000000000000000  0.0000000000000000  7.2770833418460006
 -0.0000023327990000  2.6936860135090002  5.9574326829880002
  2.3328013327990003  1.3468409864910000  2.2899841829879999
  2.3328013327990003  1.3468409864910000  5.2240383366489995
 -0.0000023327990000  2.6936860135090002  1.5565898366489999
