Ba Ga
 1.0000000000000000
     4.4025319999999999    0.0000000000000000    0.0000000000000000
    -2.2012659999999999    3.8127040000000001    0.0000000000000000
     0.0000000000000000    0.0000000000000000    5.1864559999999997
 Ba  Ga 
   1   2
Cartesian
  0.0000000000000000  0.0000000000000000  0.0000000000000000
 -0.0000022012660001  2.5418039375679999  2.5932279999999999
  2.2012682012660001  1.2709000624319999  2.5932279999999999
