Ce Al
 1.0000000000000000
     4.8668300000000002    0.0000000000000000    2.8098649999999998
     1.6222760000000001    4.5884910000000003    2.8098660000000000
     0.0000000000000000    0.0000000000000000    5.6197299999999997
 Ce  Al 
   2   4
Cartesian
  5.6779677500000005  4.0149296250000006  9.8345283749999997
  0.8111382500000001  0.5735613750000000  1.4049326249999998
  3.2445530000000002  2.2942455000000002  5.6197304999999993
  3.2445530000000002  2.2942455000000002  2.8098654999999999
  0.8111380000000000  2.2942455000000002  4.2147980000000000
  2.4334150000000001  0.0000000000000000  4.2147974999999995
