Lu Nb Ru
 1.0000000000000000
     0.0000000000000000    3.2285499999999998    3.2285499999999998
     3.2285499999999998    0.0000000000000000    3.2285499999999998
     3.2285499999999998    3.2285499999999998    0.0000000000000000
 Lu  Nb  Ru 
   1   1   2
Cartesian
  1.6142685428999999  1.6142685428999999  1.6142685428999999
  4.8428314571000000  4.8428314571000000  4.8428314571000000
  0.0000000000000000  0.0000000000000000  0.0000000000000000
  3.2285435428999998  3.2285435428999998  3.2285435428999998
