Hf Mn Si
 1.0000000000000000
     3.6601859999999999    0.0000000000000000    0.0000000000000000
     0.0000000000000000    6.5222100000000003    0.0000000000000000
     0.0000000000000000    0.0000000000000000    7.6017120000000000
 Hf  Mn  Si 
   4   4   4
Cartesian
  0.9150465000000000  3.4410723405299999  2.4382947342720001
  2.7451395000000001  3.0811376594700004  5.1634172657279995
  0.9150465000000000  0.1799673405300000  1.3625612657280000
  2.7451395000000001  6.3422426594700001  6.2391507342720001
  2.7451395000000001  5.6001456056700007  3.3033923650079999
  0.9150465000000000  0.9220643943300000  4.2983196349919996
  2.7451395000000001  2.3390406056699997  0.4974636349920000
  0.9150465000000000  4.1831693943300001  7.1042483650079999
  0.9150465000000000  1.7840331457200000  6.6713232648960004
  2.7451395000000001  4.7381768542799998  0.9303887351040000
  0.9150465000000000  5.0451381457200002  4.7312447351039992
  2.7451395000000001  1.4770718542800001  2.8704672648959999
