Pt O 
 1.0000000000000000
     5.6026470000000002    0.0000010000000000   -0.0000000000000000
     0.0000010000000000    5.6026759999999998    0.0000000000000000
    -0.0000000000000000    0.0000000000000000    5.6026330000000000
 Pt  O  
   6   8
Cartesian
  2.8013237500010000  1.4006751026759998  0.0000280131650000
  2.8013242499989999  4.2020018973240001  0.0000280131650000
  5.6026418973499998  2.8013221919709999  4.2019579421010000
  5.6026362947020010  2.8013165892939997  1.4006750578989999
  4.2020244685320005  0.0000175580350000  2.8012884868350003
  1.4006505447090001  0.0000170580260000  2.8012884868350003
  4.2020023079400000  1.4006641473269998  1.4006694552660000
  1.4006563973530000  1.4006692499989999  4.2019579421010000
  1.4006344867639999  4.2020016473189994  1.4006750578989999
  4.2020028079429999  4.2020189553549994  4.2019523394679998
  1.4006512947070000  4.2020128526739997  4.2019579421010000
  4.2020084105890003  4.2020133526799999  1.4006750578989999
  1.4006451920609999  1.4006804553490000  1.4006750578989999
  4.2019967052920002  1.4006585446499999  4.2019635447340002
