Na Sc Br
 1.0000000000000000
     3.6185779999999999   -6.2691699999999999   -0.0002380000000000
     3.6184660000000002    6.2691049999999997    0.0005790000000000
     0.0006150000000000    0.0008420000000000   13.1409559999999992
 Na  Sc  Br 
   6   2  12
Cartesian
  3.6189795680680001 -2.0892309679920000  6.1308685244559999
  3.6186516899829999 -2.0894639933300003  0.4394022179320000
  3.6188892918389999  2.0900330232909998  7.0101262450790003
  3.6192714527829999  2.0904604006659997 12.7017371173399987
  0.0006457854490000  0.0009010619930000  9.8555724757449994
  3.6187500061190003  6.2689267929389993  3.2855157388229999
  3.6190742880890001 -2.0887415259310003  9.8558433476729999
  3.6186462332130005  2.0896251108199997  3.2856113536419995
  2.4801441742049999 -0.2664301311790001 11.4340846672729981
  4.6280531103309999 -3.9865258796649998  8.2779063699190001
  1.4712224297670000 -2.0149415540779998  8.2778335287439990
  4.7577655844090003 -0.2662077270699997  8.2777606724760009
  5.7666823825389999 -2.0137560468989997 11.4339942596689994
  2.6103464723070005 -3.9868572558620001 11.4332701738719997
  2.4793542682749998  0.2673797094669998  4.8638779927109992
  5.7667911859630001  2.0146904005549997  4.8632794475869998
  2.6097470073320004  3.9872088337569997  4.8632723619989999
  4.7565776463779992  0.2670755104430003  1.7075670858010001
  1.4708318928950002  2.0153229915200002  1.7078021413100000
  4.6275766751610004  3.9874649783569995  1.7078954179849999
