Mn Ir
 1.0000000000000000
     2.6631629999999999    0.0000000000000000    0.0000000000000000
     0.0000000000000000    2.6631629999999999    0.0000000000000000
     0.0000000000000000    0.0000000000000000    3.6642310000000000
 Mn  Ir 
   1   1
Cartesian
  1.3315815000000000  1.3315815000000000  1.8321155000000000
  0.0000000000000000  0.0000000000000000  0.0000000000000000
