Li N  Cl
 1.0000000000000000
     3.4950040000000002    0.0017090000000000    5.8940799999999998
     1.6174240000000000    3.0982249999999998    5.8940799999999998
     0.0028190000000000    0.0017090000000000    6.8523880000000004
 Li  N   Cl 
   4   1   1
Cartesian
  4.6166127224400002  2.7992948403600000 16.8234673809600004
  0.4986342775600000  0.3023481596400000  1.8170806190400000
  3.3532745946150002  2.0332665604350000 12.2197180386599999
  1.7619724053850001  1.0683764395649999  6.4208299613399999
  0.0000000000000000  0.0000000000000000  0.0000000000000000
  2.5576235000000000  1.5508214999999999  9.3202739999999995
