Mg Ga
 1.0000000000000000
     7.6486489999999998   -0.0000030000000000    0.0000000000000000
    -3.8243260000000001    6.6239220000000003    0.0000000000000000
     0.0000000000000000    0.0000000000000000    6.9830730000000001
 Mg  Ga 
  12   6
Cartesian
 -2.2110264992460000  4.1431306615620000  5.2373047499999998
  1.3417827751700000  2.6375452580100003  5.2373047499999998
  0.8692445484019997  6.4671584565060005  5.2373047499999998
  5.1661031454020003  3.9863660655060000  1.7457682500000000
  1.6132907285449998  2.4807900728850001  1.7457682500000000
  4.6935704774040001  0.1567598616120000  1.7457682500000000
  2.0819316632039997 -0.0000008165880000  0.0000000000000000
  2.7833575766919996  4.8209147438760001  3.4915365000000000
 -1.0409662398960000  1.8030050727119999  3.4915365000000000
 -1.0409662398960000  1.8030050727119999  0.0000000000000000
  2.7833575766919996  4.8209147438760001  0.0000000000000000
  2.0819316632039997 -0.0000008165880000  3.4915365000000000
  3.8243278243249996  2.2079697920250001  3.7453153389659999
  3.8243278243249996  2.2079697920250001  6.7292941610339998
 -0.0000048243250005  4.4159492079750002  3.2377576610340002
 -0.0000048243250005  4.4159492079750002  0.2537788389660000
  0.0000000000000000  0.0000000000000000  5.2373047499999998
  0.0000000000000000  0.0000000000000000  1.7457682500000000
