Lu Co B 
 1.0000000000000000
     3.3003749999999998    0.0000000000000000   -0.0000000000000000
     0.0000010000000000    5.8201260000000001   -0.0000010000000000
    -0.0000010000000000   -0.0000030000000000   11.2695760000000007
 Lu  Co  B  
   4   4  16
Cartesian
  1.6501943222649997  2.1615303253920000  1.6890160620350001
  1.6501872785059999  3.6586508759009999  9.5804349726190008
  1.6501869788409997  0.7485186354300001  7.3226097297590007
  1.6501847207779998  5.0715519834450005  3.9469314615220004
  1.6501874539689998  2.1189320425170002  4.6216640231059998
  1.6501842456559999  3.7012782593279998  6.6480800205190009
  1.6501867258180001  0.7909640334000000 10.2562606684820015
  1.6501882741610001  5.0290600244460002  1.0133594098390000
  0.0000033655610000  0.6512777793810000  0.5264581309390001
  3.3003716344080001  5.1687229979430001 10.7432295648420002
 -0.0000001586240000  2.2587368793210003  6.1612458547489997
  3.3003751586289996  3.5615025231539996  5.1084981888709997
 -0.0000003304360000  0.8008712139840000  5.2746122134360007
  3.3003753304090000  5.0191412035980001  5.9950529431910002
 -0.0000006056500000  2.1091118161590003 10.9093211016250002
  3.3003756056659999  3.7111101259800003  0.3602651679340000
 -0.0000001696080000  0.1292353223910000  2.1616511590830001
  3.3003751696059997  5.6908120160040010  9.1077998755940008
  3.3003714856099995  2.7807842858789997  7.7963260077400003
  0.0000035144120000  3.0394260160319999  3.4731701052130006
 -0.0000000998830000  1.2511457215380000  3.5482483277830004
  3.3003717995030000  4.5689016168479997  7.7212365156220004
  3.3003744701819997  1.6588615082520000  9.1829010228180010
  0.0000005298440000  4.1613487936709994  2.0865500118310001
