Zr Cu Os
 1.0000000000000000
     0.0000000000000000    3.2719559999999999    3.2719559999999999
     3.2719559999999999    0.0000000000000000    3.2719559999999999
     3.2719559999999999    3.2719559999999999    0.0000000000000000
 Zr  Cu  Os 
   2   1   1
Cartesian
  0.0000000000000000  0.0000000000000000  0.0000000000000000
  3.2719494560880000  3.2719494560880000  3.2719494560880000
  1.6359779999999999  1.6359779999999999  1.6359779999999999
  4.9079405439119999  4.9079405439119999  4.9079405439119999
