La Rh O 
 1.0000000000000000
     5.5048139999999997    0.0000000000000000    0.0000000000000000
     0.0000000000000000    5.7615629999999998    0.0000000000000000
     0.0000000000000000    0.0000000000000000    7.9019389999999996
 La  Rh  O  
   4   4  12
Cartesian
  2.6623262237040000  3.2429936811209998  5.9264542499999999
  5.4147332237039993  5.3993508188789994  1.9754847499999999
  0.0900807762960000  0.3622121811210000  5.9264542499999999
  2.8424877762960001  2.5185693188789999  1.9754847499999999
  2.7524069999999998  0.0000000000000000  3.9509694999999998
  0.0000000000000000  2.8807814999999999  3.9509694999999998
  0.0000000000000000  2.8807814999999999  0.0000000000000000
  2.7524069999999998  0.0000000000000000  0.0000000000000000
  4.4386966726199999  1.1496392347680000  3.5600763815479999
  1.6862896726199998  1.7311422652319999  4.3418626184519997
  3.8185243273800000  4.0304207347679997  0.3908931184520000
  1.0661173273800000  4.6119237652319995  7.5110458815480001
  1.0661173273800000  4.6119237652319995  4.3418626184519997
  3.8185243273800000  4.0304207347679997  3.5600763815479999
  1.6862896726199998  1.7311422652319999  7.5110458815480001
  4.4386966726199999  1.1496392347680000  0.3908931184520000
  2.2160674671659999  0.1416019338510000  1.9754847499999999
  4.9684744671659997  2.7391795661489997  5.9264542499999999
  0.5363395328339999  3.0223834338509996  1.9754847499999999
  3.2887465328340002  5.6199610661490000  5.9264542499999999
