Rb Sn O 
 1.0000000000000000
     5.3449460000000002    3.7335099999999999    0.0000000000000000
    -5.3449460000000002    3.7335099999999999    0.0000000000000000
     0.0000000000000000    0.0000000000000000    5.7805640000000000
 Rb  Sn  O  
   4   2   6
Cartesian
 -1.7169463136880003  4.7924155732200004  1.4586964225799999
 -1.7169463136880001  2.6746044267800002  4.3489784225800001
  1.7169463136880001  2.6746044267799998  4.3489784225800001
  1.7169463136880001  4.7924155732199996  1.4586964225799999
 -0.0000000000000002  6.8204507381999999  4.2707847333519995
 -0.0000000000000000  0.6465692618000000  1.3805027333520001
 -4.0065341069780001  3.8066083922899998  2.8551303903159999
 -4.0065341069780001  3.6604116077100000  5.7454123903159999
  0.0000000000000001  4.8860146689199997  4.0964082397279995
 -0.0000000000000001  2.5810053310800001  1.2061262397279999
  4.0065341069780001  3.6604116077099995  5.7454123903159999
  4.0065341069780001  3.8066083922899998  2.8551303903159999
