Sr Sb Pt
 1.0000000000000000
     4.5071740000000000    0.0000000000000000    0.0000000000000000
    -2.2535880000000001    3.9033259999999999    0.0000000000000000
     0.0000000000000000    0.0000000000000000    4.6399809999999997
 Sr  Sb  Pt 
   1   1   1
Cartesian
  0.0000000000000000  0.0000000000000000  0.0000000000000000
  2.2535889202539998  1.3011073655579999  2.3199904999999998
 -0.0000029202540000  2.6022186344420000  2.3199904999999998
