Ca Mg Tl
 1.0000000000000000
     0.0000000000000000    3.8730099999999998    3.8730099999999998
     3.8730099999999998    0.0000000000000000    3.8730099999999998
     3.8730099999999998    3.8730099999999998    0.0000000000000000
 Ca  Mg  Tl 
   2   1   1
Cartesian
  3.8730099999999998  3.8730099999999998  3.8730099999999998
  0.0000000000000000  0.0000000000000000  0.0000000000000000
  1.9365127460199998  1.9365127460199998  1.9365127460199998
  5.8095227460199999  5.8095227460199999  5.8095227460199999
