Sc Ge Ru
 1.0000000000000000
     6.9618640000000003    0.0000000000000000    0.0000000000000000
    -3.4809320000000001    6.0291509999999997    0.0000000000000000
     0.0000000000000000    0.0000000000000000    3.4649939999999999
 Sc  Ge  Ru 
   3   3   3
Cartesian
  1.3941341515920000  2.4147111504059997  0.0000000000000000
  4.1735956968160002  0.0000000000000000  0.0000000000000000
 -2.0867978484080001  3.6144398495939996  0.0000000000000000
  3.4809354809320001  2.0097149902829998  1.7324970000000000
  0.0000000000000000  0.0000000000000000  0.0000000000000000
 -0.0000034809320000  4.0194360097169994  1.7324970000000000
 -0.8785802749360001  1.5217456540979999  1.7324970000000000
  2.6023517250640000  4.5074053459019998  1.7324970000000000
  1.7571605498720002  0.0000000000000000  1.7324970000000000
