Yb Mg Tl
 1.0000000000000000
     0.0000000000000000    3.6644139999999998    3.6644139999999998
     3.6644139999999998    0.0000000000000000    3.6644139999999998
     3.6644139999999998    3.6644139999999998    0.0000000000000000
 Yb  Mg  Tl 
   1   1   2
Cartesian
  0.0000000000000000  0.0000000000000000  0.0000000000000000
  3.6644139999999998  3.6644139999999998  3.6644139999999998
  1.8322069999999999  1.8322069999999999  1.8322069999999999
  5.4966209999999993  5.4966209999999993  5.4966209999999993
