Ne
 1.0000000000000000
     2.5689129999999998    0.0000000000000000    1.4831630000000000
     0.8563040000000000    2.4219960000000000    1.4831630000000000
     0.0000000000000000    0.0000000000000000    2.9663270000000002
 Ne 
   1
Cartesian
  0.0000000000000000  0.0000000000000000  0.0000000000000000
