Ta Ga Os
 1.0000000000000000
     0.0000000000000000    3.1039010000000000    3.1038999999999999
     3.1038999999999999   -0.0000020000000000    3.1039029999999999
     3.1038960000000002    3.1039010000000000    0.0000010000000000
 Ta  Ga  Os 
   1   1   2
Cartesian
  4.6558407922039997  4.6558437921999998  4.6558467921959998
  1.5519490000000000  1.5519500000000002  1.5519510000000001
  3.1038968960999997 -0.0000019999980000  3.1038998960969999
  3.1038980000000000  3.1039000000000003  3.1039020000000002
