Sm Al Pd
 1.0000000000000000
     5.4254110000000004    0.0000000000000000    0.0000000000000000
    -2.7127050000000001    4.6985409999999996    0.0000000000000000
     0.0000000000000000    0.0000000000000000    4.1928640000000001
 Sm  Al  Pd 
   1   3   2
Cartesian
  0.0000000000000000  0.0000000000000000  0.0000000000000000
  2.7127055000000002  0.0000000000000000  2.0964320000000001
  1.3563530000000001  2.3492704999999998  2.0964320000000001
 -1.3563525000000001  2.3492704999999998  2.0964320000000001
 -0.0000023793720000  3.1323622328470000  0.0000000000000000
  2.7127083793720002  1.5661787671529999  0.0000000000000000
