Sr C  N  Cl
 1.0000000000000000
     2.1514050000000000    4.8582280000000004    0.0000000000000000
    -2.1514050000000000    4.8582280000000004    0.0000000000000000
     0.0000000000000000    0.9985050000000000    7.2749180000000004
 Sr  C   N   Cl 
   2   1   2   2
Cartesian
 -0.0000000000000001  3.3550657388750005  1.9784503246900000
  0.0000000000000001  7.3598952611250006  5.2964676753100006
  0.0000000000000000  0.4992525000000000  3.6374590000000002
 -0.0000000000000000  9.0406298415680002  3.2438568365280003
  0.0000000000000000  1.6743311584320000  4.0310611634720006
 -0.0000000000000000  6.2684779381930005  1.0733777763100001
  0.0000000000000000  4.4464830618070001  6.2015402236900004
