Li Al N 
 1.0000000000000000
    -4.7101559999999996    4.7102180000000002    4.7102149999999998
     4.7102269999999997   -4.7101449999999998    4.7102130000000004
     4.7102310000000003    4.7102199999999996   -4.7101420000000003
 Li  Al  N  
  24   8  16
Cartesian
  3.5391550777710004  5.7527347379229994 -1.4296435544550001
  1.1713021199400000  5.7528652208509996  1.4298388665509998
  3.5390491641150006  3.6676477497720001 -3.2805571446340003
  3.6677819315219997  3.2805692130059998  1.1712148038270005
  3.2805748690050001  1.1712175221900005  3.6677691070680001
 -1.4296525362960000  3.5391504458290006  5.7527234732409989
  5.7528678202380004  1.4298512746779997  1.1712962508839999
 -3.2805715780759996  3.5390441891680000  3.6676485118379998
  5.7527310143059998 -1.4296383892909998  3.5391457711910004
  1.4298426957670005  1.1712990190859998  5.7528585618710002
  3.6676580473739997 -3.2805638072139995  3.5390403502300001
  1.1712193943550007  3.6677739455669998  3.2805647033310001
  1.1711422120730000 -1.0424370277049999  6.1399342646699999
  3.5389951698329996 -1.0425675107060002  3.2804424232360003
  1.1712434154980000  1.0426452502260009  7.9908525649910001
  1.0425200684780003  1.4297237869940000  3.5390711961729999
  1.4297271309950004  3.5390754778100000  1.0425168929319997
  6.1399498261399996  1.1711472643890000 -1.0424327630260002
 -1.0425705303899997  3.2804558559050001  3.5389850389760000
  3.5390826056450000  1.0425190544329999  1.4297212966690001
 -1.0424384346889994  6.1399408096539991  1.1711402288109998
  3.2804593042330001  3.5389939809139994 -1.0425725618709998
  1.0426439526260012  7.9908568072139996  1.1712456497699997
  7.9908735780760001  1.1712488108319998  1.0426374881619997
  1.0865018115680001  1.0865656781299999  1.0865263819850002
  1.0866025478210004 -1.0864883265550001  3.6236804450880000
 -1.0864068010000001  5.7967446470829991  3.6237079857910000
  3.6237508049990002 -1.0864371576199998  5.7967426652820002
  3.6237719273580007  3.6237650033970001  3.6237596180940002
  3.6236947420230008  5.7967860367730006  1.0866102651269995
  1.0865857719260004  3.6236768590550006  5.7967977239779991
  5.7967734848449997  1.0865898678379999  3.6237610449330004
  2.3551588334750004  6.7518444935769999  0.0000512297059998
  0.0000355000000001  0.0000365000000002  4.7102140000000006
  4.7102290000000000  0.0000374999999999  0.0000355000000001
  0.0000375000000004  4.7102190000000004  0.0000364999999998
  0.0000341371910004  2.3551253206329998  2.0416228265880001
  2.3551478767559999 -2.0415467833570000  4.7102300601520000
 -2.0415558279259995  4.7102398369470002  2.3551469538109999
  2.3551307540750002  2.0416254937980001  0.0000335706330000
  0.0000507962000000  2.3551524000450006  6.7518368263730002
  2.6686684616259995  4.7102632061430008  2.3551683230240004
  2.3551759561560006  2.6686722164219998  4.7102477192250003
  6.7518578279970001  0.0000531631259999  2.3551484666170004
  2.0416241179910002  0.0000392142200000  2.3551176769780002
  4.7102631526529999  2.3551723895850003  2.6686678836270001
  4.7102464936440001  2.3551453101729996 -2.0415461161580000
  0.0000000000000000  0.0000000000000000  0.0000000000000000
