Ti Sn
 1.0000000000000000
     5.7169819999999998    0.0000490000000000   -1.7081980000000001
     0.0000680000000000    7.0297939999999999   -0.0000360000000000
    -0.0030100000000000   -0.0000510000000000   10.4429230000000004
 Ti  Sn 
   8  12
Cartesian
  0.4649939249820000  3.1847666161810002  1.5434745041860003
  3.3521202258559994  1.7588347984079999  6.0311902429480000
  5.2254595912979998  5.2746794281309999  1.8455104128380002
  2.3668085950459998  5.2753789967649993  2.6994066085219997
  3.3230228783880005  0.3357632299820000  0.6895094743550000
  0.4937036170360000  1.7607997316139998  6.8850894964949996
  5.2559872277479993  3.8505368133780005  7.1867701716969998
  2.3978439875899995  6.6994066334289997  8.0405813935579999
  1.2847598906360000  3.0156994752579998  4.2998222047879997
  5.0213817795460001  6.5146691967350003  6.4059945545019996
  4.1427807064900000  0.5043652144670000  3.4457544328990002
  1.5748503572179999  6.5302352081509998  5.2852510633829999
  4.4108606451999997  5.2774356581560005 -0.8942012263230001
  0.6996222231379999  0.5203319516229999  2.3242955047520000
  2.1624665762399995  4.0348356507879997  7.2603198139209999
  4.1705151260040001  1.7612033178379998  8.7703628590040008
  4.4330769958519998  4.0188376811820001  4.4310800249979998
  1.5522154083079998  5.2728699127139995 -0.0406304424860000
  1.3118812954020000  1.7584442287869999  9.6240868610380002
  3.5582403868320003  3.0004396610680000  1.4692236363850000
