Ca Mo N 
 1.0000000000000000
     7.4880620000000002    0.0060290000000000    0.0000000000000000
    -3.7351299999999998    6.5294480000000004    0.0000000000000000
     0.0000000000000000    0.0000000000000000    5.0670370000000000
 Ca  Mo  N  
   6   2   6
Cartesian
  4.2531131286700008  4.2477761877039999  1.2667592500000000
  5.3067958580760006  0.7068383284920001  1.2667592500000000
  1.6875604674360001  1.5471663041670001  1.2667592500000000
 -0.5000613552819999  2.2876747789100000  3.8002777500000002
 -1.5539464403820000  5.8284818260890008  3.8002777500000002
  2.0653043002239997  4.9884282258970005  3.8002777500000002
  3.7405174611460001  2.1725315416690001  3.8002777500000002
  0.0124108571300002  4.3629911825539995  1.2667592500000000
  4.3121005293580010  3.9402168921129999  3.8002777500000002
  4.9973869291940005  0.8093839255610001  3.8002777500000002
  1.9302764903580001  1.7629523499149999  3.8002777500000002
 -0.5592958264119999  2.5952600053940000  1.2667592500000000
 -1.2443611414980003  5.7262303315140004  1.2667592500000000
  1.8227339829760003  4.7724136615270005  1.2667592500000000
