Ti B 
 1.0000000000000000
     3.0538539999999998    0.0000000000000000    0.0000000000000000
     0.0000000000000000    4.5686689999999999    0.0000000000000000
     0.0000000000000000    0.0000000000000000    6.1184310000000002
 Ti  B  
   4   4
Cartesian
  0.7634635000000000  1.7267101738740001  4.1450412127079996
  2.2903905000000000  2.8419588261260000  1.9733897872919999
  2.2903905000000000  4.0110446738740002  5.0326052872920002
  0.7634635000000000  0.5576243261260000  1.0858257127080000
  0.7634635000000000  4.1168596165829996  3.2414713226280005
  2.2903905000000000  0.4518093834169999  2.8769596773720001
  2.2903905000000000  1.8325251165829999  5.9361751773720002
  0.7634635000000000  2.7361438834169998  0.1822558226280000
