Hf Cr
 1.0000000000000000
     5.0483969999999996    0.0000000000000000    0.0000000000000000
    -2.5241980000000002    4.3720400000000001    0.0000000000000000
     0.0000000000000000    0.0000000000000000    8.1004269999999998
 Hf  Cr 
   4   8
Cartesian
 -0.0000021908650003  2.9146947906800000  3.5604940852880000
  2.5242011908649995  1.4573452093200001  4.5399329147119998
  2.5242011908649995  1.4573452093200001  7.6107075852880000
 -0.0000021908650003  2.9146947906800000  0.4897194147120000
  0.0000052169169998  1.4735523616000001  6.0753202499999999
 -1.2480567180050002  3.6352594471600002  6.0753202499999999
  1.2761313537219998  0.7367805528400000  2.0251067500000000
  2.5241937830829997  2.8984876384000002  2.0251067500000000
  1.2480676462779996  3.6352594471600002  6.0753202499999999
  0.0000000000000000  0.0000000000000000  0.0000000000000000
  3.7722557180049998  0.7367805528400000  2.0251067500000000
  0.0000000000000000  0.0000000000000000  4.0502134999999999
