Nb Si
 1.0000000000000000
     7.5847160000000002    0.0000000000000000    0.0000000000000000
    -3.7923580000000001    6.5685570000000002    0.0000000000000000
     0.0000000000000000    0.0000000000000000    5.2970110000000004
 Nb  Si 
  10   6
Cartesian
  0.9499136241980001  1.6452987259170002  3.9727582500000000
  5.6848887516040003  0.0000000000000000  3.9727582500000000
 -0.9499136241980001  1.6452987259170002  1.3242527500000001
 -0.0000037923580002  4.3790401895190003  0.0000000000000000
 -2.8424443758020002  4.9232582740830004  3.9727582500000000
  3.7923617923579998  2.1895168104809999  0.0000000000000000
  1.8998272483960001  0.0000000000000000  1.3242527500000001
 -0.0000037923580002  4.3790401895190003  2.6485055000000002
  2.8424443758020002  4.9232582740830004  1.3242527500000001
  3.7923617923579998  2.1895168104809999  2.6485055000000002
  1.4895244516600001  2.5799321328900002  1.3242527500000001
 -2.3028335483400002  3.9886248671100004  1.3242527500000001
 -1.4895244516600001  2.5799321328900002  3.9727582500000000
  4.6056670966800004  0.0000000000000000  1.3242527500000001
  2.3028335483400002  3.9886248671100004  3.9727582500000000
  2.9790489033200003  0.0000000000000000  3.9727582500000000
