Mn Ga Ni
 1.0000000000000000
     3.4552489999999998    0.0000000000000000   -1.7468410000000001
    -0.8831360000000000    3.3404810000000000   -1.7468410000000001
    -0.0410110000000000   -0.0532620000000000    4.2095380000000002
 Mn  Ga  Ni 
   1   1   2
Cartesian
  1.2860564999999999  1.6702405000000000 -1.7468410000000001
  0.0000000000000000  0.0000000000000000  0.0000000000000000
  0.1809547499999999  2.4787297499999998  0.3579280000000000
  2.3501472499999996  0.8084892500000000  0.3579280000000000
