Al Sb
 1.0000000000000000
     6.2343770000000003    0.0000000000000000    0.0000000000000000
     0.0000000000000000    6.2343770000000003    0.0000000000000000
     0.0000000000000000    0.0000000000000000    6.2343770000000003
 Al  Sb 
   4   4
Cartesian
  0.0000000000000000  0.0000000000000000  0.0000000000000000
  0.0000000000000000  3.1171885000000001  3.1171885000000001
  3.1171885000000001  0.0000000000000000  3.1171885000000001
  3.1171885000000001  3.1171885000000001  0.0000000000000000
  4.6757827499999998  4.6757827499999998  1.5585942500000001
  4.6757827499999998  1.5585942500000001  4.6757827499999998
  1.5585942500000001  4.6757827499999998  4.6757827499999998
  1.5585942500000001  1.5585942500000001  1.5585942500000001
