Ga Cu Cl
 1.0000000000000000
     5.4112299999999998    0.0000000000000000    0.0000000000000000
     0.0000000000000000    5.4112299999999998    0.0000000000000000
     0.0000000000000000    0.0000000000000000   10.1541149999999991
 Ga  Cu  Cl 
   2   2   8
Cartesian
  0.0000000000000000  2.7056149999999999  7.6155862499999998
  2.7056149999999999  0.0000000000000000  2.5385287499999998
  0.0000000000000000  0.0000000000000000  5.0770574999999996
  0.0000000000000000  0.0000000000000000  0.0000000000000000
  4.1262360343599997  3.9699110108900002  6.3588825152549999
  3.9699110108900002  1.2849939656400000  3.7952324847449996
  1.4413189891100000  4.1262360343599997  3.7952324847449996
  4.1262360343599997  1.4413189891100000  8.8722899847449987
  1.2849939656400000  3.9699110108900002  8.8722899847449987
  1.2849939656400000  1.4413189891100000  6.3588825152549999
  1.4413189891100000  1.2849939656400000  1.2818250152549997
  3.9699110108900002  4.1262360343599997  1.2818250152549997
