Ca Cd
 1.0000000000000000
     5.0236380000000000    0.0000000000000000    0.0000000000000000
     0.0000000000000000    7.3850059999999997    0.0000000000000000
     0.0000000000000000    0.0000000000000000    8.6705430000000003
 Ca  Cd 
   4   8
Cartesian
  2.5118190000000000  1.8462514999999999  8.4312360132000013
  2.5118190000000000  5.5387544999999996  0.2393069868000000
  0.0000000000000000  5.5387544999999996  4.0959645132000002
  0.0000000000000000  1.8462514999999999  4.5745784868000001
  0.0000000000000000  7.1448012948439992  7.2357588854459998
  0.0000000000000000  0.2402047051560000  1.4347841145539999
  2.5118190000000000  7.1448012948439992  5.7700556145540007
  2.5118190000000000  0.2402047051560000  2.9004873854460000
  2.5118190000000000  3.4522982948439997  2.9004873854460000
  2.5118190000000000  3.9327077051560004  5.7700556145540007
  0.0000000000000000  3.4522982948439997  1.4347841145539999
  0.0000000000000000  3.9327077051560004  7.2357588854459998
