Li Ag Au
 1.0000000000000000
     0.0000000000000000    3.1004090000000000    3.1004090000000000
     3.1004090000000000    0.0000000000000000    3.1004090000000000
     3.1004090000000000    3.1004090000000000    0.0000000000000000
 Li  Ag  Au 
   2   1   1
Cartesian
  0.0000000000000000  0.0000000000000000  0.0000000000000000
  3.1004152008179999  3.1004152008179999  3.1004152008179999
  1.5502045000000000  1.5502045000000000  1.5502045000000000
  4.6506135000000004  4.6506135000000004  4.6506135000000004
