Tb Zn
 1.0000000000000000
     4.0911780000000002   -0.0000000000000000    1.7627409999999999
     1.9280839999999999    5.1466839999999996    1.1540900000000001
     0.0056860000000000   -0.0197140000000000    5.6158149999999996
 Tb  Zn 
   2   4
Cartesian
  3.5560698136000002  3.7053769759999997  3.0046825612000001
  2.4688781864000005  1.4215930239999999  5.5279634387999996
  4.7877738164639991  3.6494513180399997  5.7750346818480001
  1.2371741835360002  1.4775186819599999  2.7576113181520001
  3.6456814627439997  0.6151008043200000  2.7967237983479998
  2.3792665372560000  4.5118691956799992  5.7359222016519995
