Mg Au
 1.0000000000000000
     8.1359239999999993    0.0000000000000000    0.0000000000000000
    -4.0679619999999996    7.0459170000000002    0.0000000000000000
     0.0000000000000000    0.0000000000000000    8.5660919999999994
 Mg  Au 
  18   6
Cartesian
  1.0502908369320003  2.5802429890680001  3.6138885912359999
 -2.3585514840939998  4.8462169421850003  3.6138885912359999
  1.3082606471619997  6.6653740687470000  3.6138885912359999
  5.1182528369319993  4.4656740109320001  0.6691574087640000
  1.7094105159059994  2.1997000578149999  0.6691574087640000
  5.3762226471619989  0.3805429312530000  0.6691574087640000
  0.0000000000000000  0.0000000000000000  6.4245690000000000
  0.0000000000000000  0.0000000000000000  2.1415229999999998
  4.0679660679619998  2.3486366513610002  6.9890487645239991
 -0.0000040679620000  4.6972803486390005  5.8600892354759999
 -0.0000040679620000  4.6972803486390005  1.5770432354759998
  4.0679660679619998  2.3486366513610002  2.7060027645239995
 -1.3082606471619997  6.6653740687470000  7.8969345912359996
  2.3585514840939998  4.8462169421850003  7.8969345912359996
 -1.0502908369319999  2.5802429890680001  7.8969345912359996
  2.7597013528379994  0.3805429312530000  4.9522034087639994
  6.4265134840939995  2.1997000578149999  4.9522034087639994
  3.0176711630679995  4.4656740109320001  4.9522034087639994
 -1.3823056914859999  2.3942237343510002  2.1415229999999998
  2.6856563085139999  4.6516932656490004  2.1415229999999998
  2.7646113829719998  0.0000000000000000  2.1415229999999998
 -2.6856563085139999  4.6516932656490004  6.4245690000000000
  1.3823056914859999  2.3942237343510002  6.4245690000000000
  5.3713126170279999  0.0000000000000000  6.4245690000000000
