Al Os
 1.0000000000000000
    15.9534859999999998    0.0000000000000000   -7.7286210000000004
     0.0000000000000000    4.2353430000000003    0.0000000000000000
    -0.0020850000000000    0.0000000000000000    7.8273809999999999
 Al  Os 
  26   8
Cartesian
 13.8742983100220005  0.0000000000000000 -0.1275060452640007
 12.6533170279739995  0.0000000000000000 -5.4750780135450006
  1.3924796464279998  2.1176715000000002  5.5699533298560002
  1.4077380159380000  2.1176715000000002  2.1834005861099999
  2.0771026899779996  0.0000000000000000  0.2262660452640000
  3.8345797690300003  2.1176715000000002  1.1370156364679995
  1.3583075889110001  0.0000000000000000  3.7888296158730004
 14.5436629840619993  2.1176715000000002 -2.0846405861100008
  0.0000000000000000  2.1176715000000002  0.0000000000000000
 14.5589213535719999  2.1176715000000002 -5.4711933298560007
 12.1168212309700003  2.1176715000000002 -1.0382556364680002
  3.2980839720260002  0.0000000000000000  5.5738380135450001
 14.5930934110890007  0.0000000000000000 -3.6900696158730009
  5.8975553100219997  2.1176715000000002  3.7368044547359993
  4.6765740279739996  2.1176715000000002 -1.6107675135449999
  9.3692226464280015  0.0000000000000000  1.7056428298560002
  9.3844810159380003  0.0000000000000000 -1.6809099138900003
 10.0538456899779991  2.1176715000000002 -3.6380444547359998
 11.8113227690299993  0.0000000000000000 -2.7272948635320011
  9.3350505889109989  2.1176715000000002 -0.0754808841269992
  6.5669199840620003  0.0000000000000000  1.7796699138899994
  7.9767429999999999  0.0000000000000000 -3.8643105000000002
  6.5821783535720000  0.0000000000000000 -1.6068828298560001
  4.1400782309699995  0.0000000000000000  2.8260548635319998
 11.2748269720260001  2.1176715000000002  1.7095275135449999
  6.6163504110889999  2.1176715000000002  0.1742408841270001
  0.1347723954480000  0.0000000000000000  6.2324810119530003
 12.6736710613220005  2.1176715000000002 -3.8582585753820009
 15.8166286045519993  0.0000000000000000 -6.1337210119529999
  3.2777299386780001  2.1176715000000002  3.9570185753819995
  8.1115153954480004  2.1176715000000002  2.3681705119529997
  4.6969280613219997  0.0000000000000000  0.0060519246179997
  7.8398856045520002  2.1176715000000002 -2.2694105119530006
 11.2544729386779991  0.0000000000000000  0.0927080753819998
