Pm Cu
 1.0000000000000000
     6.1563220000000003    0.0002930000000000    0.0000000000000000
    -3.0779060000000000    5.3316809999999997    0.0000000000000000
     0.0000000000000000    0.0000000000000000    4.2591580000000002
 Pm  Cu 
   2   6
Cartesian
  0.0001638440179998  3.5545587754770001  3.1943685000000004
  3.0782521559820002  1.7774152245229999  1.0647895000000001
  4.9280219283519999  0.7094529062079999  3.1943685000000004
  1.2284017734040000  0.7093568062960001  3.1943685000000004
  3.0782865955599998  3.9134732816600000  3.1943685000000004
 -1.8495966941239999  4.6225157624039994  1.0647895000000001
  1.8500142271060003  4.6226278573590003  1.0647895000000001
  0.0001170912860001  1.4184900540990000  1.0647895000000001
