Cs K  Zr O  F 
 1.0000000000000000
    -3.3392919999999999    3.3392919999999999    4.7641130000000000
     3.3392919999999999   -3.3392919999999999    4.7641130000000000
     3.3392919999999999    3.3392919999999999   -4.7641130000000000
 Cs  K   Zr  O   F  
   2   1   1   1   5
Cartesian
  3.3392919999999999  0.0000000000000000  2.3640005117300005
  0.0000000000000000  3.3392919999999999  2.3640005117300005
  0.0000000000000000 -0.0000000000000000  4.7895819480980002
  0.0000000000000001 -0.0000000000000001  9.3575468876620000
 -0.0000000000000000  0.0000000000000000  7.4629067886920000
 -1.8609573779720001  1.8609573779720001  4.8021734987569999
  1.8609607172639999  1.8609607172640001  4.8021687346439998
  1.4783312827360000  1.4783312827360000  0.0380652628700001
 -0.0000000000000000  0.0000000000000000  2.0943898288340002
  1.8609573779719999 -1.8609573779719999  4.8021734987569999
