Rb Nb O 
 1.0000000000000000
     5.1456739999999996   -0.0104150000000000   -0.0036100000000000
    -0.6860010000000000    8.4443900000000003    0.0631210000000000
    -0.5511170000000000   -3.8050690000000000    8.1280959999999993
 Rb  Nb  O  
   4   4  12
Cartesian
  2.2298364999999998  4.2169875000000001  0.0297555000000000
  1.9542779999999997  2.3144530000000003  4.0938034999999999
  4.2221081076099995 -0.5668838032789998  4.8481395166129992
 -0.3135521076100000  5.1957898032790002  3.3394674833869997
  4.1218157089969987  3.3430350503280000  6.9988803979889997
 -0.2132597089970000  1.2858709496720002  1.1887266020109999
  1.6587709427680000  7.6240391051180012  1.5866470550529999
  2.2497850572319997 -2.9951331051180001  6.6009599449469993
  0.3590770281970000  2.8483433461779999  1.8986948497489999
  3.5494789718029995  1.7805626538220003  6.2889121502509990
  2.2946951499229993  6.2996914374669997  2.6389336986230001
  1.6138608500769998 -1.6707854374669999  5.5486733013769989
  0.5523857526370000  6.4405168542520004  0.4030602190160000
  3.3561702473630004 -1.8116108542520002  7.7845467809839999
  3.3788419219049994  0.8096930023270003  2.2432863312139997
  0.5297140780949997  3.8192129976730000  5.9443206687859993
  3.1133699406549997  4.7072599196780009  5.7647294293239995
  0.7951860593449999 -0.0783539196779999  2.4228775706760000
  3.1494045034099996  7.7689329768980011  0.1304949321520000
  0.7591514965899998 -3.1400269768980000  8.0571120678479993
