Sr Ir O 
 1.0000000000000000
     5.3501190000000003   -0.0000000000000000   -1.1150580000000001
    -0.2323970000000000    5.3450680000000004   -1.1150580000000001
     0.0311600000000000    0.0325450000000000   13.5421449999999997
 Sr  Ir  O  
   8   4  16
Cartesian
  4.2732799813720002  0.2722715464180000  0.4144905764339999
  2.8932309813720001  1.6248110464180001  7.1855630764339997
  3.6668600186280003  2.4328074535820003 10.8975384235659991
  5.0469090186279999  1.0802679535820001  4.1264659235659993
  0.1019729813720000  4.2973450464180001  7.1855630764339997
  1.4820219813719999  2.9448055464179999  0.4144905764339999
  2.2556510186280008  3.7528019535820003  4.1264659235659993
  0.8756020186279999  5.1053414535820005 10.8975384235659991
  0.6049860000000000  2.0288092500000001  9.5990797499999996
  4.5438960000000002  3.3488037500000005  1.7129492499999999
  1.9850350000000001  0.6762697500000000  2.8280072499999998
  3.1638470000000001  4.7013432500000008  8.4840217500000001
  4.9562428521659996  3.7794685247290003  3.6914025207769998
  1.0173275020470001  2.4594740247289999 11.5775341358350001
  2.7515001478340002  4.2706784752710005  6.5055684792229993
  1.5726881478340002  0.2456049752710000  0.8495539792229999
  0.1926391478340000  1.5981444752710003  7.6206264792229987
  4.1315491478339998  2.9181389752710003 -0.2655040207770001
  2.3973820845630005  1.1069291796610001  4.8064616358349994
  3.5761938521659999  5.1320080247290010 10.4624750207769992
  4.9965519371639999  0.3853130864280000  9.0415507499999990
  0.8835675428380000  2.3197659135720006  2.6998224124359997
  2.8541054571620008  4.3778415864280005  1.8411340875639997
  1.5635390628360000  3.6723054135719999  9.0415507499999990
  3.5853429371640000  1.7053075864280001  2.2704782500000000
  2.2947765428380000  0.9997714135720001  9.4708949124360000
  4.2653144571620007  3.0578470864280005  8.6122065875639997
  0.1523300628360000  4.9922999135719994  2.2704782500000000
