Tm Zn
 1.0000000000000000
     3.4937339999999999    0.0000000000000000    0.0000000000000000
     0.0000000000000000    3.4937339999999999    0.0000000000000000
     0.0000000000000000    0.0000000000000000    3.4937339999999999
 Tm  Zn 
   1   1
Cartesian
  0.0000000000000000  0.0000000000000000  0.0000000000000000
  1.7468669999999999  1.7468669999999999  1.7468669999999999
