Cd C  O 
 1.0000000000000000
     4.5252600000000003   -0.0069090000000000    4.1574700000000000
     1.8218300000000001    4.1423379999999996    4.1574700000000000
    -0.0106040000000000   -0.0069090000000000    6.1451140000000004
 Cd  C   O  
   2   2   6
Cartesian
  3.1682430000000004  2.0642599999999995  7.2300269999999998
  0.0000000000000000  0.0000000000000000  0.0000000000000000
  4.7523645000000005  3.0963899999999995 10.8450404999999996
  1.5841215000000002  1.0321299999999998  3.6150134999999999
  4.2853775617120009  2.0218724558960002  5.2179701310080002
  1.4092958060480001  3.1032989999999998  6.1695268689920004
  4.1105518677599999  4.0930414558959995  7.7724834999999999
  2.0511084382880003  2.1066475441039998  9.2420838689920011
  4.9271901939519998  1.0252209999999999  8.2905271310080000
  2.2259341322400004  0.0354785441040000  6.6875705000000005
