Dy Cl
 1.0000000000000000
     3.7862040000000001   -0.0000960000000000    0.0000000000000000
    -1.8932549999999999    6.1086720000000003    0.0000010000000000
     0.0000000000000000    0.0000020000000000    8.5174789999999998
 Dy  Cl 
   2   6
Cartesian
 -0.0000173892959999  2.9617800622080006  6.3881097348519997
  1.8929777479079999  3.1467979375040005  2.1293702651479998
  1.8927618149670000  1.1108128909440000  6.3881094318509994
  0.0001871850330001  4.9977651090560000  2.1293705681490001
 -0.0001806549509999  1.8463507978859999  3.6821320263899997
  1.8931220825430000  4.2622272023060006  4.8353479736100002
  1.8931220825430000  4.2622279315180007  7.9408719218839998
 -0.0001806549509999  1.8463500686740000  0.5766080781159999
