Ta Al
 1.0000000000000000
     3.8592010000000001    0.0000000000000000    0.0000000000000000
     0.0000000000000000    3.8592010000000001    0.0000000000000000
     0.0000000000000000    0.0000000000000000    8.5707690000000003
 Ta  Al 
   2   6
Cartesian
  0.0000000000000000  0.0000000000000000  0.0000000000000000
  1.9296005000000001  1.9296005000000001  4.2853845000000002
  1.9296005000000001  1.9296005000000001  0.0000000000000000
  1.9296005000000001  0.0000000000000000  6.4280767500000007
  0.0000000000000000  1.9296005000000001  6.4280767500000007
  0.0000000000000000  0.0000000000000000  4.2853845000000002
  0.0000000000000000  1.9296005000000001  2.1426922500000001
  1.9296005000000001  0.0000000000000000  2.1426922500000001
