Al Zn Se
 1.0000000000000000
     5.0743559999999999   -0.0000270000000000   -2.2869109999999999
    -1.0306489999999999    4.9685759999999997   -2.2869359999999999
    -0.0204050000000000   -0.0250370000000000    6.7278510000000002
 Al  Zn  Se 
   2   1   4
Cartesian
  0.4853997500000000  3.7139067499999996  1.0769957500000005
  2.0218534999999997  2.4842744999999997 -2.2869234999999999
  0.0000000000000000  0.0000000000000000  0.0000000000000000
  1.5976781425639999  1.8836738008599998 -0.0022630548559998
 -0.0426534888060000  2.9965616812949998  3.3037181068230002
  2.9942566103560004  0.6301644426060000  3.2454663820260001
  3.4973166308810000  4.3766290438419997 -2.2389134340179995
