Ac Mg Hg
 1.0000000000000000
     0.0000000000000000    3.7958669999999999    3.7958669999999999
     3.7958669999999999    0.0000000000000000    3.7958669999999999
     3.7958669999999999    3.7958669999999999    0.0000000000000000
 Ac  Mg  Hg 
   1   1   2
Cartesian
  1.8979334999999999  1.8979334999999999  1.8979334999999999
  5.6938005000000000  5.6938005000000000  5.6938005000000000
  0.0000000000000000  0.0000000000000000  0.0000000000000000
  3.7958669999999999  3.7958669999999999  3.7958669999999999
