Be V  Ru
 1.0000000000000000
    -0.0000440000000000    2.8982869999999998    2.8982869999999998
     2.8982869999999998   -0.0000440000000000    2.8982869999999998
     2.8982869999999998    2.8982869999999998   -0.0000440000000000
 Be  V   Ru 
   1   1   2
Cartesian
  1.4490281624599999  1.4490281624600001  1.4490281624600001
  4.3473859069400005  4.3473859069400005  4.3473859069399996
  0.0001159306000000  0.0001159306000000  0.0001159306000000
  2.8982418138799999  2.8982418138799999  2.8982418138799999
