Tm Cu Si
 1.0000000000000000
     3.6703320000000001    0.0000000000000000   -1.3419150000000000
    -0.4906190000000000    3.6373920000000002   -1.3419150000000000
    -0.0008880000000000   -0.0010160000000000    5.6879700000000000
 Tm  Cu  Si 
   1   2   2
Cartesian
  0.0000000000000000  0.0000000000000000  0.0000000000000000
  2.6296502500000001  0.9088400000000001  1.5020700000000000
  0.5491747500000000  2.7275360000000002  1.5020700000000000
  1.9608170860099998  2.2430515728000002 -0.3272849997000000
  1.2180079139900000  1.3933244272000000  3.3314249997000003
