Rb Pt I 
 1.0000000000000000
     6.9558749999999998    0.0000000000000000    4.0159760000000002
     2.3186249999999999    6.5580619999999996    4.0159760000000002
     0.0000000000000000    0.0000000000000000    8.0319509999999994
 Rb  Pt  I  
   2   1   6
Cartesian
  6.9558749999999998  4.9185464999999997 12.0479272500000008
  2.3186249999999999  1.6395154999999999  4.0159757500000000
  0.0000000000000000  0.0000000000000000  0.0000000000000000
  5.8553118202499999  1.5564314125219998  5.9222069627809999
  3.4191881797499999  5.0016305874780000 10.1416960372190008
  5.8553118202499999  1.5564314125219998 10.1416960372190008
  3.4191881797499999  5.0016305874780000  5.9222069627809999
  7.0733736405000007  5.0016305874780000  8.0319517626690011
  2.2011263594999999  1.5564314125219998  8.0319512373310005
