Hf Pd
 1.0000000000000000
     3.2894630000000000    0.0000000000000000    0.0000000000000000
     0.0000000000000000    3.2894630000000000    0.0000000000000000
     0.0000000000000000    0.0000000000000000   10.8483239999999999
 Hf  Pd 
   4   2
Cartesian
  1.6447315000000000  1.6447315000000000  1.7167581213240000
  1.6447315000000000  1.6447315000000000  9.1315658786759997
  0.0000000000000000  0.0000000000000000  7.1409201213240001
  0.0000000000000000  0.0000000000000000  3.7074038786760002
  0.0000000000000000  0.0000000000000000  0.0000000000000000
  1.6447315000000000  1.6447315000000000  5.4241619999999999
