Hf Hg
 1.0000000000000000
     3.3300820000000000    0.0000000000000000   -0.0000000000000000
     0.0000000000000000    3.3300820000000000   -0.0000000000000000
    -1.6650419999999999   -1.6650419999999999    5.8015530000000002
 Hf  Hg 
   2   1
Cartesian
  1.6650439986120000  1.6650439986120000  1.9230407729100001
 -0.0000039986119999 -0.0000039986119999  3.8785122270899999
  0.0000000000000000  0.0000000000000000  0.0000000000000000
