Sr Si N 
 1.0000000000000000
     5.5138680000000004   -0.0057270000000000    0.0000000000000000
    -2.3963369999999999    5.5061059999999999    0.0000000000000000
     0.0000000000000000    0.0000000000000000    7.2829240000000004
 Sr  Si  N  
   4   4   8
Cartesian
  2.9165363174910004  1.8580793687689998  6.7727988713440004
  2.9579286825089999  3.6394361312309997  3.1313368713440002
  0.2009946825090003  3.6422996312309999  0.5101251286560000
  0.1596023174910002  1.8609428687689999  4.1515871286559998
  0.0998992285410001  0.5897684095280000  1.0291718392120000
  3.0176317714590000  4.9106105904719994  6.2537521607880002
  0.2606977714590006  4.9134740904719996  4.6706338392120008
  2.8568332285410003  0.5869049095280000  2.6122901607880000
  4.3265729294249997  1.1926694769490001  1.9755878130119999
  1.5478920705750006  4.3048460230509997  5.6170498130120006
 -1.2090419294249999  4.3077095230509999  5.3073361869880005
  1.5696389294250006  1.1955329769490000  1.6658741869880000
 -0.0292494395849999  1.1379637419080000  6.6296384342760000
  2.7276845604150006  1.1351002419080001  4.2947475657240002
  3.1467780432480001  4.3624207641979993  0.6532855657240001
  0.3898440432480001  4.3652842641979994  2.9881764342760002
